f2co                                                                    
Freq      RB3LYP                                                      6-31G(d)            
Number of atoms                            I                4
Info1-9                                    I   N=           9
          15          13           0           0           0         101
           6          18        -502
Full Title                                 C   N=           1
f2co        
Route                                      C   N=           5
#B3LYP 6-31G* freq=anharm output=pickett iop(7/8=10)        
Point Group                                C   N=           2
C02V                    
Point Group NOp                            I                4
Point Group Abelian NOp                    I                4
Point Group NClass                         I                4
Point Group NIrrep                         I                4
Point Group NGen                           I                2
Point Group NOp symm assign                I                2
Point Group Irrep Names                    H   N=           4
A1      A2      B1      B2      
Point Group Class Names                    H   N=           4
E       C2      Sgm     Sgm'    
Point Group Generators                     I   N=           2
           2           3
Point Group Class of Operators             I   N=           4
           1           2           3           4
Point Group Rotations                      R   N=          48
  1.00000000E+00  0.00000000E+00  0.00000000E+00  0.00000000E+00  1.00000000E+00
 -3.62465450E-32  0.00000000E+00 -3.62465450E-32  1.00000000E+00  0.00000000E+00
  0.00000000E+00  0.00000000E+00 -1.00000000E+00 -1.22464680E-16  0.00000000E+00
  1.22464680E-16 -1.00000000E+00  1.37501482E-32 -4.93038066E-32 -3.62465450E-32
  1.00000000E+00  0.00000000E+00  0.00000000E+00  0.00000000E+00 -1.00000000E+00
  0.00000000E+00  0.00000000E+00  0.00000000E+00  1.00000000E+00 -3.62465450E-32
  0.00000000E+00 -3.62465450E-32  1.00000000E+00  0.00000000E+00  0.00000000E+00
  0.00000000E+00  1.00000000E+00 -1.22464680E-16 -2.46519033E-32 -1.22464680E-16
 -1.00000000E+00  5.87429417E-32  0.00000000E+00 -3.62465450E-32  1.00000000E+00
  0.00000000E+00  0.00000000E+00  0.00000000E+00
Point Group Cell Trans                     I   N=          12
           0           0           0           0           0           0
           0           0           0           0           0           0
Point Group Char Table                     R   N=          16
  1.00000000E+00  1.00000000E+00  1.00000000E+00  1.00000000E+00  1.00000000E+00
  1.00000000E+00 -1.00000000E+00 -1.00000000E+00  1.00000000E+00 -1.00000000E+00
 -1.00000000E+00  1.00000000E+00  1.00000000E+00 -1.00000000E+00  1.00000000E+00
 -1.00000000E+00
Point Group Atom Permutations              I   N=          16
           1           2           3           4           1           2
           4           3           1           2           3           4
           1           2           4           3
Charge                                     I                0
Multiplicity                               I                1
Number of electrons                        I               32
Number of alpha electrons                  I               16
Number of beta electrons                   I               16
Number of basis functions                  I               60
Number of independent functions            I               60
Number of point charges in /Mol/           I                0
Number of translation vectors              I                0
Atomic numbers                             I   N=           4
           8           6           9           9
Nuclear charges                            R   N=           4
  8.00000000E+00  6.00000000E+00  9.00000000E+00  9.00000000E+00
Current cartesian coordinates              R   N=          12
  0.00000000E+00  2.92510324E-31  2.50065190E+00 -1.23259516E-32  7.53705646E-33
  2.70272410E-01  0.00000000E+00  2.01939157E+00 -1.20149165E+00 -2.47304143E-16
 -2.01939157E+00 -1.20149165E+00
Number of symbols in /Mol/                 I                0
Int Atom Types                             I   N=           4
           0           0           0           0
Force Field                                I                0
Atom Types                                 C   N=           4
                                                
MM charges                                 R   N=           4
  0.00000000E+00  0.00000000E+00  0.00000000E+00  0.00000000E+00
Integer atomic weights                     I   N=           4
          16          12          19          19
Real atomic weights                        R   N=           4
  1.59949146E+01  1.20000000E+01  1.89984032E+01  1.89984032E+01
Atom fragment info                         I   N=           4
           0           0           0           0
Atom residue num                           I   N=           4
           0           0           0           0
Nuclear spins                              I   N=           4
           0           0           1           1
Nuclear ZEff                               R   N=           4
 -5.60000000E+00 -3.60000000E+00 -6.75000000E+00 -6.75000000E+00
Nuclear ZNuc                               R   N=           4
  8.00000000E+00  6.00000000E+00  9.00000000E+00  9.00000000E+00
Nuclear QMom                               R   N=           4
  0.00000000E+00  0.00000000E+00  0.00000000E+00  0.00000000E+00
Nuclear GFac                               R   N=           4
  0.00000000E+00  0.00000000E+00  2.62886700E+00  2.62886700E+00
MicOpt                                     I   N=           4
          -1          -1          -1          -1
Number of residues                         I                0
Number of secondary structures             I                0
SymInf integers                            I   N=          26
           2           4           1           1           1          -1
          -1           1          -1           1           1           1
          -1           1           0           0           0           0
           0           0           0           0           0           0
           0           0
RotTr to input orientation                 R   N=          12
 -1.83697020E-16 -1.97317000E-16  1.00000000E+00 -1.83861885E-15  1.00000000E+00
  1.97317000E-16 -1.00000000E+00 -1.83861885E-15 -1.83697020E-16 -3.65473032E-02
  0.00000000E+00 -6.95542901E-17
Number of contracted shells                I               16
Number of primitive shells                 I               44
Pure/Cartesian d shells                    I                1
Pure/Cartesian f shells                    I                0
Highest angular momentum                   I                2
Largest degree of contraction              I                6
Shell types                                I   N=          16
           0          -1          -1           2           0          -1
          -1           2           0          -1          -1           2
           0          -1          -1           2
Number of primitives per shell             I   N=          16
           6           3           1           1           6           3
           1           1           6           3           1           1
           6           3           1           1
Shell to atom map                          I   N=          16
           1           1           1           1           2           2
           2           2           3           3           3           3
           4           4           4           4
Primitive exponents                        R   N=          44
  5.48467166E+03  8.25234946E+02  1.88046958E+02  5.29645000E+01  1.68975704E+01
  5.79963534E+00  1.55396162E+01  3.59993359E+00  1.01376175E+00  2.70005823E-01
  8.00000000E-01  3.04752488E+03  4.57369518E+02  1.03948685E+02  2.92101553E+01
  9.28666296E+00  3.16392696E+00  7.86827235E+00  1.88128854E+00  5.44249258E-01
  1.68714478E-01  8.00000000E-01  7.00171309E+03  1.05136609E+03  2.39285690E+02
  6.73974453E+01  2.15199573E+01  7.40310130E+00  2.08479528E+01  4.80830834E+00
  1.34406986E+00  3.58151393E-01  8.00000000E-01  7.00171309E+03  1.05136609E+03
  2.39285690E+02  6.73974453E+01  2.15199573E+01  7.40310130E+00  2.08479528E+01
  4.80830834E+00  1.34406986E+00  3.58151393E-01  8.00000000E-01
Contraction coefficients                   R   N=          44
  1.83107443E-03  1.39501722E-02  6.84450781E-02  2.32714336E-01  4.70192898E-01
  3.58520853E-01 -1.10777550E-01 -1.48026263E-01  1.13076702E+00  1.00000000E+00
  1.00000000E+00  1.83473713E-03  1.40373228E-02  6.88426223E-02  2.32184443E-01
  4.67941348E-01  3.62311985E-01 -1.19332420E-01 -1.60854152E-01  1.14345644E+00
  1.00000000E+00  1.00000000E+00  1.81961690E-03  1.39160796E-02  6.84053245E-02
  2.33185760E-01  4.71267439E-01  3.56618546E-01 -1.08506975E-01 -1.46451658E-01
  1.12868858E+00  1.00000000E+00  1.00000000E+00  1.81961690E-03  1.39160796E-02
  6.84053245E-02  2.33185760E-01  4.71267439E-01  3.56618546E-01 -1.08506975E-01
 -1.46451658E-01  1.12868858E+00  1.00000000E+00  1.00000000E+00
P(S=P) Contraction coefficients            R   N=          44
  0.00000000E+00  0.00000000E+00  0.00000000E+00  0.00000000E+00  0.00000000E+00
  0.00000000E+00  7.08742682E-02  3.39752839E-01  7.27158577E-01  1.00000000E+00
  0.00000000E+00  0.00000000E+00  0.00000000E+00  0.00000000E+00  0.00000000E+00
  0.00000000E+00  0.00000000E+00  6.89990666E-02  3.16423961E-01  7.44308291E-01
  1.00000000E+00  0.00000000E+00  0.00000000E+00  0.00000000E+00  0.00000000E+00
  0.00000000E+00  0.00000000E+00  0.00000000E+00  7.16287242E-02  3.45912103E-01
  7.22469956E-01  1.00000000E+00  0.00000000E+00  0.00000000E+00  0.00000000E+00
  0.00000000E+00  0.00000000E+00  0.00000000E+00  0.00000000E+00  7.16287242E-02
  3.45912103E-01  7.22469956E-01  1.00000000E+00  0.00000000E+00
Coordinates of each shell                  R   N=          48
 -1.54114572E-32  4.59425434E-48  2.50065190E+00 -1.54114572E-32  4.59425434E-48
  2.50065190E+00 -1.54114572E-32  4.59425434E-48  2.50065190E+00 -1.54114572E-32
  4.59425434E-48  2.50065190E+00 -1.66568233E-33  6.17557830E-49  2.70272410E-01
 -1.66568233E-33  6.17557830E-49  2.70272410E-01 -1.66568233E-33  6.17557830E-49
  2.70272410E-01 -1.66568233E-33  6.17557830E-49  2.70272410E-01  0.00000000E+00
  2.01939157E+00 -1.20149165E+00  0.00000000E+00  2.01939157E+00 -1.20149165E+00
  0.00000000E+00  2.01939157E+00 -1.20149165E+00  0.00000000E+00  2.01939157E+00
 -1.20149165E+00 -2.47304143E-16 -2.01939157E+00 -1.20149165E+00 -2.47304143E-16
 -2.01939157E+00 -1.20149165E+00 -2.47304143E-16 -2.01939157E+00 -1.20149165E+00
 -2.47304143E-16 -2.01939157E+00 -1.20149165E+00
Constraint Structure                       R   N=          12
  5.28916593E-16  4.59774574E-15  2.50065190E+00  1.19202526E-16  4.96927948E-16
  2.70272410E-01 -5.49616433E-16  2.01939157E+00 -1.20149165E+00  2.47304143E-16
 -2.01939157E+00 -1.20149165E+00
Constraint Force Constants                 R   N=          12
  0.00000000E+00  0.00000000E+00  0.00000000E+00  0.00000000E+00  0.00000000E+00
  0.00000000E+00  0.00000000E+00  0.00000000E+00  0.00000000E+00  0.00000000E+00
  0.00000000E+00  0.00000000E+00
Num ILSW                                   I              100
ILSW                                       I   N=         100
           0           1           0           1           2           0
           0           0           0           0        4002          -1
           5           0           0           0           2          -1
           0           0           0           0           1           0
           1           0           0           0           0           0
           0           0      100000           0          -1           0
           0           0           0           0           0           0
           0           0           0           1           0           0
           0 -2000000000           1           0           0           0
           0           0        2004          68           0           0
           0           0           5           0           0           0
           0           0           0           0           0           1
           0           0           0           0           0           0
           0           0           0           0           0           0
           0           0           0           0           0           0
           0           0           1           0           0           0
           0           0           0           0
Num RLSW                                   I               68
RLSW                                       R   N=          68
  8.00000000E-01  7.20000000E-01  1.00000000E+00  8.10000000E-01  2.00000000E-01
  0.00000000E+00  0.00000000E+00  1.00000000E+00  0.00000000E+00  0.00000000E+00
  0.00000000E+00  0.00000000E+00  1.00000000E+00  0.00000000E+00  0.00000000E+00
  0.00000000E+00  0.00000000E+00  1.00000000E+00  0.00000000E+00  0.00000000E+00
  0.00000000E+00  0.00000000E+00  1.00000000E+00  0.00000000E+00  0.00000000E+00
  0.00000000E+00  0.00000000E+00  1.00000000E+00  0.00000000E+00  0.00000000E+00
  0.00000000E+00  0.00000000E+00  1.00000000E+00  0.00000000E+00  0.00000000E+00
  0.00000000E+00  0.00000000E+00  0.00000000E+00  1.00000000E+00  1.00000000E+00
  0.00000000E+00  1.00000000E+00  0.00000000E+00  0.00000000E+00  0.00000000E+00
  0.00000000E+00  0.00000000E+00  0.00000000E+00  0.00000000E+00  0.00000000E+00
  0.00000000E+00  0.00000000E+00  1.00000000E+00  1.00000000E+00  1.00000000E+00
  1.00000000E+00  1.00000000E+00  1.00000000E+00  0.00000000E+00  0.00000000E+00
  0.00000000E+00  0.00000000E+00  0.00000000E+00  0.00000000E+00  0.00000000E+00
  0.00000000E+00  2.00000000E-10  1.00000000E-02
MxBond                                     I                3
NBond                                      I   N=           4
           1           3           1           1
IBond                                      I   N=          12
           2           0           0           1           3           4
           2           0           0           2           0           0
RBond                                      R   N=          12
  2.00000000E+00  0.00000000E+00  0.00000000E+00  2.00000000E+00  1.00000000E+00
  1.00000000E+00  1.00000000E+00  0.00000000E+00  0.00000000E+00  1.00000000E+00
  0.00000000E+00  0.00000000E+00
Virial Ratio                               R      2.007407520950900E+00
SCF Energy                                 R     -3.130079509933888E+02
Total Energy                               R     -3.130079509933888E+02
RMS Force                                  R      9.603608403002408E-07
RMS Density                                R      9.045668020706894E-09
NImag                                      I                0
Zero-point Energy                          R      1.413436529840601E-02
Job Status                                 I                1
Nuclear derivative order                   I                3
Energy with zero-point                     R     -3.129938166280904E+02
Thermal Energy                             R     -3.129905126066232E+02
Thermal Enthalpy                           R     -3.129895684218095E+02
Thermal Free Energy                        R     -3.130189950041579E+02
External E-field                           R   N=         105
  0.00000000E+00  0.00000000E+00  0.00000000E+00  0.00000000E+00  0.00000000E+00
  0.00000000E+00  0.00000000E+00  0.00000000E+00  0.00000000E+00  0.00000000E+00
  0.00000000E+00  0.00000000E+00  0.00000000E+00  0.00000000E+00  0.00000000E+00
  0.00000000E+00  0.00000000E+00  0.00000000E+00  0.00000000E+00  0.00000000E+00
  0.00000000E+00  0.00000000E+00  0.00000000E+00  0.00000000E+00  0.00000000E+00
  0.00000000E+00  0.00000000E+00  0.00000000E+00  0.00000000E+00  0.00000000E+00
  0.00000000E+00  0.00000000E+00  0.00000000E+00  0.00000000E+00  0.00000000E+00
  0.00000000E+00  0.00000000E+00  0.00000000E+00  0.00000000E+00  0.00000000E+00
  0.00000000E+00  0.00000000E+00  0.00000000E+00  0.00000000E+00  0.00000000E+00
  0.00000000E+00  0.00000000E+00  0.00000000E+00  0.00000000E+00  0.00000000E+00
  0.00000000E+00  0.00000000E+00  0.00000000E+00  0.00000000E+00  0.00000000E+00
  0.00000000E+00  0.00000000E+00  0.00000000E+00  0.00000000E+00  0.00000000E+00
  0.00000000E+00  0.00000000E+00  0.00000000E+00  0.00000000E+00  0.00000000E+00
  0.00000000E+00  0.00000000E+00  0.00000000E+00  0.00000000E+00  0.00000000E+00
  0.00000000E+00  0.00000000E+00  0.00000000E+00  0.00000000E+00  0.00000000E+00
  0.00000000E+00  0.00000000E+00  0.00000000E+00  0.00000000E+00  0.00000000E+00
  0.00000000E+00  0.00000000E+00  0.00000000E+00  0.00000000E+00  0.00000000E+00
  0.00000000E+00  0.00000000E+00  0.00000000E+00  0.00000000E+00  0.00000000E+00
  0.00000000E+00  0.00000000E+00  0.00000000E+00  0.00000000E+00  0.00000000E+00
  0.00000000E+00  0.00000000E+00  0.00000000E+00  0.00000000E+00  0.00000000E+00
  0.00000000E+00  0.00000000E+00  0.00000000E+00  0.00000000E+00  0.00000000E+00
IOpCl                                      I                0
IROHF                                      I                0
Alpha Orbital Energies                     R   N=          60
 -2.47725080E+01 -2.47725052E+01 -1.92014329E+01 -1.04510599E+01 -1.32961953E+00
 -1.25961155E+00 -1.11252187E+00 -6.88057291E-01 -6.17457326E-01 -5.69946271E-01
 -5.41403141E-01 -4.72788502E-01 -4.70183936E-01 -4.53377536E-01 -3.98037300E-01
 -3.54788467E-01 -1.71247077E-02  8.98248734E-02  2.45050585E-01  3.45330823E-01
  4.67099912E-01  4.68375904E-01  4.74007236E-01  6.38754416E-01  8.20100312E-01
  9.39618276E-01  9.57627144E-01  1.05220550E+00  1.10815177E+00  1.12373758E+00
  1.18967823E+00  1.26660752E+00  1.31925704E+00  1.35972192E+00  1.37884472E+00
  1.38394671E+00  1.59619287E+00  1.67784034E+00  1.68160588E+00  1.76558014E+00
  1.76716660E+00  1.81180993E+00  1.84345569E+00  1.85792410E+00  1.88827949E+00
  1.94769047E+00  2.04176467E+00  2.11542950E+00  2.15933753E+00  2.51772913E+00
  2.69724236E+00  2.76055389E+00  2.82004478E+00  2.99067853E+00  3.07003241E+00
  3.14656059E+00  3.83453111E+00  4.24948146E+00  4.42853515E+00  4.53976912E+00
Alpha MO coefficients                      R   N=        3600
  0.00000000E+00  0.00000000E+00  0.00000000E+00 -2.48525523E-05  0.00000000E+00
  0.00000000E+00  0.00000000E+00  1.29645492E-04  0.00000000E+00  0.00000000E+00
  0.00000000E+00  0.00000000E+00  0.00000000E+00  0.00000000E+00  7.76210508E-05
  0.00000000E+00  0.00000000E+00  0.00000000E+00  7.62463373E-04  0.00000000E+00
  0.00000000E+00  0.00000000E+00 -8.93738060E-04  0.00000000E+00  0.00000000E+00
  0.00000000E+00  0.00000000E+00  0.00000000E+00  0.00000000E+00 -2.46568932E-04
  7.02131976E-01  1.37482687E-02  0.00000000E+00 -4.65083052E-04  3.11772118E-04
  1.11598718E-02  0.00000000E+00  1.39122839E-04 -8.50423576E-05 -5.75125176E-03
 -5.84717064E-03 -5.83440588E-03  0.00000000E+00  0.00000000E+00  1.77233555E-04
 -7.02131976E-01 -1.37482687E-02  0.00000000E+00 -4.65083052E-04 -3.11772118E-04
 -1.11598718E-02  0.00000000E+00  1.39122839E-04  8.50423576E-05  5.75125176E-03
  5.84717064E-03  5.83440588E-03  0.00000000E+00  0.00000000E+00  1.77233555E-04
  2.71381072E-05  1.88337056E-04  0.00000000E+00  0.00000000E+00  4.65878212E-05
 -7.66233300E-04  0.00000000E+00  0.00000000E+00  3.56117883E-04  1.58268110E-04
  4.91487790E-05 -1.36718907E-04  0.00000000E+00  0.00000000E+00  0.00000000E+00
  4.31308440E-05  6.50992781E-04  0.00000000E+00  0.00000000E+00 -5.31239172E-04
 -8.03595493E-04  0.00000000E+00  0.00000000E+00  7.37884570E-04 -2.87105850E-05
  4.73766693E-04  4.01658588E-04  0.00000000E+00  0.00000000E+00  0.00000000E+00
  7.02147247E-01  1.39156538E-02  0.00000000E+00 -4.44175137E-04  3.31945903E-04
  1.07898841E-02  0.00000000E+00  3.11417021E-04 -2.58255799E-04 -5.63593724E-03
 -5.99954720E-03 -5.79125602E-03  0.00000000E+00  0.00000000E+00  2.18804011E-04
  7.02147247E-01  1.39156538E-02  0.00000000E+00  4.44175137E-04  3.31945903E-04
  1.07898841E-02  0.00000000E+00 -3.11417021E-04 -2.58255799E-04 -5.63593724E-03
 -5.99954720E-03 -5.79125602E-03  0.00000000E+00  0.00000000E+00 -2.18804011E-04
  9.92751469E-01  2.57753578E-02  0.00000000E+00  0.00000000E+00 -1.44580315E-03
  1.40550645E-02  0.00000000E+00  0.00000000E+00 -1.76304743E-03 -8.16940794E-03
 -8.15102754E-03 -7.38209488E-03  0.00000000E+00  0.00000000E+00  0.00000000E+00
  1.26849655E-05  4.69674243E-04  0.00000000E+00  0.00000000E+00 -2.34789799E-04
 -3.77799487E-03  0.00000000E+00  0.00000000E+00 -2.80161378E-03  2.84141206E-05
 -7.12619690E-05 -1.20711182E-03  0.00000000E+00  0.00000000E+00  0.00000000E+00
  1.33457026E-05  6.96900819E-05  0.00000000E+00 -3.28586864E-05 -5.01204715E-05
 -2.28033956E-04  0.00000000E+00  3.97591496E-05  2.94134006E-04  4.27284488E-05
  1.93887131E-04 -6.14362377E-05  0.00000000E+00  0.00000000E+00 -3.14633546E-05
  1.33457026E-05  6.96900819E-05  0.00000000E+00  3.28586864E-05 -5.01204715E-05
 -2.28033956E-04  0.00000000E+00 -3.97591496E-05  2.94134006E-04  4.27284488E-05
  1.93887131E-04 -6.14362377E-05  0.00000000E+00  0.00000000E+00  3.14633546E-05
 -2.43306988E-04  2.65055656E-04  0.00000000E+00  0.00000000E+00 -1.15478922E-04
 -2.04802740E-03  0.00000000E+00  0.00000000E+00  1.71444344E-03  1.83511778E-04
  6.85868688E-05 -3.28482547E-05  0.00000000E+00  0.00000000E+00  0.00000000E+00
  9.92951306E-01  4.69343688E-02  0.00000000E+00  0.00000000E+00 -1.26347163E-03
 -2.23567315E-03  0.00000000E+00  0.00000000E+00  4.79219346E-04 -9.77175285E-03
 -8.07683035E-03 -7.70384739E-03  0.00000000E+00  0.00000000E+00  0.00000000E+00
  4.03892402E-06  5.27409586E-04  0.00000000E+00 -7.86991549E-05  8.42456494E-05
 -1.78753056E-03  0.00000000E+00  1.58367286E-03 -1.17130775E-03  4.76074435E-04
 -4.32139853E-04  1.16055789E-04  0.00000000E+00  0.00000000E+00  6.61520779E-04
  4.03892402E-06  5.27409586E-04  0.00000000E+00  7.86991549E-05  8.42456494E-05
 -1.78753056E-03  0.00000000E+00 -1.58367286E-03 -1.17130775E-03  4.76074435E-04
 -4.32139853E-04  1.16055789E-04  0.00000000E+00  0.00000000E+00 -6.61520779E-04
 -2.89492734E-02  6.32085092E-02  0.00000000E+00  0.00000000E+00 -3.76905273E-02
  5.45197302E-02  0.00000000E+00  0.00000000E+00 -1.93347332E-02 -6.68928993E-04
 -2.27526067E-03  7.27094739E-03  0.00000000E+00  0.00000000E+00  0.00000000E+00
 -1.00380536E-01  1.89420820E-01  0.00000000E+00  0.00000000E+00 -7.53875612E-02
  3.06878787E-02  0.00000000E+00  0.00000000E+00 -1.66991366E-03 -2.04501238E-02
  6.30802872E-03 -1.19144437E-03  0.00000000E+00  0.00000000E+00  0.00000000E+00
 -1.45878120E-01  3.29943107E-01  0.00000000E+00 -7.29633598E-02  4.44009850E-02
  2.88655528E-01  0.00000000E+00 -3.84301755E-02  2.25295747E-02  6.59617353E-03
  1.88153495E-02  1.10191871E-02  0.00000000E+00  0.00000000E+00 -1.04086580E-02
 -1.45878120E-01  3.29943107E-01  0.00000000E+00  7.29633598E-02  4.44009850E-02
  2.88655528E-01  0.00000000E+00  3.84301755E-02  2.25295747E-02  6.59617353E-03
  1.88153495E-02  1.10191871E-02  0.00000000E+00  0.00000000E+00  1.04086580E-02
  0.00000000E+00  0.00000000E+00  0.00000000E+00  1.42186942E-02  0.00000000E+00
  0.00000000E+00  0.00000000E+00  1.00950370E-02  0.00000000E+00  0.00000000E+00
  0.00000000E+00  0.00000000E+00  0.00000000E+00  0.00000000E+00 -6.08104393E-03
  0.00000000E+00  0.00000000E+00  0.00000000E+00  1.54380656E-01  0.00000000E+00
  0.00000000E+00  0.00000000E+00 -6.46744035E-03  0.00000000E+00  0.00000000E+00
  0.00000000E+00  0.00000000E+00  0.00000000E+00  0.00000000E+00 -3.40002628E-02
 -1.62160429E-01  3.66519507E-01  0.00000000E+00 -4.98390851E-02  4.52024421E-02
  3.36064411E-01  0.00000000E+00 -2.05128992E-02  2.01528478E-02  6.86866556E-03
  1.16139196E-02  9.71400011E-03  0.00000000E+00  0.00000000E+00 -5.49878646E-03
  1.62160429E-01 -3.66519507E-01  0.00000000E+00 -4.98390851E-02 -4.52024421E-02
 -3.36064411E-01  0.00000000E+00 -2.05128992E-02 -2.01528478E-02 -6.86866556E-03
 -1.16139196E-02 -9.71400011E-03  0.00000000E+00  0.00000000E+00 -5.49878646E-03
 -1.94502732E-01  4.22361805E-01  0.00000000E+00  0.00000000E+00 -1.73953895E-01
  3.78693627E-01  0.00000000E+00  0.00000000E+00 -5.32873704E-02 -7.59915756E-03
 -1.04273979E-02  1.15636380E-02  0.00000000E+00  0.00000000E+00  0.00000000E+00
 -9.47384515E-02  1.99344475E-01  0.00000000E+00  0.00000000E+00  2.57410791E-01
  2.13256948E-02  0.00000000E+00  0.00000000E+00 -1.68160949E-02 -1.61470071E-02
 -3.15444886E-02  1.93600664E-02  0.00000000E+00  0.00000000E+00  0.00000000E+00
  4.03155385E-02 -9.22984650E-02  0.00000000E+00  8.08573309E-03  1.65666003E-02
 -8.90418557E-02  0.00000000E+00 -2.63356764E-03  1.81811407E-02 -2.55926955E-03
 -9.49022366E-04  1.91482285E-03  0.00000000E+00  0.00000000E+00 -4.99301179E-03
  4.03155385E-02 -9.22984650E-02  0.00000000E+00 -8.08573309E-03  1.65666003E-02
 -8.90418557E-02  0.00000000E+00  2.63356764E-03  1.81811407E-02 -2.55926955E-03
 -9.49022366E-04  1.91482285E-03  0.00000000E+00  0.00000000E+00  4.99301179E-03
 -4.95128555E-02  1.09709543E-01  0.00000000E+00  0.00000000E+00  4.71790261E-02
  1.36829140E-01  0.00000000E+00  0.00000000E+00  3.46813711E-02 -1.39342006E-03
  5.27965502E-05 -9.95439487E-03  0.00000000E+00  0.00000000E+00  0.00000000E+00
  1.18651856E-01 -2.87330103E-01  0.00000000E+00  0.00000000E+00  2.12398677E-01
 -1.34253969E-01  0.00000000E+00  0.00000000E+00  1.57646469E-02  1.24426286E-02
 -1.27353050E-03  8.83324758E-03  0.00000000E+00  0.00000000E+00  0.00000000E+00
 -7.09126913E-02  1.46410081E-01  0.00000000E+00  3.08430183E-01 -1.48652705E-01
  2.51995441E-01  0.00000000E+00  1.78377884E-01 -8.15863970E-02 -8.02377647E-04
 -2.08501177E-02 -4.27039334E-03  0.00000000E+00  0.00000000E+00  1.21367841E-02
 -7.09126913E-02  1.46410081E-01  0.00000000E+00 -3.08430183E-01 -1.48652705E-01
  2.51995441E-01  0.00000000E+00 -1.78377884E-01 -8.15863970E-02 -8.02377647E-04
 -2.08501177E-02 -4.27039334E-03  0.00000000E+00  0.00000000E+00 -1.21367841E-02
  0.00000000E+00  0.00000000E+00  0.00000000E+00  1.45677469E-01  0.00000000E+00
  0.00000000E+00  0.00000000E+00  8.29514563E-02  0.00000000E+00  0.00000000E+00
  0.00000000E+00  0.00000000E+00  0.00000000E+00  0.00000000E+00 -1.69462551E-02
  0.00000000E+00  0.00000000E+00  0.00000000E+00  3.64510399E-01  0.00000000E+00
  0.00000000E+00  0.00000000E+00  4.63058663E-02  0.00000000E+00  0.00000000E+00
  0.00000000E+00  0.00000000E+00  0.00000000E+00  0.00000000E+00 -2.26383722E-02
  4.79494456E-02 -9.11014111E-02  0.00000000E+00 -2.28414913E-01  3.01628934E-01
 -1.96949597E-01  0.00000000E+00 -1.22577994E-01  1.74056510E-01  2.21892286E-03
  7.94582205E-03  1.43474191E-02  0.00000000E+00  0.00000000E+00 -1.01926516E-02
 -4.79494456E-02  9.11014111E-02  0.00000000E+00 -2.28414913E-01 -3.01628934E-01
  1.96949597E-01  0.00000000E+00 -1.22577994E-01 -1.74056510E-01 -2.21892286E-03
 -7.94582205E-03 -1.43474191E-02  0.00000000E+00  0.00000000E+00 -1.01926516E-02
  0.00000000E+00  0.00000000E+00  1.86201725E-01  0.00000000E+00  0.00000000E+00
  0.00000000E+00  8.47315314E-02  0.00000000E+00  0.00000000E+00  0.00000000E+00
  0.00000000E+00  0.00000000E+00  0.00000000E+00 -1.69180272E-02  0.00000000E+00
  0.00000000E+00  0.00000000E+00  3.31462080E-01  0.00000000E+00  0.00000000E+00
  0.00000000E+00  1.54036519E-01  0.00000000E+00  0.00000000E+00  0.00000000E+00
  0.00000000E+00  0.00000000E+00  0.00000000E+00 -7.42986872E-03  0.00000000E+00
  0.00000000E+00  0.00000000E+00  3.54497485E-01  0.00000000E+00  0.00000000E+00
  0.00000000E+00  2.23996902E-01  0.00000000E+00  0.00000000E+00  0.00000000E+00
  0.00000000E+00  0.00000000E+00 -1.76158204E-02  1.07184246E-02  0.00000000E+00
  0.00000000E+00  0.00000000E+00  3.54497485E-01  0.00000000E+00  0.00000000E+00
  0.00000000E+00  2.23996902E-01  0.00000000E+00  0.00000000E+00  0.00000000E+00
  0.00000000E+00  0.00000000E+00  1.76158204E-02  1.07184246E-02  0.00000000E+00
 -9.85183590E-02  2.03173452E-01  0.00000000E+00  0.00000000E+00  3.27784140E-01
  4.46439780E-01  0.00000000E+00  0.00000000E+00  1.36151399E-01 -1.49414272E-03
 -6.42592797E-03 -3.29031313E-02  0.00000000E+00  0.00000000E+00  0.00000000E+00
  5.48839642E-02 -1.42733267E-01  0.00000000E+00  0.00000000E+00 -2.11490936E-01
 -1.00353948E-01  0.00000000E+00  0.00000000E+00 -1.15379530E-01  4.18990105E-03
 -8.84517039E-03  3.20631040E-02  0.00000000E+00  0.00000000E+00  0.00000000E+00
  3.46017449E-03 -2.65219641E-04  0.00000000E+00 -1.96645205E-01 -2.52232181E-01
 -3.82543068E-02  0.00000000E+00 -1.15683070E-01 -1.69505494E-01  2.55780010E-03
  1.28110100E-02 -8.35787103E-03  0.00000000E+00  0.00000000E+00  8.90610301E-03
  3.46017449E-03 -2.65219641E-04  0.00000000E+00  1.96645205E-01 -2.52232181E-01
 -3.82543068E-02  0.00000000E+00  1.15683070E-01 -1.69505494E-01  2.55780010E-03
  1.28110100E-02 -8.35787103E-03  0.00000000E+00  0.00000000E+00 -8.90610301E-03
  0.00000000E+00  0.00000000E+00  0.00000000E+00  0.00000000E+00  0.00000000E+00
  0.00000000E+00  0.00000000E+00  0.00000000E+00  0.00000000E+00  0.00000000E+00
  0.00000000E+00  0.00000000E+00  2.25777808E-03  0.00000000E+00  0.00000000E+00
  0.00000000E+00  0.00000000E+00  0.00000000E+00  0.00000000E+00  0.00000000E+00
  0.00000000E+00  0.00000000E+00  0.00000000E+00  0.00000000E+00  0.00000000E+00
  0.00000000E+00  0.00000000E+00  3.18599585E-02  0.00000000E+00  0.00000000E+00
  0.00000000E+00  0.00000000E+00  4.80108358E-01  0.00000000E+00  0.00000000E+00
  0.00000000E+00  3.32161640E-01  0.00000000E+00  0.00000000E+00  0.00000000E+00
  0.00000000E+00  0.00000000E+00 -1.48997702E-02  1.24426512E-02  0.00000000E+00
  0.00000000E+00  0.00000000E+00 -4.80108358E-01  0.00000000E+00  0.00000000E+00
  0.00000000E+00 -3.32161640E-01  0.00000000E+00  0.00000000E+00  0.00000000E+00
  0.00000000E+00  0.00000000E+00 -1.48997702E-02 -1.24426512E-02  0.00000000E+00
 -5.57116158E-02  1.36180561E-01  0.00000000E+00  0.00000000E+00  3.99024252E-01
  1.43666562E-01  0.00000000E+00  0.00000000E+00  2.31290705E-01  7.47814896E-03
  9.87342095E-03 -2.04270509E-02  0.00000000E+00  0.00000000E+00  0.00000000E+00
  4.14208640E-02 -1.07485844E-01  0.00000000E+00  0.00000000E+00 -2.20458231E-01
 -7.34225110E-03  0.00000000E+00  0.00000000E+00  1.19427904E-01  2.59733352E-03
  4.14029541E-02 -2.19213464E-02  0.00000000E+00  0.00000000E+00  0.00000000E+00
 -1.15417283E-03  1.00331742E-03  0.00000000E+00  8.38992097E-02  3.37311032E-01
  2.76283049E-02  0.00000000E+00  5.52850884E-02  2.18413820E-01 -9.28357024E-04
 -7.92909091E-03  5.10212838E-03  0.00000000E+00  0.00000000E+00 -5.09924811E-03
 -1.15417283E-03  1.00331742E-03  0.00000000E+00 -8.38992097E-02  3.37311032E-01
  2.76283049E-02  0.00000000E+00 -5.52850884E-02  2.18413820E-01 -9.28357024E-04
 -7.92909091E-03  5.10212838E-03  0.00000000E+00  0.00000000E+00  5.09924811E-03
  0.00000000E+00  0.00000000E+00  0.00000000E+00  1.11670970E-01  0.00000000E+00
  0.00000000E+00  0.00000000E+00  5.69540020E-02  0.00000000E+00  0.00000000E+00
  0.00000000E+00  0.00000000E+00  0.00000000E+00  0.00000000E+00 -1.84575685E-03
  0.00000000E+00  0.00000000E+00  0.00000000E+00 -2.51681634E-02  0.00000000E+00
  0.00000000E+00  0.00000000E+00  1.01160185E-01  0.00000000E+00  0.00000000E+00
  0.00000000E+00  0.00000000E+00  0.00000000E+00  0.00000000E+00  3.67214404E-02
  2.38695295E-03 -1.30029405E-03  0.00000000E+00  4.10418484E-01  2.56051633E-01
 -4.34195693E-02  0.00000000E+00  2.76490180E-01  1.61180754E-01  3.02010312E-03
 -1.24589480E-02  1.48405478E-02  0.00000000E+00  0.00000000E+00  1.30838277E-03
 -2.38695295E-03  1.30029405E-03  0.00000000E+00  4.10418484E-01 -2.56051633E-01
  4.34195693E-02  0.00000000E+00  2.76490180E-01 -1.61180754E-01 -3.02010312E-03
  1.24589480E-02 -1.48405478E-02  0.00000000E+00  0.00000000E+00  1.30838277E-03
  0.00000000E+00  0.00000000E+00  5.13043481E-01  0.00000000E+00  0.00000000E+00
  0.00000000E+00  3.44362087E-01  0.00000000E+00  0.00000000E+00  0.00000000E+00
  0.00000000E+00  0.00000000E+00  0.00000000E+00 -3.25687498E-02  0.00000000E+00
  0.00000000E+00  0.00000000E+00  2.34691287E-01  0.00000000E+00  0.00000000E+00
  0.00000000E+00  7.17748511E-02  0.00000000E+00  0.00000000E+00  0.00000000E+00
  0.00000000E+00  0.00000000E+00  0.00000000E+00  4.41394563E-02  0.00000000E+00
  0.00000000E+00  0.00000000E+00 -2.62982242E-01  0.00000000E+00  0.00000000E+00
  0.00000000E+00 -1.91385673E-01  0.00000000E+00  0.00000000E+00  0.00000000E+00
  0.00000000E+00  0.00000000E+00  6.18219845E-03 -6.41459931E-04  0.00000000E+00
  0.00000000E+00  0.00000000E+00 -2.62982242E-01  0.00000000E+00  0.00000000E+00
  0.00000000E+00 -1.91385673E-01  0.00000000E+00  0.00000000E+00  0.00000000E+00
  0.00000000E+00  0.00000000E+00 -6.18219845E-03 -6.41459931E-04  0.00000000E+00
  0.00000000E+00  0.00000000E+00  0.00000000E+00  6.02663226E-01  0.00000000E+00
  0.00000000E+00  0.00000000E+00  3.87708389E-01  0.00000000E+00  0.00000000E+00
  0.00000000E+00  0.00000000E+00  0.00000000E+00  0.00000000E+00 -2.84311449E-02
  0.00000000E+00  0.00000000E+00  0.00000000E+00  8.40984236E-02  0.00000000E+00
  0.00000000E+00  0.00000000E+00  1.01374043E-01  0.00000000E+00  0.00000000E+00
  0.00000000E+00  0.00000000E+00  0.00000000E+00  0.00000000E+00  5.01906145E-02
  8.64050674E-03 -1.51174334E-02  0.00000000E+00  2.01525585E-02 -2.21591488E-01
 -7.00617581E-02  0.00000000E+00  2.09631141E-02 -1.62596788E-01  2.68831137E-03
  5.78057883E-03  1.07346281E-04  0.00000000E+00  0.00000000E+00  4.10790648E-03
 -8.64050674E-03  1.51174334E-02  0.00000000E+00  2.01525585E-02  2.21591488E-01
  7.00617581E-02  0.00000000E+00  2.09631141E-02  1.62596788E-01 -2.68831137E-03
 -5.78057883E-03 -1.07346281E-04  0.00000000E+00  0.00000000E+00  4.10790648E-03
  0.00000000E+00  0.00000000E+00 -4.12794376E-01  0.00000000E+00  0.00000000E+00
  0.00000000E+00 -4.12917815E-01  0.00000000E+00  0.00000000E+00  0.00000000E+00
  0.00000000E+00  0.00000000E+00  0.00000000E+00 -8.66200560E-03  0.00000000E+00
  0.00000000E+00  0.00000000E+00  6.38361781E-01  0.00000000E+00  0.00000000E+00
  0.00000000E+00  4.83089234E-01  0.00000000E+00  0.00000000E+00  0.00000000E+00
  0.00000000E+00  0.00000000E+00  0.00000000E+00 -2.25651594E-02  0.00000000E+00
  0.00000000E+00  0.00000000E+00 -2.24435348E-01  0.00000000E+00  0.00000000E+00
  0.00000000E+00 -1.92851755E-01  0.00000000E+00  0.00000000E+00  0.00000000E+00
  0.00000000E+00  0.00000000E+00 -1.50190567E-02  9.45951041E-03  0.00000000E+00
  0.00000000E+00  0.00000000E+00 -2.24435348E-01  0.00000000E+00  0.00000000E+00
  0.00000000E+00 -1.92851755E-01  0.00000000E+00  0.00000000E+00  0.00000000E+00
  0.00000000E+00  0.00000000E+00  1.50190567E-02  9.45951041E-03  0.00000000E+00
  5.75960658E-02 -9.84677219E-02  0.00000000E+00  0.00000000E+00  1.93751371E-01
 -7.25027620E-01  0.00000000E+00  0.00000000E+00  4.19402822E-01  3.51683075E-02
  1.68919920E-02 -1.31481943E-02  0.00000000E+00  0.00000000E+00  0.00000000E+00
 -1.51676784E-01  2.19663932E-01  0.00000000E+00  0.00000000E+00 -2.58653945E-01
  1.97097062E+00  0.00000000E+00  0.00000000E+00 -4.28851709E-02  3.84580486E-02
 -2.02809901E-02 -1.74447316E-02  0.00000000E+00  0.00000000E+00  0.00000000E+00
  6.91087731E-02 -1.21577545E-01  0.00000000E+00  2.58137302E-01 -1.50888416E-01
 -6.37345282E-01  0.00000000E+00  3.68066387E-01 -2.35978935E-01  3.11293647E-02
  9.50225168E-03  6.34664303E-03  0.00000000E+00  0.00000000E+00  6.22834585E-03
  6.91087731E-02 -1.21577545E-01  0.00000000E+00 -2.58137302E-01 -1.50888416E-01
 -6.37345282E-01  0.00000000E+00 -3.68066387E-01 -2.35978935E-01  3.11293647E-02
  9.50225168E-03  6.34664303E-03  0.00000000E+00  0.00000000E+00 -6.22834585E-03
  0.00000000E+00  0.00000000E+00  0.00000000E+00 -3.27561469E-01  0.00000000E+00
  0.00000000E+00  0.00000000E+00 -4.52783374E-01  0.00000000E+00  0.00000000E+00
  0.00000000E+00  0.00000000E+00  0.00000000E+00  0.00000000E+00 -3.08471033E-02
  0.00000000E+00  0.00000000E+00  0.00000000E+00  7.42382825E-01  0.00000000E+00
  0.00000000E+00  0.00000000E+00  1.06033964E+00  0.00000000E+00  0.00000000E+00
  0.00000000E+00  0.00000000E+00  0.00000000E+00  0.00000000E+00  3.05159373E-02
  5.94742926E-02 -1.35718083E-01  0.00000000E+00  1.19151382E-01 -2.29999256E-01
 -5.69984493E-01  0.00000000E+00  1.98126725E-01 -3.03396220E-01 -1.52754342E-03
 -5.27208832E-03  1.79646418E-02  0.00000000E+00  0.00000000E+00 -1.10319132E-02
 -5.94742926E-02  1.35718083E-01  0.00000000E+00  1.19151382E-01  2.29999256E-01
  5.69984493E-01  0.00000000E+00  1.98126725E-01  3.03396220E-01  1.52754342E-03
  5.27208832E-03 -1.79646418E-02  0.00000000E+00  0.00000000E+00 -1.10319132E-02
 -1.09637179E-01  1.38691660E-01  0.00000000E+00  0.00000000E+00 -6.41830033E-02
  2.43442659E+00  0.00000000E+00  0.00000000E+00 -9.95725290E-01 -5.91556070E-02
 -5.80293600E-02  3.39640039E-02  0.00000000E+00  0.00000000E+00  0.00000000E+00
 -1.89280383E-02  2.75775376E-01  0.00000000E+00  0.00000000E+00 -3.69222230E-01
 -1.73372556E+00  0.00000000E+00  0.00000000E+00 -2.42461220E+00  1.49863920E-02
 -2.23524777E-02 -1.00047511E-02  0.00000000E+00  0.00000000E+00  0.00000000E+00
  3.37946812E-02 -4.44645304E-02  0.00000000E+00  1.99077700E-01  1.14549642E-01
 -4.53040673E-01  0.00000000E+00  2.86441158E-01  1.65838958E-01  4.94247889E-03
  3.11382433E-02  1.44147405E-02  0.00000000E+00  0.00000000E+00 -1.60316654E-02
  3.37946812E-02 -4.44645304E-02  0.00000000E+00 -1.99077700E-01  1.14549642E-01
 -4.53040673E-01  0.00000000E+00 -2.86441158E-01  1.65838958E-01  4.94247889E-03
  3.11382433E-02  1.44147405E-02  0.00000000E+00  0.00000000E+00  1.60316654E-02
 -5.75109529E-04 -2.07347359E-02  0.00000000E+00  0.00000000E+00 -8.34480138E-03
  2.75244105E-01  0.00000000E+00  0.00000000E+00  1.68866642E-01  5.30059663E-03
 -9.23078414E-03 -2.79732158E-02  0.00000000E+00  0.00000000E+00  0.00000000E+00
  4.34005309E-02 -1.02784128E+00  0.00000000E+00  0.00000000E+00  5.62925335E-01
  1.77726180E+00  0.00000000E+00  0.00000000E+00 -1.42455008E+00 -6.46397114E-02
  9.06395385E-02  5.38525436E-03  0.00000000E+00  0.00000000E+00  0.00000000E+00
  2.43844808E-02  2.60585586E-02  0.00000000E+00 -1.69959150E-01  1.97647202E-01
 -7.87050892E-01  0.00000000E+00  3.04949596E-01 -4.66611321E-02  7.39592166E-02
 -8.80470145E-02  2.69118712E-02  0.00000000E+00  0.00000000E+00  7.74399723E-02
  2.43844808E-02  2.60585586E-02  0.00000000E+00  1.69959150E-01  1.97647202E-01
 -7.87050892E-01  0.00000000E+00 -3.04949596E-01 -4.66611321E-02  7.39592166E-02
 -8.80470145E-02  2.69118712E-02  0.00000000E+00  0.00000000E+00 -7.74399723E-02
  0.00000000E+00  0.00000000E+00 -1.17983033E-01  0.00000000E+00  0.00000000E+00
  0.00000000E+00 -1.73425451E-01  0.00000000E+00  0.00000000E+00  0.00000000E+00
  0.00000000E+00  0.00000000E+00  0.00000000E+00  5.88873009E-02  0.00000000E+00
  0.00000000E+00  0.00000000E+00 -9.12149255E-01  0.00000000E+00  0.00000000E+00
  0.00000000E+00  1.37171677E+00  0.00000000E+00  0.00000000E+00  0.00000000E+00
  0.00000000E+00  0.00000000E+00  0.00000000E+00  1.15806625E-03  0.00000000E+00
  0.00000000E+00  0.00000000E+00 -1.10734031E-01  0.00000000E+00  0.00000000E+00
  0.00000000E+00 -1.46171363E-01  0.00000000E+00  0.00000000E+00  0.00000000E+00
  0.00000000E+00  0.00000000E+00  3.35347206E-02 -2.40092581E-02  0.00000000E+00
  0.00000000E+00  0.00000000E+00 -1.10734031E-01  0.00000000E+00  0.00000000E+00
  0.00000000E+00 -1.46171363E-01  0.00000000E+00  0.00000000E+00  0.00000000E+00
  0.00000000E+00  0.00000000E+00 -3.35347206E-02 -2.40092581E-02  0.00000000E+00
  0.00000000E+00  0.00000000E+00  0.00000000E+00 -1.43683156E-01  0.00000000E+00
  0.00000000E+00  0.00000000E+00 -3.00990138E-01  0.00000000E+00  0.00000000E+00
  0.00000000E+00  0.00000000E+00  0.00000000E+00  0.00000000E+00  5.37790811E-02
  0.00000000E+00  0.00000000E+00  0.00000000E+00 -7.63754157E-01  0.00000000E+00
  0.00000000E+00  0.00000000E+00  1.92329404E+00  0.00000000E+00  0.00000000E+00
  0.00000000E+00  0.00000000E+00  0.00000000E+00  0.00000000E+00 -1.17886885E-01
  2.65276838E-02  1.48691206E-02  0.00000000E+00 -1.98341455E-01  4.99944747E-02
 -7.53812529E-01  0.00000000E+00  8.52582395E-02 -2.26024979E-01  5.46736262E-02
 -1.07129545E-02 -2.02812886E-02  0.00000000E+00  0.00000000E+00  8.20181780E-02
 -2.65276838E-02 -1.48691206E-02  0.00000000E+00 -1.98341455E-01 -4.99944747E-02
  7.53812529E-01  0.00000000E+00  8.52582395E-02  2.26024979E-01 -5.46736262E-02
  1.07129545E-02  2.02812886E-02  0.00000000E+00  0.00000000E+00  8.20181780E-02
 -3.90352726E-02  1.88591037E-01  0.00000000E+00  0.00000000E+00 -4.91532100E-01
 -5.23436655E-01  0.00000000E+00  0.00000000E+00 -7.27268458E-02  9.09550468E-02
  7.39275986E-02 -1.93611989E-01  0.00000000E+00  0.00000000E+00  0.00000000E+00
  6.92220434E-02 -8.98485982E-01  0.00000000E+00  0.00000000E+00 -7.94333808E-01
  1.03595167E+00  0.00000000E+00  0.00000000E+00  7.81232770E-01 -1.04909624E-01
 -1.07870247E-01  1.96512476E-01  0.00000000E+00  0.00000000E+00  0.00000000E+00
  1.29545657E-03 -7.30722302E-02  0.00000000E+00  1.46810025E-02  4.70598691E-02
  8.23638093E-02  0.00000000E+00  4.17181332E-02 -1.07085875E-01 -2.57784148E-02
  2.03978123E-02 -8.75516800E-02  0.00000000E+00  0.00000000E+00  4.43032038E-02
  1.29545657E-03 -7.30722302E-02  0.00000000E+00 -1.46810025E-02  4.70598691E-02
  8.23638093E-02  0.00000000E+00 -4.17181332E-02 -1.07085875E-01 -2.57784148E-02
  2.03978123E-02 -8.75516800E-02  0.00000000E+00  0.00000000E+00 -4.43032038E-02
  1.16714501E-02 -4.19715670E-01  0.00000000E+00  0.00000000E+00 -6.41583874E-01
  3.19405816E-01  0.00000000E+00  0.00000000E+00  1.34428648E+00 -1.53071769E-01
 -1.65549647E-01 -2.17664753E-01  0.00000000E+00  0.00000000E+00  0.00000000E+00
  4.84478097E-02  5.58106946E-01  0.00000000E+00  0.00000000E+00  2.64784155E-01
  1.90099417E-01  0.00000000E+00  0.00000000E+00 -1.39833383E-02 -5.25216990E-02
 -2.93694578E-02  2.74144487E-01  0.00000000E+00  0.00000000E+00  0.00000000E+00
  3.84606355E-03  1.58588778E-02  0.00000000E+00  8.32225590E-02  1.22436278E-01
 -7.69360377E-02  0.00000000E+00  1.27913684E-02 -9.84237336E-02  8.21132495E-04
  3.89261049E-02 -3.23930517E-02  0.00000000E+00  0.00000000E+00  2.35566691E-02
  3.84606355E-03  1.58588778E-02  0.00000000E+00 -8.32225590E-02  1.22436278E-01
 -7.69360377E-02  0.00000000E+00 -1.27913684E-02 -9.84237336E-02  8.21132495E-04
  3.89261049E-02 -3.23930517E-02  0.00000000E+00  0.00000000E+00 -2.35566691E-02
  0.00000000E+00  0.00000000E+00 -9.04339620E-01  0.00000000E+00  0.00000000E+00
  0.00000000E+00  1.22204410E+00  0.00000000E+00  0.00000000E+00  0.00000000E+00
  0.00000000E+00  0.00000000E+00  0.00000000E+00  2.91825113E-02  0.00000000E+00
  0.00000000E+00  0.00000000E+00  8.42029935E-02  0.00000000E+00  0.00000000E+00
  0.00000000E+00 -4.74721124E-01  0.00000000E+00  0.00000000E+00  0.00000000E+00
  0.00000000E+00  0.00000000E+00  0.00000000E+00 -4.94775694E-02  0.00000000E+00
  0.00000000E+00  0.00000000E+00  1.80579758E-01  0.00000000E+00  0.00000000E+00
  0.00000000E+00 -1.12967423E-01  0.00000000E+00  0.00000000E+00  0.00000000E+00
  0.00000000E+00  0.00000000E+00  2.31668879E-02  2.81233568E-02  0.00000000E+00
  0.00000000E+00  0.00000000E+00  1.80579758E-01  0.00000000E+00  0.00000000E+00
  0.00000000E+00 -1.12967423E-01  0.00000000E+00  0.00000000E+00  0.00000000E+00
  0.00000000E+00  0.00000000E+00 -2.31668879E-02  2.81233568E-02  0.00000000E+00
  0.00000000E+00  0.00000000E+00  0.00000000E+00 -7.93032127E-01  0.00000000E+00
  0.00000000E+00  0.00000000E+00  1.14092312E+00  0.00000000E+00  0.00000000E+00
  0.00000000E+00  0.00000000E+00  0.00000000E+00  0.00000000E+00  4.67248003E-02
  0.00000000E+00  0.00000000E+00  0.00000000E+00 -8.34813870E-02  0.00000000E+00
  0.00000000E+00  0.00000000E+00 -5.92551525E-01  0.00000000E+00  0.00000000E+00
  0.00000000E+00  0.00000000E+00  0.00000000E+00  0.00000000E+00  1.33427116E-02
  1.33781885E-02  4.59965167E-01  0.00000000E+00  1.54660034E-01 -1.84111537E-01
 -6.34784150E-01  0.00000000E+00 -1.97958036E-01  2.67083531E-01  1.66411084E-01
  2.03306942E-01  2.53159689E-01  0.00000000E+00  0.00000000E+00 -7.75796437E-03
 -1.33781885E-02 -4.59965167E-01  0.00000000E+00  1.54660034E-01  1.84111537E-01
  6.34784150E-01  0.00000000E+00 -1.97958036E-01 -2.67083531E-01 -1.66411084E-01
 -2.03306942E-01 -2.53159689E-01  0.00000000E+00  0.00000000E+00 -7.75796437E-03
 -4.33164480E-03  3.37051721E-02  0.00000000E+00  0.00000000E+00 -2.93788850E-02
  3.64190483E-02  0.00000000E+00  0.00000000E+00  7.07282600E-02 -5.53421756E-02
  4.99109840E-02 -2.15125577E-02  0.00000000E+00  0.00000000E+00  0.00000000E+00
  3.35822762E-02  4.64172366E-01  0.00000000E+00  0.00000000E+00 -2.14944264E-01
 -4.63297561E-01  0.00000000E+00  0.00000000E+00  6.94554713E-02 -1.49063312E-01
  2.54506871E-01  1.22369413E-01  0.00000000E+00  0.00000000E+00  0.00000000E+00
 -3.37356007E-02 -7.11001188E-01  0.00000000E+00 -4.79468245E-01  4.58754819E-02
  1.40359145E+00  0.00000000E+00  6.34370686E-01 -1.63375465E-01 -3.64473981E-01
 -3.56878398E-01 -3.01748513E-01  0.00000000E+00  0.00000000E+00 -2.77076545E-02
 -3.37356007E-02 -7.11001188E-01  0.00000000E+00  4.79468245E-01  4.58754819E-02
  1.40359145E+00  0.00000000E+00 -6.34370686E-01 -1.63375465E-01 -3.64473981E-01
 -3.56878398E-01 -3.01748513E-01  0.00000000E+00  0.00000000E+00  2.77076545E-02
  0.00000000E+00  0.00000000E+00  0.00000000E+00 -3.81339275E-01  0.00000000E+00
  0.00000000E+00  0.00000000E+00  8.37356915E-01  0.00000000E+00  0.00000000E+00
  0.00000000E+00  0.00000000E+00  0.00000000E+00  0.00000000E+00  1.12469223E-01
  0.00000000E+00  0.00000000E+00  0.00000000E+00  3.63646647E-01  0.00000000E+00
  0.00000000E+00  0.00000000E+00 -8.10733912E-01  0.00000000E+00  0.00000000E+00
  0.00000000E+00  0.00000000E+00  0.00000000E+00  0.00000000E+00 -2.79834252E-01
 -2.89807221E-02 -5.74555831E-01  0.00000000E+00 -2.09109791E-01  3.51758765E-01
  1.28967842E+00  0.00000000E+00  4.08482627E-01 -4.28985824E-01 -3.00615184E-01
 -2.50535770E-01 -2.63753126E-01  0.00000000E+00  0.00000000E+00 -4.50155315E-02
  2.89807221E-02  5.74555831E-01  0.00000000E+00 -2.09109791E-01 -3.51758765E-01
 -1.28967842E+00  0.00000000E+00  4.08482627E-01  4.28985824E-01  3.00615184E-01
  2.50535770E-01  2.63753126E-01  0.00000000E+00  0.00000000E+00 -4.50155315E-02
  0.00000000E+00  0.00000000E+00  0.00000000E+00  0.00000000E+00  0.00000000E+00
  0.00000000E+00  0.00000000E+00  0.00000000E+00  0.00000000E+00  0.00000000E+00
  0.00000000E+00  0.00000000E+00  1.11501049E-01  0.00000000E+00  0.00000000E+00
  0.00000000E+00  0.00000000E+00  0.00000000E+00  0.00000000E+00  0.00000000E+00
  0.00000000E+00  0.00000000E+00  0.00000000E+00  0.00000000E+00  0.00000000E+00
  0.00000000E+00  0.00000000E+00  2.45512910E-01  0.00000000E+00  0.00000000E+00
  0.00000000E+00  0.00000000E+00 -6.25763313E-01  0.00000000E+00  0.00000000E+00
  0.00000000E+00  6.68059812E-01  0.00000000E+00  0.00000000E+00  0.00000000E+00
  0.00000000E+00  0.00000000E+00 -1.23844490E-02  8.45011579E-02  0.00000000E+00
  0.00000000E+00  0.00000000E+00  6.25763313E-01  0.00000000E+00  0.00000000E+00
  0.00000000E+00 -6.68059812E-01  0.00000000E+00  0.00000000E+00  0.00000000E+00
  0.00000000E+00  0.00000000E+00 -1.23844490E-02 -8.45011579E-02  0.00000000E+00
 -4.68607171E-02 -9.01927266E-01  0.00000000E+00  0.00000000E+00  1.79531091E-01
  2.43541377E+00  0.00000000E+00  0.00000000E+00 -1.01734070E+00 -2.30851905E-01
 -1.83482413E-01 -2.95340023E-01  0.00000000E+00  0.00000000E+00  0.00000000E+00
 -2.15989037E-02 -2.55930051E-02  0.00000000E+00  0.00000000E+00 -1.53891027E-01
 -1.69660879E+00  0.00000000E+00  0.00000000E+00 -1.17334866E-01 -7.37140872E-02
  2.21106434E-01 -1.89639293E-01  0.00000000E+00  0.00000000E+00  0.00000000E+00
 -2.53024434E-02 -3.18088185E-01  0.00000000E+00  1.93236105E-01  3.90134521E-01
  9.05553599E-01  0.00000000E+00 -3.37774130E-01 -4.49902004E-01 -2.72702519E-01
 -1.79457743E-01  2.27058398E-02  0.00000000E+00  0.00000000E+00 -4.38259104E-03
 -2.53024434E-02 -3.18088185E-01  0.00000000E+00 -1.93236105E-01  3.90134521E-01
  9.05553599E-01  0.00000000E+00  3.37774130E-01 -4.49902004E-01 -2.72702519E-01
 -1.79457743E-01  2.27058398E-02  0.00000000E+00  0.00000000E+00  4.38259104E-03
  0.00000000E+00  0.00000000E+00  1.40895374E-01  0.00000000E+00  0.00000000E+00
  0.00000000E+00 -5.80144695E-01  0.00000000E+00  0.00000000E+00  0.00000000E+00
  0.00000000E+00  0.00000000E+00  0.00000000E+00 -2.27506273E-01  0.00000000E+00
  0.00000000E+00  0.00000000E+00 -1.24243682E-01  0.00000000E+00  0.00000000E+00
  0.00000000E+00  8.25025727E-01  0.00000000E+00  0.00000000E+00  0.00000000E+00
  0.00000000E+00  0.00000000E+00  0.00000000E+00  2.93270200E-01  0.00000000E+00
  0.00000000E+00  0.00000000E+00  5.56189654E-01  0.00000000E+00  0.00000000E+00
  0.00000000E+00 -7.80112437E-01  0.00000000E+00  0.00000000E+00  0.00000000E+00
  0.00000000E+00  0.00000000E+00  7.79563070E-02  6.33159112E-02  0.00000000E+00
  0.00000000E+00  0.00000000E+00  5.56189654E-01  0.00000000E+00  0.00000000E+00
  0.00000000E+00 -7.80112437E-01  0.00000000E+00  0.00000000E+00  0.00000000E+00
  0.00000000E+00  0.00000000E+00 -7.79563070E-02  6.33159112E-02  0.00000000E+00
  0.00000000E+00  0.00000000E+00  0.00000000E+00  3.02476518E-02  0.00000000E+00
  0.00000000E+00  0.00000000E+00  1.21393413E-01  0.00000000E+00  0.00000000E+00
  0.00000000E+00  0.00000000E+00  0.00000000E+00  0.00000000E+00  3.53148639E-03
  0.00000000E+00  0.00000000E+00  0.00000000E+00  1.43302208E-01  0.00000000E+00
  0.00000000E+00  0.00000000E+00 -4.96277288E-01  0.00000000E+00  0.00000000E+00
  0.00000000E+00  0.00000000E+00  0.00000000E+00  0.00000000E+00 -1.20620587E-01
  1.96802167E-03  4.04142346E-02  0.00000000E+00 -4.46119541E-01 -3.98927566E-01
  4.82501858E-02  0.00000000E+00  6.69958236E-01  5.30510733E-01 -8.63854693E-02
  2.15300861E-01 -9.70352326E-02  0.00000000E+00  0.00000000E+00  3.05338592E-02
 -1.96802167E-03 -4.04142346E-02  0.00000000E+00 -4.46119541E-01  3.98927566E-01
 -4.82501858E-02  0.00000000E+00  6.69958236E-01 -5.30510733E-01  8.63854693E-02
 -2.15300861E-01  9.70352326E-02  0.00000000E+00  0.00000000E+00  3.05338592E-02
  0.00000000E+00  0.00000000E+00  0.00000000E+00  0.00000000E+00  0.00000000E+00
  0.00000000E+00  0.00000000E+00  0.00000000E+00  0.00000000E+00  0.00000000E+00
  0.00000000E+00  0.00000000E+00  2.33931427E-01  0.00000000E+00  0.00000000E+00
  0.00000000E+00  0.00000000E+00  0.00000000E+00  0.00000000E+00  0.00000000E+00
  0.00000000E+00  0.00000000E+00  0.00000000E+00  0.00000000E+00  0.00000000E+00
  0.00000000E+00  0.00000000E+00  5.85936353E-01  0.00000000E+00  0.00000000E+00
  0.00000000E+00  0.00000000E+00  2.10293622E-01  0.00000000E+00  0.00000000E+00
  0.00000000E+00 -3.87140587E-01  0.00000000E+00  0.00000000E+00  0.00000000E+00
  0.00000000E+00  0.00000000E+00 -2.29120006E-01  2.79224970E-01  0.00000000E+00
  0.00000000E+00  0.00000000E+00 -2.10293622E-01  0.00000000E+00  0.00000000E+00
  0.00000000E+00  3.87140587E-01  0.00000000E+00  0.00000000E+00  0.00000000E+00
  0.00000000E+00  0.00000000E+00 -2.29120006E-01 -2.79224970E-01  0.00000000E+00
 -5.11307365E-02 -6.79454895E-01  0.00000000E+00  0.00000000E+00  5.42959183E-02
  2.47358809E+00  0.00000000E+00  0.00000000E+00 -7.20882951E-01 -4.74151239E-01
  8.25784994E-02 -1.68590636E-01  0.00000000E+00  0.00000000E+00  0.00000000E+00
 -4.19453001E-02 -1.07594852E-01  0.00000000E+00  0.00000000E+00  7.48276660E-02
 -2.12003021E+00  0.00000000E+00  0.00000000E+00 -8.04606213E-01 -2.71087972E-01
  7.34384656E-02 -1.50949323E-02  0.00000000E+00  0.00000000E+00  0.00000000E+00
 -4.03640190E-02 -6.66832065E-01  0.00000000E+00  1.46281148E-01 -3.99386337E-01
  1.49899716E+00  0.00000000E+00 -3.17801748E-01  7.21021048E-01 -3.95547998E-01
 -1.98170724E-01 -1.79589747E-01  0.00000000E+00  0.00000000E+00  2.13867358E-01
 -4.03640190E-02 -6.66832065E-01  0.00000000E+00 -1.46281148E-01 -3.99386337E-01
  1.49899716E+00  0.00000000E+00  3.17801748E-01  7.21021048E-01 -3.95547998E-01
 -1.98170724E-01 -1.79589747E-01  0.00000000E+00  0.00000000E+00 -2.13867358E-01
  0.00000000E+00  0.00000000E+00 -2.06525432E-01  0.00000000E+00  0.00000000E+00
  0.00000000E+00  1.14373954E-01  0.00000000E+00  0.00000000E+00  0.00000000E+00
  0.00000000E+00  0.00000000E+00  0.00000000E+00 -2.91290026E-01  0.00000000E+00
  0.00000000E+00  0.00000000E+00  5.71786491E-02  0.00000000E+00  0.00000000E+00
  0.00000000E+00 -3.22614539E-01  0.00000000E+00  0.00000000E+00  0.00000000E+00
  0.00000000E+00  0.00000000E+00  0.00000000E+00  5.27575316E-01  0.00000000E+00
  0.00000000E+00  0.00000000E+00 -2.60865839E-01  0.00000000E+00  0.00000000E+00
  0.00000000E+00  4.68083219E-01  0.00000000E+00  0.00000000E+00  0.00000000E+00
  0.00000000E+00  0.00000000E+00  3.20610947E-01 -5.84730627E-02  0.00000000E+00
  0.00000000E+00  0.00000000E+00 -2.60865839E-01  0.00000000E+00  0.00000000E+00
  0.00000000E+00  4.68083219E-01  0.00000000E+00  0.00000000E+00  0.00000000E+00
  0.00000000E+00  0.00000000E+00 -3.20610947E-01 -5.84730627E-02  0.00000000E+00
  1.75494764E-02 -2.75098943E-01  0.00000000E+00  0.00000000E+00  4.13504556E-01
 -1.73736417E-01  0.00000000E+00  0.00000000E+00 -2.07619735E-01  2.66307573E-01
 -3.61672740E-01 -1.03321645E-02  0.00000000E+00  0.00000000E+00  0.00000000E+00
 -1.23586659E-02  1.29101827E-01  0.00000000E+00  0.00000000E+00  3.28900558E-01
 -5.76137901E-01  0.00000000E+00  0.00000000E+00  7.71824930E-01  1.28509874E-01
 -4.19934645E-01  2.65540287E-01  0.00000000E+00  0.00000000E+00  0.00000000E+00
 -3.78950603E-02 -2.83596816E-01  0.00000000E+00 -8.65205259E-02  1.31491699E-01
  1.02412432E+00  0.00000000E+00 -1.53926019E-01 -3.29204178E-02 -3.58535796E-01
  2.87712747E-01 -3.09492897E-01  0.00000000E+00  0.00000000E+00  2.51200583E-01
 -3.78950603E-02 -2.83596816E-01  0.00000000E+00  8.65205259E-02  1.31491699E-01
  1.02412432E+00  0.00000000E+00  1.53926019E-01 -3.29204178E-02 -3.58535796E-01
  2.87712747E-01 -3.09492897E-01  0.00000000E+00  0.00000000E+00 -2.51200583E-01
  0.00000000E+00  0.00000000E+00  0.00000000E+00  9.91601590E-02  0.00000000E+00
  0.00000000E+00  0.00000000E+00 -2.47768979E-02  0.00000000E+00  0.00000000E+00
  0.00000000E+00  0.00000000E+00  0.00000000E+00  0.00000000E+00  4.37914286E-01
  0.00000000E+00  0.00000000E+00  0.00000000E+00  1.45499684E-01  0.00000000E+00
  0.00000000E+00  0.00000000E+00 -4.25216577E-02  0.00000000E+00  0.00000000E+00
  0.00000000E+00  0.00000000E+00  0.00000000E+00  0.00000000E+00 -3.30070297E-01
  6.42223429E-03 -3.57825420E-01  0.00000000E+00  2.38354231E-01 -1.96247808E-01
  4.79238208E-01  0.00000000E+00 -1.99809036E-01  1.87737764E-01  3.14064357E-01
 -1.16071587E-01 -4.66915572E-01  0.00000000E+00  0.00000000E+00 -1.09695306E-01
 -6.42223429E-03  3.57825420E-01  0.00000000E+00  2.38354231E-01  1.96247808E-01
 -4.79238208E-01  0.00000000E+00 -1.99809036E-01 -1.87737764E-01 -3.14064357E-01
  1.16071587E-01  4.66915572E-01  0.00000000E+00  0.00000000E+00 -1.09695306E-01
 -8.21820840E-02 -1.39656510E+00  0.00000000E+00  0.00000000E+00 -4.33091757E-02
  5.23195001E+00  0.00000000E+00  0.00000000E+00 -1.45710472E+00  6.09882328E-02
 -3.95656597E-01 -4.98623199E-01  0.00000000E+00  0.00000000E+00  0.00000000E+00
  1.30951910E-02 -4.86170535E-02  0.00000000E+00  0.00000000E+00 -1.39700918E-01
 -2.80419393E+00  0.00000000E+00  0.00000000E+00 -2.75432413E+00  3.96688046E-01
  1.08981360E-02 -2.77876765E-01  0.00000000E+00  0.00000000E+00  0.00000000E+00
  1.00107662E-02  1.89803925E-01  0.00000000E+00 -1.84186953E-01 -1.85548979E-01
 -5.27301225E-01  0.00000000E+00  3.65079943E-01  5.41904230E-01  3.00767709E-01
  5.08615110E-03 -8.49903161E-02  0.00000000E+00  0.00000000E+00 -1.05839982E-01
  1.00107662E-02  1.89803925E-01  0.00000000E+00  1.84186953E-01 -1.85548979E-01
 -5.27301225E-01  0.00000000E+00 -3.65079943E-01  5.41904230E-01  3.00767709E-01
  5.08615110E-03 -8.49903161E-02  0.00000000E+00  0.00000000E+00  1.05839982E-01
  0.00000000E+00  0.00000000E+00  7.72154125E-02  0.00000000E+00  0.00000000E+00
  0.00000000E+00 -8.79206369E-02  0.00000000E+00  0.00000000E+00  0.00000000E+00
  0.00000000E+00  0.00000000E+00  0.00000000E+00  2.54196405E-01  0.00000000E+00
  0.00000000E+00  0.00000000E+00  2.96123035E-02  0.00000000E+00  0.00000000E+00
  0.00000000E+00 -1.41835131E-02  0.00000000E+00  0.00000000E+00  0.00000000E+00
  0.00000000E+00  0.00000000E+00  0.00000000E+00 -2.86999655E-02  0.00000000E+00
  0.00000000E+00  0.00000000E+00 -4.43912456E-02  0.00000000E+00  0.00000000E+00
  0.00000000E+00  5.36344788E-02  0.00000000E+00  0.00000000E+00  0.00000000E+00
  0.00000000E+00  0.00000000E+00  2.91059458E-01  6.15430995E-01  0.00000000E+00
  0.00000000E+00  0.00000000E+00 -4.43912456E-02  0.00000000E+00  0.00000000E+00
  0.00000000E+00  5.36344788E-02  0.00000000E+00  0.00000000E+00  0.00000000E+00
  0.00000000E+00  0.00000000E+00 -2.91059458E-01  6.15430995E-01  0.00000000E+00
  0.00000000E+00  0.00000000E+00  0.00000000E+00  0.00000000E+00  0.00000000E+00
  0.00000000E+00  0.00000000E+00  0.00000000E+00  0.00000000E+00  0.00000000E+00
  0.00000000E+00  0.00000000E+00  9.17803697E-01  0.00000000E+00  0.00000000E+00
  0.00000000E+00  0.00000000E+00  0.00000000E+00  0.00000000E+00  0.00000000E+00
  0.00000000E+00  0.00000000E+00  0.00000000E+00  0.00000000E+00  0.00000000E+00
  0.00000000E+00  0.00000000E+00 -2.03567483E-02  0.00000000E+00  0.00000000E+00
  0.00000000E+00  0.00000000E+00  5.30376617E-02  0.00000000E+00  0.00000000E+00
  0.00000000E+00 -5.92621564E-02  0.00000000E+00  0.00000000E+00  0.00000000E+00
  0.00000000E+00  0.00000000E+00  2.15891220E-01 -1.82689662E-01  0.00000000E+00
  0.00000000E+00  0.00000000E+00 -5.30376617E-02  0.00000000E+00  0.00000000E+00
  0.00000000E+00  5.92621564E-02  0.00000000E+00  0.00000000E+00  0.00000000E+00
  0.00000000E+00  0.00000000E+00  2.15891220E-01  1.82689662E-01  0.00000000E+00
  0.00000000E+00  0.00000000E+00  0.00000000E+00  0.00000000E+00  0.00000000E+00
  0.00000000E+00  0.00000000E+00  0.00000000E+00  0.00000000E+00  0.00000000E+00
  0.00000000E+00  0.00000000E+00 -5.95446428E-02  0.00000000E+00  0.00000000E+00
  0.00000000E+00  0.00000000E+00  0.00000000E+00  0.00000000E+00  0.00000000E+00
  0.00000000E+00  0.00000000E+00  0.00000000E+00  0.00000000E+00  0.00000000E+00
  0.00000000E+00  0.00000000E+00 -2.48089424E-02  0.00000000E+00  0.00000000E+00
  0.00000000E+00  0.00000000E+00  4.67296472E-02  0.00000000E+00  0.00000000E+00
  0.00000000E+00 -5.52035934E-02  0.00000000E+00  0.00000000E+00  0.00000000E+00
  0.00000000E+00  0.00000000E+00  5.23652177E-01  4.76989785E-01  0.00000000E+00
  0.00000000E+00  0.00000000E+00 -4.67296472E-02  0.00000000E+00  0.00000000E+00
  0.00000000E+00  5.52035934E-02  0.00000000E+00  0.00000000E+00  0.00000000E+00
  0.00000000E+00  0.00000000E+00  5.23652177E-01 -4.76989785E-01  0.00000000E+00
 -1.44746942E-02  3.41871431E-01  0.00000000E+00  0.00000000E+00 -2.74886243E-01
 -2.95225011E-01  0.00000000E+00  0.00000000E+00  1.98524240E-01  6.09424381E-01
 -6.35956250E-01  9.97656604E-02  0.00000000E+00  0.00000000E+00  0.00000000E+00
  1.82155252E-02  6.59495002E-02  0.00000000E+00  0.00000000E+00 -2.26184265E-01
 -4.47510930E-01  0.00000000E+00  0.00000000E+00  2.29671248E-01  4.98470245E-02
  1.02729346E-01 -1.58402340E-01  0.00000000E+00  0.00000000E+00  0.00000000E+00
 -5.73467296E-03 -3.84257969E-01  0.00000000E+00  6.90264478E-02 -1.34939882E-01
  7.55006938E-01  0.00000000E+00 -1.65159423E-01  1.93248591E-01 -2.05364108E-01
 -3.52259417E-01  2.81505604E-01  0.00000000E+00  0.00000000E+00  1.20324577E-01
 -5.73467296E-03 -3.84257969E-01  0.00000000E+00 -6.90264478E-02 -1.34939882E-01
  7.55006938E-01  0.00000000E+00  1.65159423E-01  1.93248591E-01 -2.05364108E-01
 -3.52259417E-01  2.81505604E-01  0.00000000E+00  0.00000000E+00 -1.20324577E-01
  0.00000000E+00  0.00000000E+00  0.00000000E+00 -9.55213199E-02  0.00000000E+00
  0.00000000E+00  0.00000000E+00  5.12003823E-01  0.00000000E+00  0.00000000E+00
  0.00000000E+00  0.00000000E+00  0.00000000E+00  0.00000000E+00  2.73665674E-01
  0.00000000E+00  0.00000000E+00  0.00000000E+00  1.27800044E-01  0.00000000E+00
  0.00000000E+00  0.00000000E+00 -1.74245710E+00  0.00000000E+00  0.00000000E+00
  0.00000000E+00  0.00000000E+00  0.00000000E+00  0.00000000E+00  2.27984380E-01
 -4.93334464E-02 -1.03151225E+00  0.00000000E+00  1.92871595E-02 -1.71134385E-01
  2.50897281E+00  0.00000000E+00 -2.48615099E-01  5.70766933E-01 -3.61612236E-01
 -5.07636649E-01 -4.15562322E-02  0.00000000E+00  0.00000000E+00  3.86763948E-01
  4.93334464E-02  1.03151225E+00  0.00000000E+00  1.92871595E-02  1.71134385E-01
 -2.50897281E+00  0.00000000E+00 -2.48615099E-01 -5.70766933E-01  3.61612236E-01
  5.07636649E-01  4.15562322E-02  0.00000000E+00  0.00000000E+00  3.86763948E-01
  0.00000000E+00  0.00000000E+00  0.00000000E+00 -3.10237322E-01  0.00000000E+00
  0.00000000E+00  0.00000000E+00  6.94138374E-01  0.00000000E+00  0.00000000E+00
  0.00000000E+00  0.00000000E+00  0.00000000E+00  0.00000000E+00 -5.14066025E-01
  0.00000000E+00  0.00000000E+00  0.00000000E+00 -2.68857542E-02  0.00000000E+00
  0.00000000E+00  0.00000000E+00 -1.35862444E+00  0.00000000E+00  0.00000000E+00
  0.00000000E+00  0.00000000E+00  0.00000000E+00  0.00000000E+00  3.84720119E-01
 -5.17153220E-02 -4.51212793E-01  0.00000000E+00 -1.36147120E-01  4.82012100E-02
  1.53080842E+00  0.00000000E+00 -4.92444033E-02  2.43198794E-01  2.35466771E-01
 -2.22228550E-01 -5.65589650E-01  0.00000000E+00  0.00000000E+00  4.28128235E-02
  5.17153220E-02  4.51212793E-01  0.00000000E+00 -1.36147120E-01 -4.82012100E-02
 -1.53080842E+00  0.00000000E+00 -4.92444033E-02 -2.43198794E-01 -2.35466771E-01
  2.22228550E-01  5.65589650E-01  0.00000000E+00  0.00000000E+00  4.28128235E-02
  1.89029795E-02  2.33705998E-01  0.00000000E+00  0.00000000E+00  1.08678425E-01
 -1.38041595E+00  0.00000000E+00  0.00000000E+00  1.54139170E-01 -2.85604578E-02
  3.87342191E-02  1.05907497E-01  0.00000000E+00  0.00000000E+00  0.00000000E+00
  2.13697906E-02  4.21917567E-01  0.00000000E+00  0.00000000E+00  2.82153230E-02
 -1.46341984E+00  0.00000000E+00  0.00000000E+00  2.18933911E+00  1.54664623E-01
 -2.91621032E-01  1.09496642E-01  0.00000000E+00  0.00000000E+00  0.00000000E+00
 -6.25420203E-02 -1.07913283E+00  0.00000000E+00  1.54384603E-01  1.12900479E-01
  2.88851940E+00  0.00000000E+00 -7.61090170E-01 -5.42287230E-02  1.72196441E-01
 -5.63309900E-01 -5.95899380E-01  0.00000000E+00  0.00000000E+00  6.20711130E-02
 -6.25420203E-02 -1.07913283E+00  0.00000000E+00 -1.54384603E-01  1.12900479E-01
  2.88851940E+00  0.00000000E+00  7.61090170E-01 -5.42287230E-02  1.72196441E-01
 -5.63309900E-01 -5.95899380E-01  0.00000000E+00  0.00000000E+00 -6.20711130E-02
  0.00000000E+00  0.00000000E+00  0.00000000E+00  8.04796956E-03  0.00000000E+00
  0.00000000E+00  0.00000000E+00 -9.57972807E-02  0.00000000E+00  0.00000000E+00
  0.00000000E+00  0.00000000E+00  0.00000000E+00  0.00000000E+00 -1.46225332E-01
  0.00000000E+00  0.00000000E+00  0.00000000E+00  1.72172031E-01  0.00000000E+00
  0.00000000E+00  0.00000000E+00  5.29696968E-01  0.00000000E+00  0.00000000E+00
  0.00000000E+00  0.00000000E+00  0.00000000E+00  0.00000000E+00 -2.47602107E-01
  2.63094416E-02 -1.70595356E-03  0.00000000E+00  2.54684159E-01  1.01291645E-01
 -3.90463811E-01  0.00000000E+00 -2.29121020E-01 -3.15258027E-01 -1.75217105E-01
  5.91464589E-01 -2.91857910E-01  0.00000000E+00  0.00000000E+00  4.18291122E-01
 -2.63094416E-02  1.70595356E-03  0.00000000E+00  2.54684159E-01 -1.01291645E-01
  3.90463811E-01  0.00000000E+00 -2.29121020E-01  3.15258027E-01  1.75217105E-01
 -5.91464589E-01  2.91857910E-01  0.00000000E+00  0.00000000E+00  4.18291122E-01
  0.00000000E+00  0.00000000E+00  1.29918958E-01  0.00000000E+00  0.00000000E+00
  0.00000000E+00 -4.19117926E-01  0.00000000E+00  0.00000000E+00  0.00000000E+00
  0.00000000E+00  0.00000000E+00  0.00000000E+00  6.80348088E-01  0.00000000E+00
  0.00000000E+00  0.00000000E+00  4.14229072E-01  0.00000000E+00  0.00000000E+00
  0.00000000E+00  5.49851538E-01  0.00000000E+00  0.00000000E+00  0.00000000E+00
  0.00000000E+00  0.00000000E+00  0.00000000E+00 -5.48824048E-02  0.00000000E+00
  0.00000000E+00  0.00000000E+00  1.60820520E-01  0.00000000E+00  0.00000000E+00
  0.00000000E+00 -3.74232772E-01  0.00000000E+00  0.00000000E+00  0.00000000E+00
  0.00000000E+00  0.00000000E+00  4.86205346E-01 -3.65991115E-01  0.00000000E+00
  0.00000000E+00  0.00000000E+00  1.60820520E-01  0.00000000E+00  0.00000000E+00
  0.00000000E+00 -3.74232772E-01  0.00000000E+00  0.00000000E+00  0.00000000E+00
  0.00000000E+00  0.00000000E+00 -4.86205346E-01 -3.65991115E-01  0.00000000E+00
 -1.03961877E-02  1.91911191E-01  0.00000000E+00  0.00000000E+00 -2.64402504E-01
  1.30917462E-01  0.00000000E+00  0.00000000E+00  5.15997464E-02 -3.33438945E-01
  4.08929848E-01 -1.58010368E-02  0.00000000E+00  0.00000000E+00  0.00000000E+00
  7.80227134E-02  1.65942780E-01  0.00000000E+00  0.00000000E+00 -2.31828655E-01
 -8.50712853E-01  0.00000000E+00  0.00000000E+00  1.08159272E-01  9.99296069E-01
 -3.33607777E-01 -2.64618922E-01  0.00000000E+00  0.00000000E+00  0.00000000E+00
 -2.38671642E-02 -3.09326916E-02  0.00000000E+00 -1.43378679E-01  8.67417361E-02
  4.19756790E-01  0.00000000E+00  3.23760614E-02  1.16235401E-02 -2.01276694E-01
 -1.50589370E-01  2.30278297E-01  0.00000000E+00  0.00000000E+00  2.47520275E-01
 -2.38671642E-02 -3.09326916E-02  0.00000000E+00  1.43378679E-01  8.67417361E-02
  4.19756790E-01  0.00000000E+00 -3.23760614E-02  1.16235401E-02 -2.01276694E-01
 -1.50589370E-01  2.30278297E-01  0.00000000E+00  0.00000000E+00 -2.47520275E-01
  0.00000000E+00  0.00000000E+00  0.00000000E+00  0.00000000E+00  0.00000000E+00
  0.00000000E+00  0.00000000E+00  0.00000000E+00  0.00000000E+00  0.00000000E+00
  0.00000000E+00  0.00000000E+00 -3.30995198E-01  0.00000000E+00  0.00000000E+00
  0.00000000E+00  0.00000000E+00  0.00000000E+00  0.00000000E+00  0.00000000E+00
  0.00000000E+00  0.00000000E+00  0.00000000E+00  0.00000000E+00  0.00000000E+00
  0.00000000E+00  0.00000000E+00  9.66095360E-01  0.00000000E+00  0.00000000E+00
  0.00000000E+00  0.00000000E+00  7.95340191E-02  0.00000000E+00  0.00000000E+00
  0.00000000E+00 -2.74875870E-01  0.00000000E+00  0.00000000E+00  0.00000000E+00
  0.00000000E+00  0.00000000E+00  4.33624417E-01 -4.53509579E-01  0.00000000E+00
  0.00000000E+00  0.00000000E+00 -7.95340191E-02  0.00000000E+00  0.00000000E+00
  0.00000000E+00  2.74875870E-01  0.00000000E+00  0.00000000E+00  0.00000000E+00
  0.00000000E+00  0.00000000E+00  4.33624417E-01  4.53509579E-01  0.00000000E+00
  0.00000000E+00  0.00000000E+00 -8.26534707E-02  0.00000000E+00  0.00000000E+00
  0.00000000E+00 -3.40816393E-01  0.00000000E+00  0.00000000E+00  0.00000000E+00
  0.00000000E+00  0.00000000E+00  0.00000000E+00  8.82730381E-01  0.00000000E+00
  0.00000000E+00  0.00000000E+00  1.27663924E-01  0.00000000E+00  0.00000000E+00
  0.00000000E+00  3.61343876E-02  0.00000000E+00  0.00000000E+00  0.00000000E+00
  0.00000000E+00  0.00000000E+00  0.00000000E+00  1.11866100E+00  0.00000000E+00
  0.00000000E+00  0.00000000E+00 -2.91569890E-02  0.00000000E+00  0.00000000E+00
  0.00000000E+00  1.57690298E-01  0.00000000E+00  0.00000000E+00  0.00000000E+00
  0.00000000E+00  0.00000000E+00 -3.98600490E-01  9.88026857E-02  0.00000000E+00
  0.00000000E+00  0.00000000E+00 -2.91569890E-02  0.00000000E+00  0.00000000E+00
  0.00000000E+00  1.57690298E-01  0.00000000E+00  0.00000000E+00  0.00000000E+00
  0.00000000E+00  0.00000000E+00  3.98600490E-01  9.88026857E-02  0.00000000E+00
  0.00000000E+00  0.00000000E+00  0.00000000E+00 -2.96919204E-02  0.00000000E+00
  0.00000000E+00  0.00000000E+00  6.23055121E-01  0.00000000E+00  0.00000000E+00
  0.00000000E+00  0.00000000E+00  0.00000000E+00  0.00000000E+00 -6.66234204E-01
  0.00000000E+00  0.00000000E+00  0.00000000E+00 -1.00836671E+00  0.00000000E+00
  0.00000000E+00  0.00000000E+00 -1.24408310E+00  0.00000000E+00  0.00000000E+00
  0.00000000E+00  0.00000000E+00  0.00000000E+00  0.00000000E+00 -1.81905681E-01
  4.08251875E-02 -8.43388012E-01  0.00000000E+00  1.60366107E-01 -1.74207497E-01
  1.46539223E+00  0.00000000E+00 -5.31058733E-01  6.67963803E-01 -1.81093825E-01
  1.69566649E-01  2.65147090E-01  0.00000000E+00  0.00000000E+00 -4.13308071E-01
 -4.08251875E-02  8.43388012E-01  0.00000000E+00  1.60366107E-01  1.74207497E-01
 -1.46539223E+00  0.00000000E+00 -5.31058733E-01 -6.67963803E-01  1.81093825E-01
 -1.69566649E-01 -2.65147090E-01  0.00000000E+00  0.00000000E+00 -4.13308071E-01
  1.86875799E-03 -9.02100843E-01  0.00000000E+00  0.00000000E+00  5.02864201E-02
  2.52569819E+00  0.00000000E+00  0.00000000E+00 -1.38436745E+00 -3.72234790E-01
 -3.70293556E-01  9.99806539E-01  0.00000000E+00  0.00000000E+00  0.00000000E+00
 -1.35178688E-01 -1.90003030E-02  0.00000000E+00  0.00000000E+00 -1.34028300E+00
 -2.88734198E-01  0.00000000E+00  0.00000000E+00 -1.41710633E+00 -4.15538268E-01
 -1.14489628E-01 -3.21628106E-03  0.00000000E+00  0.00000000E+00  0.00000000E+00
 -1.72034339E-02  5.49198643E-01  0.00000000E+00 -1.11841856E-01  2.40181386E-02
 -1.10447530E+00  0.00000000E+00  6.56117992E-01 -1.16575320E-01  1.72852041E-01
 -4.32000370E-01  1.19667066E-01  0.00000000E+00  0.00000000E+00  2.64568196E-01
 -1.72034339E-02  5.49198643E-01  0.00000000E+00  1.11841856E-01  2.40181386E-02
 -1.10447530E+00  0.00000000E+00 -6.56117992E-01 -1.16575320E-01  1.72852041E-01
 -4.32000370E-01  1.19667066E-01  0.00000000E+00  0.00000000E+00 -2.64568196E-01
 -4.10732062E-02 -5.06008954E-01  0.00000000E+00  0.00000000E+00 -2.93664568E-01
  2.39830916E+00  0.00000000E+00  0.00000000E+00 -1.43398963E+00 -5.38266349E-01
 -4.80540716E-01  1.13426420E+00  0.00000000E+00  0.00000000E+00  0.00000000E+00
  3.01030370E-02 -2.33167997E+00  0.00000000E+00  0.00000000E+00 -4.10088974E-01
 -2.27254567E+00  0.00000000E+00  0.00000000E+00 -2.45042696E-01  9.28438519E-01
  8.44080331E-02 -4.40872549E-01  0.00000000E+00  0.00000000E+00  0.00000000E+00
 -6.04503801E-03 -5.79877970E-01  0.00000000E+00  6.09063335E-02 -5.84245182E-02
  1.32863693E+00  0.00000000E+00 -6.44070856E-01  4.69839424E-01 -2.56450558E-01
  3.25244311E-01 -5.97841474E-02  0.00000000E+00  0.00000000E+00 -4.74980915E-01
 -6.04503801E-03 -5.79877970E-01  0.00000000E+00 -6.09063335E-02 -5.84245182E-02
  1.32863693E+00  0.00000000E+00  6.44070856E-01  4.69839424E-01 -2.56450558E-01
  3.25244311E-01 -5.97841474E-02  0.00000000E+00  0.00000000E+00  4.74980915E-01
 -2.44593979E-02  5.84139321E-01  0.00000000E+00  0.00000000E+00 -4.67923898E-01
 -5.49648056E-01  0.00000000E+00  0.00000000E+00 -9.13993064E-03 -1.54044417E-01
 -2.86104183E-01  4.41622209E-01  0.00000000E+00  0.00000000E+00  0.00000000E+00
 -4.57290743E-04  1.48579374E-01  0.00000000E+00  0.00000000E+00 -7.16977123E-01
  5.67908192E-01  0.00000000E+00  0.00000000E+00  6.05642535E-01 -1.29293257E-02
  1.16671479E+00 -1.08046440E+00  0.00000000E+00  0.00000000E+00  0.00000000E+00
  1.31544819E-02  1.92417161E-01  0.00000000E+00  2.71297769E-02  6.83039611E-02
 -4.51292361E-01  0.00000000E+00  1.12948209E-01 -5.79162931E-01  2.10591237E-01
  3.14035080E-01 -4.75814550E-01  0.00000000E+00  0.00000000E+00  5.16811302E-01
  1.31544819E-02  1.92417161E-01  0.00000000E+00 -2.71297769E-02  6.83039611E-02
 -4.51292361E-01  0.00000000E+00 -1.12948209E-01 -5.79162931E-01  2.10591237E-01
  3.14035080E-01 -4.75814550E-01  0.00000000E+00  0.00000000E+00 -5.16811302E-01
  0.00000000E+00  0.00000000E+00  0.00000000E+00 -9.40444295E-02  0.00000000E+00
  0.00000000E+00  0.00000000E+00 -3.30316313E-01  0.00000000E+00  0.00000000E+00
  0.00000000E+00  0.00000000E+00  0.00000000E+00  0.00000000E+00  7.30001797E-01
  0.00000000E+00  0.00000000E+00  0.00000000E+00 -8.40425128E-01  0.00000000E+00
  0.00000000E+00  0.00000000E+00 -3.45631232E-03  0.00000000E+00  0.00000000E+00
  0.00000000E+00  0.00000000E+00  0.00000000E+00  0.00000000E+00  1.50649420E+00
 -1.28005268E-02 -3.27303258E-01  0.00000000E+00 -2.35491846E-02  8.42987227E-02
  8.41028878E-01  0.00000000E+00 -7.52140207E-01  3.38364696E-01 -3.15189953E-01
  6.24309140E-01 -1.36338199E-01  0.00000000E+00  0.00000000E+00 -5.43239442E-01
  1.28005268E-02  3.27303258E-01  0.00000000E+00 -2.35491846E-02 -8.42987227E-02
 -8.41028878E-01  0.00000000E+00 -7.52140207E-01 -3.38364696E-01  3.15189953E-01
 -6.24309140E-01  1.36338199E-01  0.00000000E+00  0.00000000E+00 -5.43239442E-01
 -4.78098989E-01 -4.27161213E-01  0.00000000E+00  0.00000000E+00  3.01045455E-01
  5.93343043E+00  0.00000000E+00  0.00000000E+00 -1.32265362E+00 -1.59667114E+00
 -1.65781017E+00 -1.42193181E+00  0.00000000E+00  0.00000000E+00  0.00000000E+00
  2.03070532E-02 -5.43149886E-01  0.00000000E+00  0.00000000E+00  8.24263490E-02
 -3.23274045E+00  0.00000000E+00  0.00000000E+00 -1.29398952E+00  3.14669878E-01
  3.71862883E-02  4.74335847E-01  0.00000000E+00  0.00000000E+00  0.00000000E+00
 -2.20377687E-01 -5.44831461E-01  0.00000000E+00  2.76775740E-02 -8.09476739E-02
  2.65722989E+00  0.00000000E+00 -1.34470351E-01  4.08838642E-01 -8.23392676E-01
 -9.30337775E-01 -8.27186726E-01  0.00000000E+00  0.00000000E+00 -1.43087937E-01
 -2.20377687E-01 -5.44831461E-01  0.00000000E+00 -2.76775740E-02 -8.09476739E-02
  2.65722989E+00  0.00000000E+00  1.34470351E-01  4.08838642E-01 -8.23392676E-01
 -9.30337775E-01 -8.27186726E-01  0.00000000E+00  0.00000000E+00  1.43087937E-01
 -2.56048264E-01 -4.34604641E-01  0.00000000E+00  0.00000000E+00 -1.18354886E-01
  4.41515709E+00  0.00000000E+00  0.00000000E+00 -1.43831504E+00 -9.99388326E-01
 -8.80868853E-01 -3.02314894E-01  0.00000000E+00  0.00000000E+00  0.00000000E+00
 -4.11682011E-01  1.94731525E+00  0.00000000E+00  0.00000000E+00 -1.01557230E-01
 -5.80292830E-01  0.00000000E+00  0.00000000E+00 -1.96396513E+00 -1.26511226E+00
 -1.87726931E+00 -1.86972547E+00  0.00000000E+00  0.00000000E+00  0.00000000E+00
  2.13832717E-01  5.78143716E-01  0.00000000E+00 -1.54550861E-01  2.37865573E-02
 -2.67668878E+00  0.00000000E+00  5.24821724E-02  3.57584777E-01  7.66956015E-01
  1.06356864E+00  9.96886979E-01  0.00000000E+00  0.00000000E+00 -2.75052892E-01
  2.13832717E-01  5.78143716E-01  0.00000000E+00  1.54550861E-01  2.37865573E-02
 -2.67668878E+00  0.00000000E+00 -5.24821724E-02  3.57584777E-01  7.66956015E-01
  1.06356864E+00  9.96886979E-01  0.00000000E+00  0.00000000E+00  2.75052892E-01
  2.19384335E-01  5.08482044E-01  0.00000000E+00  0.00000000E+00 -4.40470365E-01
 -3.11188738E+00  0.00000000E+00  0.00000000E+00  3.26982719E-01  7.35968073E-01
  6.65465617E-01  9.70080099E-01  0.00000000E+00  0.00000000E+00  0.00000000E+00
 -2.67931558E-01  1.33597703E+00  0.00000000E+00  0.00000000E+00  2.24293469E-01
 -1.18013909E+00  0.00000000E+00  0.00000000E+00  2.49804379E+00 -6.00525400E-01
 -1.26907070E+00 -1.71789906E+00  0.00000000E+00  0.00000000E+00  0.00000000E+00
 -4.10622891E-01 -1.60565056E+00  0.00000000E+00  1.51090600E-01 -2.16744449E-02
  6.31410111E+00  0.00000000E+00 -1.28558671E+00  4.19164303E-01 -1.74732365E+00
 -1.22585011E+00 -1.65298400E+00  0.00000000E+00  0.00000000E+00 -3.83610593E-01
 -4.10622891E-01 -1.60565056E+00  0.00000000E+00 -1.51090600E-01 -2.16744449E-02
  6.31410111E+00  0.00000000E+00  1.28558671E+00  4.19164303E-01 -1.74732365E+00
 -1.22585011E+00 -1.65298400E+00  0.00000000E+00  0.00000000E+00  3.83610593E-01
  0.00000000E+00  0.00000000E+00  0.00000000E+00 -8.91212902E-02  0.00000000E+00
  0.00000000E+00  0.00000000E+00  8.53947985E-01  0.00000000E+00  0.00000000E+00
  0.00000000E+00  0.00000000E+00  0.00000000E+00  0.00000000E+00 -2.52096638E-01
  0.00000000E+00  0.00000000E+00  0.00000000E+00 -4.90370108E-01  0.00000000E+00
  0.00000000E+00  0.00000000E+00 -2.54304299E+00  0.00000000E+00  0.00000000E+00
  0.00000000E+00  0.00000000E+00  0.00000000E+00  0.00000000E+00 -2.94168182E-02
 -5.38701119E-01 -2.03739354E+00  0.00000000E+00  2.12662980E-01 -2.13300216E-01
  7.82516780E+00  0.00000000E+00 -7.84300208E-01  9.04870379E-01 -2.33905218E+00
 -2.03041890E+00 -2.07057912E+00  0.00000000E+00  0.00000000E+00 -1.88479915E-01
  5.38701119E-01  2.03739354E+00  0.00000000E+00  2.12662980E-01  2.13300216E-01
 -7.82516780E+00  0.00000000E+00 -7.84300208E-01 -9.04870379E-01  2.33905218E+00
  2.03041890E+00  2.07057912E+00  0.00000000E+00  0.00000000E+00 -1.88479915E-01
Orthonormal basis                          R   N=        3600
  1.25164899E-02  6.82030289E-02  9.08460580E-17  5.02771416E-18 -3.56969559E-02
  1.01471532E-01  2.27375074E-18 -3.50578019E-18 -8.76565160E-02  5.77969246E-02
  5.89935233E-02  8.50792090E-02  1.55315565E-19  2.97755269E-19  2.60693537E-18
  3.04456945E-02  1.47432975E-01 -7.33249917E-19 -2.69887869E-17  6.84916556E-03
  1.57848776E-01  1.30925511E-19 -1.90500390E-17  6.11232537E-03  9.92555162E-02
  1.17360109E-01  1.25526610E-01  2.00239309E-18  1.74463270E-18  4.50735938E-18
  7.51636475E-03  4.19550592E-02 -1.26437613E-19 -1.82751206E-02  1.35278654E-02
  7.34604762E-02 -5.11409897E-19 -5.77353066E-02  4.24364042E-02  4.11019512E-02
  5.92071946E-02  5.14167814E-02  3.87333472E-19 -3.12486968E-20 -2.24029979E-02
  7.51636475E-03  4.19550592E-02  2.08053583E-18  1.82751206E-02  1.35278654E-02
  7.34604762E-02  6.44571705E-18  5.77353066E-02  4.24364042E-02  4.11019512E-02
  5.92071946E-02  5.14167814E-02  3.66129792E-18  2.64662125E-18  2.24029979E-02
  3.08077995E-02  1.44377909E-01 -5.38172180E-17  2.07937578E-18 -1.46759663E-02
  1.59456368E-01 -8.19966288E-18  2.02967054E-17  1.43395178E-02  1.22677777E-01
  1.21395481E-01  1.24756237E-01 -1.99749650E-19  3.27909544E-19 -8.56839350E-18
 -3.11078445E-04 -6.20725586E-03  3.47478240E-19  5.08499615E-17  1.46993883E-01
 -1.04662618E-02 -7.14099544E-19  5.76640368E-17  2.12471566E-01 -3.02841411E-03
 -2.92949934E-02  1.63349208E-02 -3.02560237E-18 -5.56047104E-18 -1.89368400E-17
 -1.64311006E-02 -7.69704609E-02  1.99755932E-19  1.88690399E-02  3.33587938E-03
 -1.03457781E-01  7.12312115E-19  4.38634204E-02  2.27948973E-02 -7.19203638E-02
 -8.72876840E-02 -6.51883908E-02 -6.57733805E-19 -1.55411011E-19 -1.52504594E-05
 -1.64311006E-02 -7.69704609E-02 -2.02452834E-18 -1.88690399E-02  3.33587938E-03
 -1.03457781E-01 -4.44183074E-18 -4.38634204E-02  2.27948973E-02 -7.19203638E-02
 -8.72876840E-02 -6.51883908E-02 -2.80861596E-18 -2.39336947E-21  1.52504594E-05
  1.49740666E-17 -3.05409893E-17 -3.21538921E-17  2.69134396E-02 -3.55917636E-16
 -1.08169626E-16 -2.95125005E-17  7.82872716E-02 -3.37018978E-16 -8.85528236E-17
 -7.59138824E-17 -3.42610094E-17 -1.43515734E-17 -9.75933013E-18 -2.51169156E-02
  4.03894591E-17  5.07344444E-17  1.77446483E-18  1.43754905E-01  2.45488409E-16
  3.47192108E-17 -2.76914206E-18  2.12932822E-01 -9.49725942E-17  4.06575256E-17
 -1.28015134E-16  2.17535723E-16 -5.77457668E-18 -1.39152520E-17 -5.73555587E-02
  2.70867405E-02  1.24464059E-01  8.81939816E-20 -7.92848816E-03  1.99478415E-02
  1.60160636E-01  5.26690744E-19  5.70843659E-03  3.98121130E-02  1.14564912E-01
  1.11552536E-01  1.24464878E-01 -6.28618637E-19 -4.14599618E-19 -1.39485344E-02
 -2.70867405E-02 -1.24464059E-01 -2.88491019E-18 -7.92848816E-03 -1.99478415E-02
 -1.60160636E-01 -5.27508992E-18  5.70843659E-03 -3.98121130E-02 -1.14564912E-01
 -1.11552536E-01 -1.24464878E-01 -1.38253387E-18 -3.19917015E-18 -1.39485344E-02
 -2.10043283E-17 -1.12311369E-16  1.45457775E-01  1.64306670E-17 -9.00847072E-17
 -1.36011879E-16  2.55975734E-01  6.70442830E-17 -2.39045857E-16 -9.07228157E-17
 -7.35556320E-17 -6.22511377E-17  3.91296081E-18 -1.05405851E-01  8.16946770E-18
 -1.14040527E-18  8.21134600E-17  2.83048027E-01  9.36865921E-17  3.86807535E-17
  1.23325921E-17  3.51392439E-01  2.34295339E-17 -2.94058991E-17  4.53181600E-17
  1.60061291E-16  1.91417453E-17 -5.14011666E-17  3.10056469E-02  3.62096525E-17
 -8.81017461E-17 -1.77415886E-16  8.98636943E-02 -5.68753078E-17  4.52572821E-18
 -1.34822869E-16  1.79216342E-01 -1.68440858E-16  9.38482875E-17 -1.33989435E-16
 -5.25185332E-17 -7.08148567E-17 -6.32864953E-02  4.82635286E-02 -6.01436735E-17
 -1.09071685E-16 -1.38472604E-16  8.98636943E-02  1.03943264E-16  1.38540638E-17
 -1.40490074E-16  1.79216342E-01  1.77493351E-16  5.27233789E-17 -7.57375053E-17
 -4.41180166E-17 -8.45565895E-17  6.32864953E-02  4.82635286E-02  3.96940682E-17
  4.06485879E-02  1.46617646E-01  8.86008599E-17 -6.99893124E-17  1.17684819E-01
  1.30045480E-01  2.15387148E-16 -1.26034844E-16  1.87811377E-01  1.20761084E-01
  1.22087049E-01  6.47328561E-02  4.78951432E-19 -1.03468515E-16  4.82645392E-17
 -6.04396681E-02 -1.43290772E-01  2.69465687E-16 -9.06755511E-17  2.09477172E-02
 -3.04565458E-03  3.19720652E-16 -9.76242462E-17  3.90023606E-03 -1.34037471E-01
 -9.74229830E-02 -5.90737968E-02  5.65804877E-18  2.47012936E-17 -5.52129841E-17
  4.20551189E-02  1.42942698E-01  9.24289947E-17  7.39898319E-02 -5.93259243E-02
  1.43553601E-01  1.78286560E-16  1.28988687E-01 -1.05582123E-01  1.19045665E-01
  8.45224975E-02  9.89817893E-02 -6.37527650E-17  4.83721613E-17  6.30219972E-02
  4.20551189E-02  1.42942698E-01  8.28637724E-17 -7.39898319E-02 -5.93259243E-02
  1.43553601E-01  1.62044443E-16 -1.28988687E-01 -1.05582123E-01  1.19045665E-01
  8.45224975E-02  9.89817893E-02  5.37970765E-17  3.99194800E-17 -6.30219972E-02
  4.09978260E-17  4.20350805E-17  6.09553349E-18  2.26463690E-01  1.66078382E-16
  1.05196635E-16 -2.26503525E-17  3.09789590E-01  3.18341927E-16 -7.60556785E-17
 -1.29397904E-16  4.34626062E-16  9.83742487E-18 -3.94774980E-17 -1.82506459E-01
 -3.20470433E-17 -7.17367447E-17 -1.60658900E-17  2.08882264E-01 -1.97068313E-16
  5.17900063E-17 -7.51090296E-17  1.60300387E-01  1.00258461E-17 -1.46126079E-16
 -1.33220582E-16  1.63626122E-16  5.28905878E-18  8.31104321E-17  2.64021393E-01
 -3.26052293E-02 -1.06014923E-01 -2.64704757E-17  3.99687084E-03  9.05920776E-02
 -8.76379942E-02 -7.02828372E-17 -2.48698053E-02  1.69920068E-01 -7.50562362E-02
 -9.09276392E-02 -2.97786195E-02  2.03135969E-17 -1.49388329E-17 -1.36011250E-02
  3.26052293E-02  1.06014923E-01 -2.94892196E-17  3.99687084E-03 -9.05920776E-02
  8.76379942E-02 -8.35730355E-17 -2.48698053E-02 -1.69920068E-01  7.50562362E-02
  9.09276392E-02  2.97786195E-02 -1.89415016E-17 -1.34350656E-17 -1.36011250E-02
 -3.64698770E-02 -1.08514818E-01 -1.71560148E-16  2.41847983E-16 -1.54526853E-01
 -8.07799406E-02 -5.05397707E-17  1.90077565E-16 -1.98202248E-01 -8.34746815E-02
 -6.65579545E-02 -4.76978485E-02  5.16090622E-18  1.51616617E-17 -1.16273822E-16
  7.18055988E-03  7.15058847E-03  6.42865243E-17  4.09624468E-17  2.13151888E-01
  2.26728222E-03  7.45606166E-18  4.43630062E-17  1.10804910E-01  1.17262356E-02
  1.17651430E-01 -1.20130566E-01  2.37005242E-17 -7.97202990E-17  2.35044260E-16
  2.28109209E-02  6.24449281E-02  6.30899794E-17  1.96773823E-01  1.12240635E-01
  5.21726881E-02  8.78042557E-17  2.75643263E-01  1.64002133E-01  4.78452577E-02
 -2.74795125E-02  8.77036485E-02 -4.53001115E-17  1.93393340E-17 -3.19758246E-02
  2.28109209E-02  6.24449281E-02  3.21127502E-17 -1.96773823E-01  1.12240635E-01
  5.21726881E-02  4.69652804E-17 -2.75643263E-01  1.64002133E-01  4.78452577E-02
 -2.74795125E-02  8.77036485E-02  1.50554533E-17  1.69765722E-17  3.19758246E-02
  9.58998497E-18  4.26932724E-18  2.71363858E-01 -2.57222868E-16 -2.07557943E-16
  1.13286110E-16  2.54423265E-01 -1.14821208E-16 -2.48855116E-16 -5.34715090E-17
 -6.12114141E-17 -2.73763216E-17  1.04819750E-16 -2.14130668E-01  1.47819937E-16
 -2.13111230E-16 -1.29263616E-16 -7.78000546E-03  1.08899374E-16  3.16431915E-16
 -2.74722641E-17 -3.65354516E-02  1.99047644E-17 -8.52294864E-17 -1.49013264E-16
  2.43509507E-17 -4.19121485E-17  2.81004262E-16  4.45258196E-01 -2.86033990E-16
 -1.75253609E-16 -3.26532856E-17 -1.73792321E-01 -1.03545600E-16  3.20151730E-17
  6.81060780E-17 -2.11924286E-01 -8.14218859E-17  7.76119540E-17 -3.58111004E-17
 -2.60884781E-17  9.20479303E-17  1.26737065E-01 -2.79361272E-02 -5.79071803E-17
 -3.59738371E-18 -1.46642709E-17 -1.73792321E-01 -1.32892022E-16 -2.18115904E-16
  6.68620542E-17 -2.11924286E-01 -8.29672945E-17 -1.28605845E-16 -2.07473803E-17
 -8.09946333E-18  1.17568805E-16 -1.26737065E-01 -2.79361272E-02  1.92224797E-17
 -7.87003688E-18 -8.73550540E-18  1.10184243E-16  1.28045442E-01  2.64410899E-16
  3.22214651E-17  1.34527351E-16  9.04094399E-02  2.41060333E-16 -1.49648494E-16
 -1.04758755E-16  1.82923766E-16 -3.26306988E-17 -1.07314494E-16 -8.99780642E-02
  1.88073682E-16  5.85407348E-17 -3.51300103E-19 -2.00732231E-01 -1.26471227E-16
  4.25665424E-17  2.59715220E-17  2.39955503E-02 -4.08881014E-17  5.91629915E-18
 -3.17251809E-17  2.83730803E-17 -7.19526826E-16  2.20439470E-16  3.51632418E-01
  1.87564312E-02  4.03546330E-02 -4.15382543E-16  2.59060139E-01 -1.75374658E-01
  6.23960177E-02 -4.76330857E-16  2.24305310E-01 -1.52636276E-01  5.08868860E-02
  8.03227009E-03  4.22769174E-02  2.10656312E-16 -1.80743194E-16  1.14559216E-01
 -1.87564312E-02 -4.03546330E-02  1.18246680E-16  2.59060139E-01  1.75374658E-01
 -6.23960177E-02  1.64025635E-16  2.24305310E-01  1.52636276E-01 -5.08868860E-02
 -8.03227009E-03 -4.22769174E-02  1.28054991E-16  1.60170777E-16  1.14559216E-01
  2.54964676E-18  8.01653715E-18 -1.06347533E-16 -2.67331924E-16 -4.69093578E-17
  7.70826421E-19 -1.40490448E-16 -1.79126381E-16 -1.77553539E-17 -4.73987222E-17
  8.82943964E-17 -2.82188509E-17  1.03013356E-01  3.81478803E-16  1.10853292E-17
  3.25071243E-17  1.02892665E-17 -7.15996110E-17 -3.01896382E-16  3.85381201E-17
  6.10635060E-17  9.66700057E-17  4.17745937E-17 -6.28717940E-17  9.73335411E-17
 -1.60339154E-16 -1.21634404E-17  4.14398630E-01 -2.49079238E-16  3.41996784E-16
  1.37054433E-16  3.66773359E-17  2.91412059E-01  7.70518440E-16  4.22220562E-16
  6.14755346E-17  3.19543084E-01  6.65093676E-16  2.56717555E-16  4.00531985E-17
  3.65135996E-17 -4.23144238E-17 -1.00192483E-01  1.26057885E-01  2.20091950E-16
 -2.49636478E-16 -2.57764552E-17 -2.91412059E-01  8.80088703E-16 -3.90306108E-16
 -4.44385769E-17 -3.19543084E-01  6.54336638E-16 -3.37740823E-16 -4.78815584E-17
 -5.24075215E-17  1.44642167E-17 -1.00192483E-01 -1.26057885E-01  2.61286875E-16
 -7.53022019E-03 -7.05679833E-04  4.70022060E-17  2.15638682E-16  4.01758614E-01
  6.68651188E-02  1.05077646E-16  5.15514913E-16  2.48347663E-01  3.10017305E-02
  6.50477910E-02 -2.83553042E-02  1.78191158E-17 -2.12824773E-16  1.59481986E-16
 -1.59510767E-02 -1.19631616E-02  5.93984140E-17  4.26292273E-16 -2.52301303E-01
  1.34752508E-02  5.17192120E-17  6.06085774E-16  6.07430526E-02 -1.81235071E-02
  1.75934786E-01 -1.71169016E-01  6.95692075E-17  2.34634257E-16 -4.75936734E-16
 -1.57465400E-03 -6.81285384E-04 -4.61291470E-17 -3.16753868E-02  2.59943082E-01
 -1.28081512E-02 -4.70416916E-17 -5.76774153E-03  2.50150645E-01 -1.18080476E-02
 -5.24600108E-03  6.73722584E-03  4.86410091E-17  1.90707378E-17 -7.01265464E-02
 -1.57465400E-03 -6.81285384E-04 -8.85655311E-17  3.16753868E-02  2.59943082E-01
 -1.28081512E-02 -9.83700596E-17  5.76774153E-03  2.50150645E-01 -1.18080476E-02
 -5.24600108E-03  6.73722584E-03 -7.37144433E-17 -5.97875646E-18  7.01265464E-02
 -1.51281392E-17  2.80402414E-17 -1.63362703E-15 -2.60781439E-01  3.43571408E-17
 -8.99297683E-17 -1.23113379E-15 -1.93722706E-01 -2.47033043E-17  7.74253069E-17
  5.21831130E-17 -5.34027910E-17 -6.46024217E-16 -2.30552330E-15  9.36798153E-03
 -1.65654188E-16 -3.98359512E-17  9.03498663E-17 -6.33684525E-02 -6.76392538E-17
  6.77914403E-17 -1.55234197E-16  1.14393076E-02  3.83639579E-17  2.66412295E-17
  3.38192125E-18 -6.43609455E-17 -1.02140565E-15  1.18748320E-15 -2.82588813E-02
 -3.42727784E-03 -5.23712610E-03  4.44287672E-16  2.68984320E-01  3.30279190E-01
 -6.42480387E-04  1.21482820E-16  2.16596722E-01  2.69832551E-01 -2.83181982E-03
  3.01180806E-02 -3.26200315E-02  1.03204927E-15 -6.10575173E-16  5.92230984E-02
  3.42727784E-03  5.23712610E-03  1.35737971E-15  2.68984320E-01 -3.30279190E-01
  6.42480387E-04  1.14015444E-15  2.16596722E-01 -2.69832551E-01  2.83181982E-03
 -3.01180806E-02  3.26200315E-02 -4.30425937E-16  1.47567098E-16  5.92230984E-02
  7.51588645E-17  9.46870892E-17  2.28339437E-01  3.50000966E-16 -7.10808502E-17
 -1.04755867E-17  2.28595667E-01  4.21330046E-16 -4.99801836E-17  1.45205535E-18
  6.96168833E-17 -1.18231896E-17 -1.79524618E-14  3.82831282E-01  2.34809826E-15
 -1.40539592E-16 -1.79213504E-16  6.67008829E-02 -9.22017171E-16  2.07631692E-17
  2.30422724E-17  4.23521495E-02  1.69317846E-16 -2.18835664E-17 -8.17733322E-17
  9.57304029E-17 -1.19054252E-16 -3.75115069E-14 -3.16641261E-01 -1.18845302E-15
  2.60804114E-16 -1.27945739E-16 -2.76335372E-01  1.36700566E-15  1.95366428E-15
 -2.95475306E-17 -2.04072570E-01  1.10900585E-15  1.35670130E-15 -1.10325872E-16
  2.03258782E-16 -2.38453686E-16 -2.78288575E-01  1.27087187E-01  4.31619060E-16
 -7.62388203E-17  1.11365150E-16 -2.76335372E-01  1.52053240E-15 -1.62339023E-15
  8.16354699E-17 -2.04072570E-01  1.26956628E-15 -1.21847243E-15  1.04668342E-16
 -3.36051276E-16  4.11832554E-16  2.78288575E-01  1.27087187E-01  1.57461853E-16
  4.51550367E-18  1.00276519E-17  2.32796664E-14  3.69322957E-15 -3.83262378E-17
  4.30628468E-17  2.27683470E-14  3.29194272E-15 -6.01746384E-18  3.89837565E-17
 -3.71349415E-17  2.09610461E-17  1.94526266E-01  3.83611772E-14  6.09458042E-15
  8.61437778E-17  2.15132748E-17  4.73811097E-15 -2.43308505E-15 -3.05155204E-17
  6.80552452E-17  3.80666618E-15  3.98719417E-16 -9.99027216E-17  4.35482010E-17
 -8.74262205E-17 -2.63867782E-17  4.00447467E-01 -2.99311161E-14 -2.27843299E-15
 -1.54083292E-16  7.53065313E-18 -2.93170181E-01  4.57737137E-16  1.11365414E-15
 -3.35822109E-16 -2.22137019E-01  7.70284676E-16  4.69699864E-16  1.35552580E-16
  3.80049663E-16 -5.40517663E-16 -2.77066558E-01  2.82916415E-01  1.07992347E-15
 -8.21200252E-17  3.64993175E-17  2.93170181E-01  4.74685546E-16 -1.08492745E-15
 -9.10949456E-18  2.22137019E-01  6.33465162E-16 -4.66684255E-16  5.64880991E-18
 -2.19477410E-16  5.85832105E-16 -2.77066558E-01 -2.82916415E-01  1.00116802E-15
 -3.47937853E-17 -3.37784731E-17 -1.65874339E-14  3.93165587E-01  1.38017268E-16
 -1.46269950E-16 -1.18528453E-14  3.27877267E-01  3.06243795E-16 -3.07660368E-16
 -4.25401057E-17  4.40571903E-16 -1.98982896E-15 -2.13103335E-14  6.12887209E-01
  4.68886780E-16  2.15980643E-16  1.35570576E-14 -2.34008794E-01 -5.75699845E-17
  1.18327897E-16  1.57076073E-15  2.70104442E-02 -5.06343438E-17  1.09691118E-16
  1.12821934E-16 -3.94238834E-17 -4.09671786E-15  2.36810066E-15 -2.27332161E-01
  5.98560927E-03  3.90054375E-03 -4.39500302E-15  2.91075228E-02  9.60245920E-02
 -1.25800190E-02 -1.90091813E-15  5.22498610E-02  4.00133546E-02  1.28078052E-03
  2.49723823E-02 -5.56273260E-02 -4.76447166E-15  2.87735296E-15  8.75236637E-02
 -5.98560927E-03 -3.90054375E-03 -1.01101644E-14  2.91075228E-02 -9.60245920E-02
  1.25800190E-02 -6.43072061E-15  5.22498610E-02 -4.00133546E-02 -1.28078052E-03
 -2.49723823E-02  5.56273260E-02  1.05710617E-14  8.72539599E-15  8.75236637E-02
  2.12936751E-16  1.92864077E-16  3.81720256E-01  1.62871106E-14 -3.13389220E-16
 -3.41725982E-17  2.65664909E-01  1.37210952E-14 -1.12538802E-16  1.57342966E-17
  1.95701693E-17  5.09374370E-17 -9.46485026E-16  4.84530401E-01  2.62221832E-14
 -8.64142620E-17 -2.24388934E-16 -3.32098644E-01 -9.43394842E-15  9.66446947E-17
 -6.33340594E-17 -4.28585513E-02  9.18488860E-16 -2.79916974E-17 -4.11297973E-16
 -1.18686798E-16 -4.13713947E-17 -2.23310762E-15 -2.98149459E-02 -9.92623940E-15
  3.85714910E-16  2.80897919E-17  2.00522624E-01  2.16149940E-15  4.84881866E-15
 -4.64450539E-16  1.21454351E-01  2.77620523E-15  2.27102901E-15 -2.06900156E-16
  1.22270105E-15 -2.36446006E-15  2.13877803E-01 -1.55113035E-01  2.85053936E-15
  4.90673598E-16  1.32567759E-16  2.00522624E-01  2.44286348E-15 -4.02601881E-15
  5.54313183E-16  1.21454351E-01  3.17164744E-15 -1.75150375E-15  5.83856402E-17
 -1.28277121E-15  2.32584928E-15 -2.13877803E-01 -1.55113035E-01  1.96398601E-15
  9.54679214E-02  6.71471246E-02 -5.62065434E-16  8.63762295E-16 -2.50486626E-01
 -1.69355006E-02 -6.63256113E-16  4.56615716E-16 -6.19533181E-02  7.51893049E-03
  3.04639601E-02 -5.86899063E-02 -2.39454261E-17 -8.48235362E-16  9.25263215E-16
 -1.89951877E-01 -1.29394092E-01  4.59016884E-16 -4.24852278E-16  7.58374644E-02
 -1.01626629E-02 -1.09669150E-16  1.35618610E-16 -3.27600550E-02 -1.88104469E-01
 -1.08301300E-01  1.23105743E-01 -5.95179621E-18  1.26109888E-16 -1.26814143E-16
  8.30134677E-02  6.18195535E-02 -8.96762456E-17 -1.62408588E-01  2.65470730E-01
  1.57309240E-02 -3.94280584E-17 -9.37834910E-02  1.56283523E-01  2.63629427E-02
  4.89482326E-03 -3.59602551E-02 -1.83448968E-16  1.41144683E-16  4.15151571E-01
  8.30134677E-02  6.18195535E-02 -9.34912531E-17  1.62408588E-01  2.65470730E-01
  1.57309240E-02 -3.82555550E-17  9.37834910E-02  1.56283523E-01  2.63629427E-02
  4.89482326E-03 -3.59602551E-02  1.79642689E-16  1.22028873E-16 -4.15151571E-01
 -5.67325728E-16 -2.58007311E-16  1.15870512E-15 -5.16488162E-02  5.10740825E-16
  6.09186697E-17  9.08930753E-16 -4.67550242E-02  1.38940784E-16 -5.27848695E-17
 -1.10943519E-16  3.24989462E-16  6.86160847E-16  1.73891021E-15 -1.03792819E-01
  5.40728485E-16 -1.22860204E-16 -8.06611585E-16 -1.94724597E-01  2.60203784E-16
 -5.65690541E-17 -1.22265209E-16  4.25120888E-02  3.08375939E-17  2.89186919E-16
  3.52247330E-16 -1.73486310E-16 -8.87145753E-17 -1.68250103E-16  1.44247242E-01
  1.99888025E-01  9.00783225E-02  6.23023889E-16 -2.21954597E-01  8.11855168E-02
  2.62907714E-02  7.42790243E-17 -1.41919558E-01  7.70535164E-02  4.36344724E-02
 -7.76966490E-02 -5.13275561E-03  6.54178458E-16 -5.13095949E-16  5.26049315E-01
 -1.99888025E-01 -9.00783225E-02  3.82153920E-16 -2.21954597E-01 -8.11855168E-02
 -2.62907714E-02  3.31801063E-16 -1.41919558E-01 -7.70535164E-02 -4.36344724E-02
  7.76966490E-02  5.13275561E-03 -3.63167083E-16 -2.08803900E-16  5.26049315E-01
 -1.10767730E-01 -3.61661114E-02 -3.20074596E-16  3.45299681E-18 -2.02013034E-02
 -4.94917329E-03 -1.36700956E-16  1.09036340E-16 -1.99739914E-02 -2.07534318E-02
  4.76190284E-02  2.45155766E-04 -2.30477194E-15 -1.06010512E-17  2.80322378E-16
 -8.61438801E-02 -2.77027823E-02  1.52949397E-16 -2.40420997E-16  1.27058000E-01
 -4.80160853E-02  2.68509848E-17  3.20940900E-16  7.16132093E-02 -1.00198748E-01
  1.89624542E-01 -1.15251604E-01  2.10994359E-16  1.55709280E-16 -2.79455393E-16
  5.05183231E-01  1.60629584E-01 -2.91310840E-17 -2.22441099E-01 -7.13648937E-02
  1.12272990E-03 -3.26892103E-17 -6.45701851E-02 -4.20715011E-02 -5.61792415E-02
 -2.07671683E-01  5.85799092E-02 -5.32295314E-16  5.72271945E-16 -1.61858229E-01
  5.05183231E-01  1.60629584E-01 -1.02705268E-17  2.22441099E-01 -7.13648937E-02
  1.12272990E-03  2.73332727E-17  6.45701851E-02 -4.20715011E-02 -5.61792415E-02
 -2.07671683E-01  5.85799092E-02 -4.56126986E-16 -2.17704850E-16  1.61858229E-01
 -3.17088451E-15 -7.09610568E-16 -5.24658700E-16  7.10470161E-02  3.68442676E-16
  1.62379061E-16 -1.06056889E-16  1.84226690E-02 -1.74000550E-16  3.52254887E-16
  3.56345477E-16  2.83096884E-16  8.80566610E-15  6.32695719E-17 -1.43372276E-02
  3.70734077E-16 -1.56652819E-16  3.31493823E-16  5.00037604E-02  1.08747615E-15
  1.32633635E-17  3.09380491E-17 -6.65103654E-02  3.08209605E-16  1.90084639E-16
  4.88422956E-16 -1.17715274E-15 -2.18213798E-16  3.44240684E-16 -4.03940662E-03
  6.16670665E-01  1.35159321E-01 -2.65269385E-16  6.91827095E-02  1.35279619E-02
 -1.03939054E-02 -2.72424931E-16  1.61029960E-02  1.12781422E-03 -1.14488343E-01
 -6.84343670E-02 -9.97103199E-02  1.02325002E-15 -1.66436018E-15 -2.11861320E-01
 -6.16670665E-01 -1.35159321E-01  2.30254782E-16  6.91827095E-02 -1.35279619E-02
  1.03939054E-02  1.06312381E-16  1.61029960E-02 -1.12781422E-03  1.14488343E-01
  6.84343670E-02  9.97103199E-02 -2.77088094E-16  3.40165467E-15 -2.11861320E-01
  8.07942098E-01  1.56035750E-01  4.10935875E-17  8.81313241E-17 -1.27307102E-01
 -1.95606194E-02 -1.55424696E-16  1.88481144E-16 -2.51432828E-02 -8.10197460E-02
 -4.87106853E-02 -1.46196455E-01 -1.29021930E-15 -8.88381632E-17 -2.20377723E-16
 -1.50429873E-01  2.13505496E-03  7.03685259E-17 -4.78095834E-17 -1.43526086E-01
 -7.48666232E-02 -7.17672127E-17 -1.75671293E-16  3.73712162E-04 -1.08370542E-01
  2.17675018E-02  1.41752406E-01  8.53915669E-17  7.27010361E-17  2.08677845E-17
  8.06056117E-02  1.87824767E-02  2.73550549E-17  4.67680720E-02  4.32234314E-02
 -1.36838714E-02  6.70398342E-18  5.00853164E-02 -8.38505694E-03 -5.16825514E-02
  7.86662816E-02 -7.22105093E-02 -3.39551994E-16  1.95850656E-16 -2.35782202E-01
  8.06056117E-02  1.87824767E-02  2.20104962E-19 -4.67680720E-02  4.32234314E-02
 -1.36838714E-02  2.08340132E-17 -5.00853164E-02 -8.38505694E-03 -5.16825514E-02
  7.86662816E-02 -7.22105093E-02  1.91028815E-17 -3.41697886E-16  2.35782202E-01
  3.23898884E-02  4.95665423E-03 -1.75256993E-16 -7.86006902E-17  8.50601028E-02
 -2.72735531E-03  2.86073315E-16 -7.00442487E-17  4.45060612E-02 -1.05746589E-02
 -1.12114216E-01  1.15265679E-01  3.73028864E-15  4.09771101E-17 -6.69795878E-17
  6.17648142E-01  5.94028684E-02  1.66321442E-16 -2.31724671E-17 -9.30214207E-02
  2.02703439E-02  1.01677675E-16  7.60103932E-17 -4.88326098E-02  9.19112826E-02
 -2.57631885E-01  9.14183830E-02 -1.31270223E-16  6.16192134E-17 -1.02671989E-16
  3.40482372E-01  3.28622545E-02 -2.34296270E-16  2.09244758E-01  4.60811304E-02
 -8.84862156E-03 -5.65966630E-17  1.39696429E-02  5.45738792E-02 -7.38026070E-02
  1.06374220E-01 -2.02307763E-01  1.35955756E-15  9.05490798E-16  1.16468285E-01
  3.40482372E-01  3.28622545E-02 -7.92100170E-17 -2.09244758E-01  4.60811304E-02
 -8.84862156E-03 -9.03984742E-17 -1.39696429E-02  5.45738792E-02 -7.38026070E-02
  1.06374220E-01 -2.02307763E-01 -1.23430865E-16  2.29143240E-15 -1.16468285E-01
  1.89260718E-16  3.07793155E-17 -5.39640219E-02 -4.55954776E-17 -2.37642120E-16
  5.28746718E-18  3.35527895E-03  5.42417670E-17 -7.07143743E-17 -2.04978177E-17
  1.99304163E-16 -2.61966496E-16  9.35948048E-15  1.19746510E-01  3.96407377E-17
 -1.60708901E-15 -9.31373051E-17  6.79620827E-04 -1.18549046E-17  2.06047224E-16
 -5.15245761E-17  9.07573303E-03  2.73158008E-17  8.29313272E-17 -1.97908588E-16
  5.93946100E-16 -2.07771352E-16  1.25876604E-16 -2.12216034E-02  1.99560829E-17
 -1.87552206E-15 -4.87809866E-16  1.36977089E-02 -6.40692100E-16 -1.45450084E-16
  1.02197607E-16 -3.31578779E-03  7.07582510E-18 -1.44331166E-16  3.42418369E-16
  1.80295570E-16  4.87412394E-16  3.41889393E-01  6.10084649E-01  1.17639108E-16
  4.06438451E-17  3.06352224E-16  1.36977089E-02  3.21532046E-16 -7.06415856E-17
 -8.04145153E-17 -3.31578779E-03  6.19535025E-17 -9.52149801E-17  5.54440425E-17
 -6.59285775E-16  4.61906280E-16 -3.41889393E-01  6.10084649E-01  6.45705248E-16
  1.81895639E-15  1.52729921E-16  2.25062147E-16 -8.09888501E-16 -3.77852327E-16
 -1.59854475E-17 -7.87434940E-18 -3.58712917E-16 -3.14468174E-16 -3.82065461E-16
  3.88916599E-16 -5.70269692E-16  9.43583773E-01 -1.06700315E-15  1.39304616E-16
 -9.01918985E-16 -5.29873714E-16  1.56185908E-16 -3.53869222E-16  1.10803206E-15
 -3.19961064E-16  9.87074176E-18  8.38064843E-16  3.05919621E-16 -1.06302689E-15
  1.81168150E-15 -1.17364985E-15 -2.03581891E-02  2.29619030E-16 -1.98974508E-16
 -7.05828605E-15 -1.17887440E-15 -2.43769903E-02 -2.54748836E-15 -5.75929152E-16
  3.04297465E-17  2.51716008E-03 -1.43505742E-16 -2.40727346E-16  1.84933553E-15
 -6.10494774E-16  2.31494249E-15  1.68876699E-01 -1.67883818E-01  8.39583428E-16
  5.94174254E-15  1.87331176E-15  2.43769903E-02  1.57281406E-15 -4.15346571E-16
  1.83184302E-17 -2.51716008E-03  2.90267503E-16 -1.95965261E-16 -9.84518270E-16
 -2.00526222E-15  5.50312064E-16  1.68876699E-01  1.67883818E-01  2.62006771E-15
 -3.23645220E-16 -1.65084655E-17  9.77637061E-17  1.45986193E-16 -6.67312916E-17
 -1.58433440E-17 -9.60679379E-17  3.88654837E-17  2.75620183E-17  6.13680294E-17
  7.11360779E-17 -1.58559654E-17 -8.58648678E-03 -7.30744128E-16 -1.71979923E-16
 -1.94187829E-16  2.45904017E-17  3.88442823E-16  1.48667154E-16 -8.55680266E-17
 -3.06623612E-17  1.48646015E-16 -8.10212945E-17  2.33963553E-17  1.98878941E-17
 -7.59834023E-17  1.17031611E-16 -2.10377355E-02 -2.21297540E-16 -1.30130604E-16
  1.67227745E-15  3.17769118E-16 -2.46923114E-02  3.21772094E-16 -1.54852398E-17
  2.09185305E-17  2.65053818E-03  8.41741110E-19  6.65143856E-17 -3.85893294E-16
  2.46328815E-17 -5.38001761E-16  5.10089490E-01  4.93876876E-01 -5.47826014E-16
 -1.39436720E-15 -3.40929278E-16  2.46923114E-02  1.48593940E-16  6.98560813E-17
  1.18665233E-16 -2.65053818E-03 -4.35626259E-17 -3.54205901E-17  2.55383934E-16
  7.85210341E-17  3.05209430E-16  5.10089490E-01 -4.93876876E-01 -4.12130024E-16
  4.29802511E-01 -4.36631575E-03 -1.12546329E-16 -7.09693453E-17  1.58585423E-01
  2.48011930E-03 -3.28433701E-17 -1.97723114E-16 -3.74247768E-02 -1.48423445E-01
 -7.67909179E-02  6.53911233E-02 -2.81728193E-15 -1.08451692E-16  4.57292453E-18
  5.37524259E-01 -3.17128949E-02 -2.50941991E-17  2.13436476E-16  2.31788106E-01
  3.74626902E-02 -9.02275247E-18 -1.84035149E-17 -1.54484320E-03 -7.58396621E-02
  1.24849451E-01 -2.59208828E-01 -1.68875162E-17 -1.39822357E-16  9.74893856E-17
 -1.44356631E-01  1.85832824E-03  1.25972469E-16 -1.77966506E-01 -6.42969733E-02
  2.06483477E-02 -7.82887998E-18 -6.55086174E-02 -6.32391399E-03  7.06168947E-02
 -2.01694551E-01  2.18924989E-01 -2.47165070E-16  7.12890084E-16  1.43349536E-01
 -1.44356631E-01  1.85832824E-03 -2.92736605E-17  1.77966506E-01 -6.42969733E-02
  2.06483477E-02 -3.05452745E-18  6.55086174E-02 -6.32391399E-03  7.06168947E-02
 -2.01694551E-01  2.18924989E-01 -2.61529536E-16 -7.98812131E-16 -1.43349536E-01
  2.57671394E-01 -7.52580259E-02 -3.13435393E-16  4.22324835E-16  2.98147464E-01
  1.09157765E-02  3.31596541E-16 -3.75222710E-17 -4.19939592E-02  7.90414062E-02
 -2.02041985E-01 -1.54936802E-02  5.45884381E-16  1.78956457E-16  2.21097041E-17
 -4.34338893E-01  8.65109745E-02 -1.10273863E-17 -2.32249369E-17  7.38987998E-02
  1.41867604E-01  3.06282581E-16 -4.79831003E-17 -2.60733895E-02  6.03495164E-01
 -1.08730655E-01 -2.12767802E-01 -3.95185321E-17  2.00269371E-17 -1.67534833E-16
  1.35865754E-01 -4.83251197E-02 -1.98461643E-16  1.23552821E-01 -1.23982162E-01
 -8.01264151E-03 -1.72315657E-17 -4.10098289E-02  2.21845769E-02  7.44371731E-02
 -1.35457365E-01 -2.14322863E-02  2.62308374E-16 -2.72868130E-16  2.16600794E-01
  1.35865754E-01 -4.83251197E-02 -1.60084919E-16 -1.23552821E-01 -1.23982162E-01
 -8.01264151E-03 -1.90534970E-17  4.10098289E-02  2.21845769E-02  7.44371731E-02
 -1.35457365E-01 -2.14322863E-02 -8.45416054E-17 -1.73977990E-16 -2.16600794E-01
  1.18903291E-03 -6.20747720E-03 -1.18458638E-15 -7.85921386E-16  1.75107217E-01
 -7.20644997E-02  4.61172130E-16 -2.90459322E-16  2.64676342E-01 -4.77506144E-01
 -3.15501819E-01  7.13308426E-01  2.50040432E-16  5.84795013E-16 -5.17713755E-17
 -2.42632556E-01  1.31582847E-01  1.74185020E-16  1.40485866E-16  2.83988184E-01
 -1.28351917E-01  6.90112301E-16  2.21186740E-16 -1.26684515E-01 -1.16075119E-01
  1.16088502E-01  2.42226345E-01  2.23381601E-17 -1.16469793E-16 -4.75401904E-16
 -5.75661826E-03  6.06484868E-03 -5.64914410E-16  2.44848906E-02  6.84376844E-02
 -8.04700933E-03  3.58444024E-17  2.02964926E-02 -2.47764298E-02 -9.81742471E-02
  6.68375479E-02  2.09152441E-02  5.86695382E-16 -5.27637623E-16  1.07506857E-02
 -5.75661826E-03  6.06484868E-03 -5.39138868E-16 -2.44848906E-02  6.84376844E-02
 -8.04700933E-03  1.82349172E-16 -2.02964926E-02 -2.47764298E-02 -9.81742471E-02
  6.68375479E-02  2.09152441E-02 -4.38587552E-16 -3.86199695E-16 -1.07506857E-02
  4.59119872E-17 -1.27494199E-16  4.67488255E-01  1.98379132E-15  1.01960385E-15
 -6.26075465E-17 -1.21548980E-01 -6.27403007E-16 -1.99666575E-16 -8.41187241E-16
 -2.79362064E-16  8.26350602E-16  6.03121142E-17 -2.56244117E-01 -1.31739307E-15
 -8.60363389E-16  1.34600500E-16 -1.83277655E-01  2.11517764E-16  1.80350849E-16
 -1.38344686E-16 -3.58351236E-01 -8.17057518E-16  7.82589531E-17 -1.24411864E-16
  9.73848700E-16  1.82165831E-16  5.41800749E-16  1.13466236E-01 -7.38508017E-16
  1.72324627E-16  2.47538541E-16  4.46003101E-01  4.55826490E-16  1.07804688E-16
  2.17263233E-17 -1.20791166E-01  3.35166356E-16 -5.91400597E-16 -4.51076594E-15
  3.01009060E-15  1.19916372E-15 -3.85449537E-01  2.56232681E-01  1.52503350E-15
  2.56059103E-16 -6.27521118E-16  4.46003101E-01 -8.98331409E-16 -8.44770585E-16
 -1.34380267E-16 -1.20791166E-01  5.95895514E-16  2.75658746E-16  1.05140347E-15
 -1.84112606E-15  6.97093680E-16  3.85449537E-01  2.56232681E-01 -1.84543342E-16
 -3.40112013E-02  5.15820077E-02  1.21018212E-15  2.95318606E-15 -1.00324927E-01
 -1.55329931E-02 -9.60681496E-17 -4.51982866E-16  8.34189538E-02  1.82300919E-01
 -3.13263733E-01  1.64462855E-01 -6.45811371E-18 -5.21858358E-16 -2.28939066E-15
  7.09848627E-02 -5.55783653E-02 -4.74711246E-16 -1.51330481E-15  1.32493881E-01
 -2.21324314E-02 -1.11049838E-15 -8.97572807E-16 -7.17249541E-02  9.41902143E-02
 -2.17275515E-01  1.88879126E-02 -8.16364511E-17  4.59111634E-16 -5.13072395E-16
 -6.67502158E-02  6.95623799E-02  1.31866697E-15 -1.57450155E-01  1.88151304E-01
  2.46079491E-02 -4.16077979E-16  8.32258532E-03 -1.24518164E-02  5.34493476E-01
 -1.85761329E-01 -3.06435507E-01 -1.13839231E-15  7.22006023E-16 -2.52157828E-01
 -6.67502158E-02  6.95623799E-02  1.33646879E-15  1.57450155E-01  1.88151304E-01
  2.46079491E-02 -3.90542830E-16 -8.32258532E-03 -1.24518164E-02  5.34493476E-01
 -1.85761329E-01 -3.06435507E-01  1.12492695E-15  6.84215938E-16  2.52157828E-01
  2.21232708E-16 -5.00285792E-16  3.87278891E-16  5.38927092E-01  8.19910316E-16
 -5.06030030E-17 -2.82001855E-16 -1.73906961E-01 -2.54187112E-16 -1.82554892E-15
  2.25675396E-15 -6.79087616E-16  2.86418999E-17 -1.49289910E-16 -4.72345292E-01
 -3.89652295E-16  5.21027797E-16  1.05573252E-16 -1.66095543E-01 -6.66373383E-16
 -5.39870721E-17  2.58338271E-16 -1.88334994E-01  6.67553386E-16 -6.63934828E-16
  1.16933449E-15  2.66671344E-16 -2.66648623E-17 -3.41675220E-16 -8.60617857E-02
 -7.67558120E-02  1.13175308E-01 -7.07263001E-16 -8.93184031E-02  1.94540942E-01
  3.24236215E-02  4.62696554E-16  3.63673105E-02 -5.51299734E-02  2.50630960E-01
  2.56169876E-01 -4.41062268E-01  1.66999992E-16 -2.98287521E-16 -6.81162351E-02
  7.67558120E-02 -1.13175308E-01 -5.66894368E-16 -8.93184031E-02 -1.94540942E-01
 -3.24236215E-02  2.47264980E-16  3.63673105E-02  5.51299734E-02 -2.50630960E-01
 -2.56169876E-01  4.41062268E-01 -4.23529777E-16 -3.69881045E-16 -6.81162351E-02
  9.32151714E-17 -1.10086450E-16  7.34694744E-16 -1.46644708E-01  3.75216444E-16
 -8.79947660E-18  5.54524275E-16  1.96792528E-02 -2.22271593E-16 -1.57814946E-15
  1.48874204E-15 -5.08969337E-17 -1.75438268E-16 -4.70180635E-16  1.56449619E-01
 -4.90152180E-16  2.90072884E-16 -9.48253910E-16 -1.62410036E-01 -1.78603121E-16
  3.86643354E-17 -1.45166101E-15  1.02934730E-01  1.86294265E-16 -3.61719160E-16
  1.87915156E-16 -3.82658949E-17 -1.46481183E-16  1.06910797E-15  1.71578345E-01
 -3.52430135E-03 -6.21003715E-03  2.39997409E-15 -3.46617016E-03  7.06504119E-02
  2.05727033E-02 -9.48912782E-16 -8.32236584E-02  2.72709776E-03  5.96380880E-01
 -5.01072302E-01 -8.03932615E-02 -1.82428792E-15  1.90367842E-15 -2.06736545E-01
  3.52430135E-03  6.21003715E-03  2.05470137E-15 -3.46617016E-03 -7.06504119E-02
 -2.05727033E-02 -5.78821365E-16 -8.32236584E-02 -2.72709776E-03 -5.96380880E-01
  5.01072302E-01  8.03932615E-02  1.76972954E-15  1.24357048E-15 -2.06736545E-01
  7.98898890E-03 -7.25914920E-03  4.74789877E-16 -4.15894982E-16  3.48299191E-02
  3.78562698E-03 -2.54396701E-17  1.50429236E-16 -2.14322065E-02 -7.51730107E-01
  7.76553692E-01 -2.01779814E-02 -8.29863784E-19 -1.28610785E-16 -1.15114197E-16
 -3.09335785E-02  2.36213121E-03  4.10376371E-17  2.91496686E-17 -6.54232832E-03
  6.26322529E-02 -5.11034868E-16  4.29867816E-16 -3.98673851E-02  4.12550611E-02
 -2.00771068E-02 -1.96818598E-02 -1.95296673E-16  5.54459725E-17 -2.24717350E-16
  3.16186329E-02 -5.39097056E-02  7.87428375E-17  8.79202476E-02 -9.99329084E-02
 -5.19989503E-03 -1.33260312E-16 -4.42786727E-02  6.41166411E-02  2.86556697E-01
 -7.73357864E-02 -2.23416295E-01 -1.79659737E-16  1.06926978E-16  1.76942930E-02
  3.16186329E-02 -5.39097056E-02  4.12542279E-16 -8.79202476E-02 -9.99329084E-02
 -5.19989503E-03 -1.41968624E-16  4.42786727E-02  6.41166411E-02  2.86556697E-01
 -7.73357864E-02 -2.23416295E-01  9.86764150E-17  1.07208732E-16 -1.76942930E-02
 -1.74396193E-17  1.53951733E-17  5.87628184E-16 -1.81138196E-15 -7.92482399E-17
  8.43128664E-17 -1.87025085E-16  7.69903302E-16  2.47331040E-17 -1.99447691E-17
 -1.39562957E-17  2.82094882E-17 -2.59608381E-01 -2.25219597E-16  2.58679033E-16
  6.48041323E-17 -8.13728535E-17  8.15968628E-16  4.69554595E-16 -1.13898590E-16
  4.62553193E-17  5.11861332E-16  1.36587979E-15 -7.64436508E-17  7.66047915E-19
  3.75502402E-17  6.61842227E-17  7.08212489E-01 -1.56138524E-15 -4.47968105E-16
  6.49332971E-16 -8.37861657E-16 -4.62429933E-01  4.66373513E-16 -1.54597464E-15
 -5.25086226E-16  2.52924476E-01 -1.65051467E-16  7.97913317E-16  9.93994175E-16
  6.56686261E-16 -1.76549077E-15  3.38400450E-01 -3.61159512E-01  4.76165901E-16
 -5.62395574E-16  6.85842079E-16  4.62429933E-01 -8.98303593E-17  1.86854062E-15
  3.92068081E-16 -2.52924476E-01  1.39622628E-16 -1.12973608E-15 -8.80000010E-16
 -1.06043133E-15  2.10000410E-15  3.38400450E-01  3.61159512E-01  3.66318019E-16
 -6.87968259E-17  1.89801784E-16 -1.31104655E-15  4.58603751E-01  5.73894772E-17
 -8.12406565E-17  7.22430045E-16 -2.67661039E-01  1.88198354E-16 -7.03832118E-16
  6.15157852E-16  8.39391272E-18 -1.03196910E-15  8.54883185E-17 -1.01767401E-01
  8.54853160E-18  3.31321300E-16  2.56070826E-17 -9.65296132E-02  9.95465121E-17
 -2.32295973E-16  6.72262438E-16 -2.70537021E-01 -1.72016809E-16  5.36922569E-16
 -4.21542717E-16  1.21804877E-17  2.96750994E-15 -5.76954056E-16  7.39488226E-02
 -9.11780187E-02  1.86404120E-01 -2.81582670E-15  1.06922154E-02  4.17469930E-01
  4.94577996E-02  1.17717461E-15 -7.07255380E-02 -2.31654290E-01 -1.68542696E-01
 -2.64014179E-01  4.92065629E-01  2.37722523E-15 -1.50265983E-15 -8.15180880E-02
  9.11780187E-02 -1.86404120E-01  1.25081461E-15  1.06922154E-02 -4.17469930E-01
 -4.94577996E-02 -9.57346566E-16 -7.07255380E-02  2.31654290E-01  1.68542696E-01
  2.64014179E-01 -4.92065629E-01  8.47759706E-16  8.06498347E-16 -8.15180880E-02
 -4.21696186E-02  1.59017219E-01 -2.66712969E-16  1.68925395E-16 -1.35933065E-01
  1.77375209E-02 -1.03125442E-16 -2.44219432E-16  4.30142254E-02  2.56535909E-02
  1.09124020E-01 -8.69376447E-03  3.54945040E-16 -3.87600704E-19 -6.76556481E-16
  3.94353941E-03 -1.69122998E-02  7.39266461E-16  3.85866371E-17 -2.80923809E-02
  1.14196595E-02 -4.38907918E-16  2.70241323E-16 -2.67566300E-01 -3.03774453E-02
 -1.00607005E-02  7.74560668E-03 -3.36994385E-16 -1.03647375E-16 -4.38560433E-17
  6.06001780E-02 -1.37181413E-01  2.66999872E-16  4.49075438E-01  4.12160550E-01
 -2.40889161E-02 -1.88120592E-16 -3.11010705E-01 -3.21465723E-01  2.16800253E-02
 -3.30745473E-01  2.94676673E-01  5.13839881E-17  2.96045215E-17 -6.90766852E-02
  6.06001780E-02 -1.37181413E-01 -2.15595444E-16 -4.49075438E-01  4.12160550E-01
 -2.40889161E-02  1.61224109E-16  3.11010705E-01 -3.21465723E-01  2.16800253E-02
 -3.30745473E-01  2.94676673E-01 -3.39717098E-16 -2.44996046E-16  6.90766852E-02
 -3.97248435E-17 -6.78468601E-17  8.14458483E-01 -7.93399495E-16  9.58371930E-16
 -2.92503770E-16 -5.38247404E-01  2.47220982E-16 -8.19658266E-16 -1.12674090E-16
 -2.98040074E-16  5.30447046E-16  3.49520994E-16 -3.44817021E-01 -1.52790046E-16
 -2.39899779E-16 -7.16455722E-16  3.55338359E-01 -2.37574919E-16  6.76649036E-16
  1.51434270E-16 -2.31378262E-01  1.05407956E-15 -3.72277396E-17  2.85644874E-16
  1.52299536E-16  1.79862124E-16 -1.22512761E-15 -5.39756089E-01 -8.67366028E-16
  6.49994375E-16 -8.18287364E-16 -2.25913703E-01  6.90340561E-16  3.14894576E-16
 -1.44649660E-16  1.74746307E-01 -5.31328481E-16 -5.01996100E-16  6.47142604E-16
 -7.59729078E-16  2.77354438E-16  2.67426138E-01 -8.03662849E-02 -1.80300401E-16
 -2.39703423E-16  5.11033728E-16 -2.25913703E-01  1.25842955E-15  4.15085883E-16
  2.48779849E-16  1.74746307E-01 -7.03303094E-16 -1.36374846E-16 -5.38609583E-16
  1.68692831E-15 -6.24329199E-16 -2.67426138E-01 -8.03662849E-02  1.23187391E-16
  1.41861224E-16 -8.85506141E-17 -4.81342396E-14  3.16881704E-01  1.27069597E-15
 -1.29741630E-16  2.13020644E-14 -3.22613209E-01 -1.19914575E-15 -1.75427454E-15
  3.13166914E-15 -7.93430812E-16  5.43687613E-16  1.43661065E-13  1.19954481E-01
  6.39923017E-16  2.13373809E-16  3.90333269E-13  4.87754645E-01  2.36745152E-15
 -5.56026922E-16 -1.44638526E-13 -2.23199136E-01 -2.44416590E-16  5.35742990E-15
 -3.20930603E-15 -1.24015659E-15 -1.84629855E-15  1.80700275E-15 -1.45103444E-01
 -9.45629172E-02  2.68376971E-01  1.40822388E-13  5.44686351E-01 -2.59158235E-01
 -5.47208828E-02 -1.50452543E-13 -4.74017504E-01  2.02093303E-01  6.22024115E-02
 -1.21893584E-01 -1.13067497E-01  6.64641405E-14 -5.65041237E-14  2.13015897E-01
  9.45629172E-02 -2.68376971E-01  1.42706776E-13  5.44686351E-01  2.59158235E-01
  5.47208828E-02 -1.53450733E-13 -4.74017504E-01 -2.02093303E-01 -6.22024115E-02
  1.21893584E-01  1.13067497E-01 -6.79237098E-14 -5.76493607E-14  2.13015897E-01
  7.78416125E-17 -3.97756011E-17 -1.27567538E-01 -1.18337259E-13  3.42292524E-16
  5.46003329E-17  5.77488633E-02  1.20798524E-13 -3.89107774E-16 -1.15823630E-15
  1.50602557E-15 -2.82044407E-16 -4.17032797E-16  3.80023616E-01 -4.53530630E-14
  5.42702722E-16  5.11637262E-16  1.03687603E+00 -1.83158744E-13  7.12243743E-16
 -4.77966732E-16 -3.83708550E-01  8.32614590E-14  2.31073709E-16  3.60199641E-15
 -2.51012131E-15 -9.05637694E-16  4.23271298E-16  1.21815304E-03  5.44398646E-14
  3.48665792E-14 -9.90756274E-14  3.76494036E-01 -2.06799683E-13  9.90965503E-14
  2.10574014E-14 -4.04508084E-01  1.79653482E-13 -7.71457990E-14 -2.53946123E-14
  4.66916499E-14  4.25957268E-14  1.80289056E-01 -1.52483173E-01 -8.05379143E-14
 -3.62661095E-14  1.03177518E-13  3.76494036E-01 -2.03155509E-13 -9.53791744E-14
 -2.05759137E-14 -4.04508084E-01  1.77465661E-13  7.42378988E-14  2.13889946E-14
 -4.53163647E-14 -4.26170092E-14 -1.80289056E-01 -1.52483173E-01 -7.95013892E-14
  1.01113493E-02  8.88945347E-03  2.26247172E-16 -4.92972626E-15  1.28270773E-01
 -1.73203847E-02  8.30256824E-17  4.83592294E-15 -1.47189376E-01 -1.93276463E-01
  3.06176908E-01 -5.49534319E-02 -9.45272734E-18 -1.52343934E-15 -7.02857283E-16
  7.09632655E-02  6.77787037E-03 -5.30849658E-15 -4.56284097E-15  2.36078232E-01
 -6.99996382E-04  2.14941290E-15  2.45203400E-15 -5.46217208E-02  5.91938247E-01
 -3.40300741E-01 -1.59713344E-01  7.85922908E-17  6.24738016E-16  1.99948086E-15
  4.67435477E-03 -2.62078489E-02 -1.61820824E-15 -3.86420079E-01  4.58772348E-01
  6.48353296E-02  1.56970839E-15  2.78666461E-01 -3.94257895E-01 -2.22645539E-01
  2.29236286E-01  5.73302050E-02 -9.69396998E-16  6.87292889E-16 -9.71790727E-02
  4.67435477E-03 -2.62078489E-02 -1.62054206E-15  3.86420079E-01  4.58772348E-01
  6.48353296E-02  2.04547770E-15 -2.78666461E-01 -3.94257895E-01 -2.22645539E-01
  2.29236286E-01  5.73302050E-02  1.24344275E-15  9.55897363E-16  9.71790727E-02
  2.29012109E-02 -8.10483303E-02  6.45288864E-16 -1.04399345E-15 -9.29111497E-02
  1.00268728E-02  2.49082377E-16  5.91975011E-16  9.17734686E-02 -9.40479260E-02
  1.02060832E-01  6.06286325E-03  2.94842071E-17 -1.39141539E-15 -2.96155356E-16
  8.08749422E-03  7.28735780E-03 -2.73460078E-15 -1.37897123E-15  5.80213867E-03
 -1.09014834E-01  8.48318425E-16  9.66368401E-16  1.25601799E-01  2.68718145E-01
 -1.83238205E-01 -4.33292075E-02  7.67282616E-17 -4.64712730E-16 -1.89209031E-16
 -3.11012879E-01  8.41837813E-01 -9.77262354E-16  1.34032109E-01  2.17274130E-02
 -3.29265700E-02  9.20434409E-16 -2.19789243E-01  3.16296521E-02 -3.05418678E-01
 -2.02090479E-01 -1.42761854E-01 -2.51956737E-16  2.95098771E-16 -4.55672034E-02
 -3.11012879E-01  8.41837813E-01 -1.11406198E-15 -1.34032109E-01  2.17274130E-02
 -3.29265700E-02  1.20849642E-15  2.19789243E-01  3.16296521E-02 -3.05418678E-01
 -2.02090479E-01 -1.42761854E-01  3.90805929E-16  4.02301501E-16  4.55672034E-02
  7.12441909E-18 -7.34601116E-17  4.22129718E-16 -3.37782505E-01 -5.76425708E-16
 -6.55459528E-17  5.58065805E-16  3.69764272E-01  5.23943703E-16  5.83429848E-16
 -7.50723401E-16  7.13024841E-17 -2.84455402E-16  8.85096263E-18 -1.96241582E-02
 -2.01675507E-16 -1.06300581E-16  8.29690604E-16 -3.03723283E-01 -1.12912610E-15
  4.34802541E-17 -1.03437267E-15 -1.26867045E-03  3.86347513E-16 -1.59871968E-15
  2.59895996E-16  8.23687257E-16  9.46367521E-16 -8.74374192E-16  1.58810663E-01
 -2.98656613E-01  7.97627359E-01  8.60729102E-16 -1.20785974E-01 -6.10480865E-02
 -1.58438499E-02 -1.00552598E-15  3.11048655E-02  1.45006536E-01 -3.04726634E-01
 -1.52512761E-01 -2.26957234E-01  5.45687387E-16 -2.15828121E-16 -1.56182585E-01
  2.98656613E-01 -7.97627359E-01 -5.38009387E-16 -1.20785974E-01  6.10480865E-02
  1.58438499E-02  8.20211467E-16  3.11048655E-02 -1.45006536E-01  3.04726634E-01
  1.52512761E-01  2.26957234E-01 -1.73816847E-17  1.29895711E-16 -1.56182585E-01
  4.46203318E-16 -2.01882299E-15 -5.55500731E-16 -9.11411257E-16 -3.25574200E-15
  1.01631715E-15  6.70086827E-16  1.06927880E-15  3.36170883E-15 -4.84234984E-16
  4.81065162E-17  9.17625051E-16  1.30090238E-01  1.11931677E-15 -1.25528107E-15
  2.67262464E-16  3.68645544E-17  1.57368459E-15 -2.61571020E-15 -1.59846821E-15
  1.53085619E-16 -7.10501463E-16  1.70174123E-15  8.97607979E-16  1.77495105E-15
 -1.10110677E-15  4.30899232E-17 -7.08634954E-01  5.20437897E-18 -6.61937937E-16
  2.83985932E-16 -6.65412127E-16 -5.40119233E-01 -2.16856313E-15  5.12812992E-17
  1.46195862E-16  7.56706292E-01  2.06637487E-15  3.64050265E-16 -6.50603439E-16
 -6.66016827E-16  1.58227767E-15 -2.66511644E-01  2.30233070E-01 -8.50073333E-16
 -4.62409257E-17 -8.98917367E-17  5.40119233E-01 -1.06245393E-15 -1.43034534E-16
  2.16640129E-16 -7.56706292E-01  1.09365449E-15  4.35737173E-16  3.76577084E-16
 -1.06752613E-16  1.05526144E-15 -2.66511644E-01 -2.30233070E-01 -6.29348665E-16
  1.22418307E-01 -5.38631833E-01  1.08440683E-15 -1.18968393E-15 -8.20342110E-01
  2.62685560E-01 -5.28059192E-16  1.18510442E-15  8.43891156E-01 -1.12219767E-01
  4.72401326E-02  2.14429399E-01 -4.73685168E-16 -4.35928633E-16  1.74034305E-16
  6.70393693E-02  3.52026316E-02  7.85816571E-18  9.07065084E-16 -3.95683702E-01
  9.02424405E-02 -3.30472900E-16 -5.18205330E-16  2.02048493E-01  3.70285187E-01
 -2.18971036E-01 -3.06776957E-02  2.79767339E-15 -3.42941224E-16  2.46861884E-16
  4.88529237E-02 -1.29352663E-01  2.17312682E-15 -1.10549452E-01 -5.00122036E-02
  3.20549653E-02 -2.82952913E-15  1.16601661E-01  1.07849956E-01  1.09052610E-02
 -9.75118326E-02  2.82993386E-01  1.01937894E-15 -8.21511557E-16 -1.59600102E-03
  4.88529237E-02 -1.29352663E-01 -2.35344932E-15  1.10549452E-01 -5.00122036E-02
  3.20549653E-02  3.36363692E-15 -1.16601661E-01  1.07849956E-01  1.09052610E-02
 -9.75118326E-02  2.82993386E-01  1.04842935E-15  9.71837982E-16  1.59600102E-03
 -4.83306290E-16  2.14982883E-15 -1.08655804E-15 -5.18628907E-01  1.42979275E-15
 -8.51608580E-16  1.82804301E-15  6.77428994E-01 -1.83001960E-15  4.04796880E-16
 -8.14161978E-16 -3.87216793E-16  1.58251452E-16 -1.15439294E-15 -1.07245765E-01
 -2.30898718E-16  8.05884125E-16 -8.29488799E-16  6.54289959E-02 -9.12923163E-19
 -7.40677214E-16  6.41236647E-16  4.18064399E-03 -2.71619369E-16 -1.57963983E-15
  1.12320912E-15 -1.06823549E-16 -2.77739668E-16 -1.45602391E-15 -4.01903023E-02
  1.01908588E-02 -2.94716003E-02  1.26187540E-15  3.56870165E-01  4.32270994E-01
 -1.45628538E-02 -1.31266174E-15 -4.40029421E-01 -5.91573521E-01  4.83871039E-03
  1.78548351E-01 -1.64005157E-01  2.64505103E-16 -4.99827638E-17  8.95864832E-02
 -1.01908588E-02  2.94716003E-02  1.06287539E-15  3.56870165E-01 -4.32270994E-01
  1.45628538E-02 -1.62653999E-15 -4.40029421E-01  5.91573521E-01 -4.83871039E-03
 -1.78548351E-01  1.64005157E-01 -4.39167556E-16  2.01310338E-16  8.95864832E-02
 -2.64838523E-01  1.05117933E+00  7.77239789E-16  1.10870490E-15  1.25500724E-02
 -1.90635807E-01 -1.57290615E-15  2.79839184E-15 -1.82121598E-01 -3.84835598E-01
 -2.35452663E-01 -2.41387414E-02 -6.63738428E-17  1.54110157E-15 -7.92203988E-15
  1.91653064E-02 -1.02488282E-02  5.44580125E-16 -7.36179778E-15 -5.10229951E-01
 -1.47725423E-01 -6.85281771E-16  3.20654920E-15 -4.87544520E-02  2.53208545E-01
 -4.90425622E-01  2.57377123E-01  1.32160996E-16  2.45258480E-15 -1.02852452E-14
 -1.51750275E-03  1.47201315E-02 -7.62358925E-16 -1.41655538E-01 -1.43031886E-01
 -3.51622097E-03  1.41739407E-15  2.17765237E-01  2.84901588E-01 -2.88249166E-02
 -2.99396752E-01  3.55709627E-01 -6.98522316E-16  3.15636249E-16 -4.45334472E-02
 -1.51750275E-03  1.47201315E-02 -1.04976032E-15  1.41655538E-01 -1.43031886E-01
 -3.51622097E-03  1.77885725E-15 -2.17765237E-01  2.84901588E-01 -2.88249166E-02
 -2.99396752E-01  3.55709627E-01  7.74128228E-16  4.21990092E-16  4.45334472E-02
  7.47756267E-16 -2.96446967E-15  2.04253771E-01 -1.22816515E-15  1.46476691E-16
  5.89578442E-16 -6.99520407E-01  2.01558106E-15  2.36441832E-16  8.77869326E-16
  5.09968757E-16  5.60390562E-16 -3.21910482E-16  7.73185829E-01 -7.03051862E-16
  1.02968941E-16 -2.58817652E-16  3.48224110E-01 -5.29365641E-16  1.27241310E-15
  1.06519654E-16 -1.36214979E-01 -3.87073060E-16  2.22320660E-16 -4.51647420E-16
  1.18515365E-15 -7.02592795E-16  3.66560655E-16  1.00799716E+00 -8.43969061E-17
 -2.41250140E-16  2.60232710E-16 -2.41088933E-01  8.74737490E-16  1.75002819E-15
  3.74601459E-17  4.24875783E-01 -1.40717413E-15 -2.06414674E-15 -7.90336738E-17
  1.01208437E-15 -5.73359231E-16 -2.41807077E-01  9.66578330E-02  1.81400962E-16
  1.47391084E-17  5.08042228E-16 -2.41088933E-01 -1.92492102E-16 -1.16782261E-15
 -4.30049667E-16  4.24875783E-01  3.08920499E-16  8.91973819E-16  3.27997435E-16
  4.33073226E-16 -1.09354844E-15  2.41807077E-01  9.66578330E-02 -3.14874557E-16
 -2.86169822E-15  1.16209776E-14  1.31489355E-15 -7.82843235E-02  2.61284472E-16
 -1.96947024E-15 -8.06455123E-16 -3.02560054E-01 -2.05127275E-15 -4.21991618E-15
 -2.94887325E-15 -5.79185299E-17  2.01901274E-16 -6.92177080E-16  7.85762951E-01
  1.17533382E-16  5.46907061E-17  9.80358587E-16  7.95125168E-01 -5.90023653E-15
 -2.35347398E-15 -7.51010891E-16 -3.57680903E-01 -2.98036774E-16  2.87469444E-15
 -3.48859154E-15  2.69997838E-15 -6.98637704E-16 -1.03384544E-15  9.63648556E-01
 -2.56929482E-02  1.26505202E-01 -1.96177530E-15 -2.41918591E-01  2.02820631E-01
  7.50177083E-02  1.71495264E-15  1.37861658E-01 -1.79910955E-01  5.42917095E-02
  2.20968147E-01 -2.07038714E-01  2.21618918E-16 -1.21525694E-16  3.03615535E-02
  2.56929482E-02 -1.26505202E-01  1.62667947E-16 -2.41918591E-01 -2.02820631E-01
 -7.50177083E-02 -4.95974732E-16  1.37861658E-01  1.79910955E-01 -5.42917095E-02
 -2.20968147E-01  2.07038714E-01 -5.78823814E-16 -8.97528948E-16  3.03615535E-02
 -1.49886438E-01  9.74599621E-01  5.56294059E-16  3.27303625E-16 -6.69358377E-01
  2.69890782E-02 -5.52871599E-16 -2.60387782E-16  5.73421094E-01 -1.19851922E-01
 -1.87092027E-01 -2.03444705E-01 -2.86815710E-17  1.24767829E-16 -7.48339936E-16
  9.87719659E-02  1.72235404E-02  2.85748818E-16 -1.28727747E-15  2.84148348E-01
 -1.83163754E-01 -1.48649911E-17  6.21744435E-16 -4.52783077E-01  3.98605063E-01
  7.81396211E-01 -8.98942099E-01 -5.71314108E-17  5.24334005E-17  2.95437724E-17
 -1.86096539E-04 -2.29480835E-02 -1.44748701E-16  4.40932066E-02 -5.97590542E-02
 -2.99046816E-02  1.05255492E-16 -9.87309756E-02  7.21536996E-03 -7.21420370E-02
  3.15245410E-01 -2.89870969E-01  4.87037737E-17 -1.27410261E-17  8.89056457E-02
 -1.86096539E-04 -2.29480835E-02 -9.26141183E-18 -4.40932066E-02 -5.97590542E-02
 -2.99046816E-02 -7.24452626E-17  9.87309756E-02  7.21536996E-03 -7.21420370E-02
  3.15245410E-01 -2.89870969E-01 -4.62360381E-17 -6.66889782E-17 -8.89056457E-02
  2.88277450E-17  2.50135772E-16  3.96844188E-01  5.09482905E-16 -2.64245719E-16
 -8.92949571E-16 -1.19605215E+00 -8.49471962E-16 -3.64259518E-16  3.98503162E-16
  6.75529946E-16  5.14051092E-16 -5.27359014E-17  2.78257073E-01 -3.67782317E-16
  6.14493230E-16 -5.40261032E-15 -2.64655786E-01  2.89471635E-15  1.72625092E-15
 -9.45181897E-16  1.72842410E+00 -7.74072918E-16 -5.74409544E-16  1.98108117E-15
 -8.72959738E-16  1.40617134E-15 -9.57944386E-16  1.01096728E-01 -2.16197073E-15
 -3.45549189E-16  7.21015527E-16  3.02009845E-01  1.58536313E-16 -2.21175020E-17
  1.13862282E-15 -7.93201078E-01  2.13207873E-16  1.16840019E-15 -1.99138724E-16
 -1.43352593E-15  2.37082226E-17  1.38550940E-01 -1.06153617E-01 -2.49018260E-16
  7.61842587E-16 -1.07855771E-15  3.02009845E-01 -9.09070221E-16 -3.28296014E-16
 -2.90045605E-16 -7.93201078E-01  3.65684623E-15  2.43086124E-15  5.67942501E-17
  2.62315635E-15  1.94295637E-15 -1.38550940E-01 -1.06153617E-01  2.24741008E-15
 -1.57589345E-01  1.00731101E-01 -1.10784460E-15  1.21570280E-15  1.44331246E-02
  4.82326132E-01  2.28063017E-15 -8.80925766E-15  1.17737231E-01 -5.81165159E-01
 -5.22380030E-01 -3.62351061E-01 -1.70060054E-16 -9.51646223E-17  6.29257127E-15
 -1.17702593E-01 -1.13157018E+00  9.53690534E-16 -1.52679260E-14  8.05151791E-01
  1.38124446E+00 -3.06436427E-15  1.05990776E-14  1.34720433E-01 -2.17337204E-01
 -8.56825411E-01 -2.50255934E-01 -1.97005708E-16  1.68337716E-16  1.62636731E-14
  5.97865198E-03 -1.59472506E-01 -4.20417825E-16  8.19617148E-02 -5.82901427E-02
  1.48501368E-01  1.04753180E-15 -5.29670731E-01  3.92326451E-01 -2.52226611E-01
  3.34834222E-01  1.15066328E-01 -2.44864995E-16  1.23078786E-16 -5.05763238E-01
  5.97865198E-03 -1.59472506E-01 -2.69435357E-16 -8.19617148E-02 -5.82901427E-02
  1.48501368E-01  1.32575067E-15  5.29670731E-01  3.92326451E-01 -2.52226611E-01
  3.34834222E-01  1.15066328E-01  4.08565160E-16  2.97930070E-16  5.05763238E-01
 -2.26959878E-01  2.02220716E-01 -2.65175167E-16 -1.94724237E-17 -4.19051078E-02
  6.67870167E-01 -2.34359994E-15  5.18056198E-15 -2.97371397E-01 -9.07468819E-01
 -9.49764962E-01 -2.21822389E-01  4.04758742E-16  2.79636296E-16 -5.83840297E-15
 -6.09599117E-02  1.84243107E-01 -5.39548920E-16  1.77304802E-14 -9.23656731E-01
  5.87172208E-01  3.51898246E-15 -3.16573642E-15  1.51867104E+00 -2.87439871E-01
  4.58663228E-01 -2.80218657E-01 -1.60182745E-17  4.51646383E-16 -1.77448338E-14
 -7.05645371E-03  1.09815377E-01  4.64131866E-16  1.82832136E-02  2.25538297E-01
  1.96435668E-02 -1.46763589E-15  6.28070570E-02 -7.93009197E-01  1.72253144E-01
 -2.51930941E-02 -2.78675834E-01  3.52368003E-16 -2.16218040E-16  3.43591196E-01
 -7.05645371E-03  1.09815377E-01  3.24027022E-16 -1.82832136E-02  2.25538297E-01
  1.96435668E-02 -1.47724510E-15 -6.28070570E-02 -7.93009197E-01  1.72253144E-01
 -2.51930941E-02 -2.78675834E-01 -4.19020840E-16 -3.61147672E-16 -3.43591196E-01
  7.31147536E-17 -9.31368265E-16 -1.29879607E-15 -8.13496931E-02  2.79782596E-15
 -2.25279383E-15  3.31161958E-15  6.25938514E-01  1.45252501E-14  3.33039178E-15
  4.92259271E-15 -1.29254195E-14 -9.20735071E-16 -6.00245850E-16 -4.12763470E-01
  2.60909516E-16 -1.17074573E-14  8.38235930E-16  1.35939978E+00  3.15388952E-14
  1.34857717E-14 -5.12298510E-15 -6.74136661E-01 -1.97568748E-14  1.23732820E-16
 -1.71667469E-14  6.64516323E-15  2.32671495E-16  7.03010516E-17 -1.19016675E+00
 -4.07174869E-02  1.89075803E-01 -6.67215173E-16 -1.55807313E-01 -3.21115943E-03
 -7.18286100E-02  2.18768767E-15  1.01583800E+00 -4.07159742E-01  1.56023323E-01
 -7.28812483E-01 -1.53727680E-01 -2.93360812E-16  7.43642179E-16  5.58170794E-01
  4.07174869E-02 -1.89075803E-01 -7.53839773E-16 -1.55807313E-01  3.21115943E-03
  7.18286100E-02  2.73119265E-15  1.01583800E+00  4.07159742E-01 -1.56023323E-01
  7.28812483E-01  1.53727680E-01  6.50450271E-16  1.18535347E-16  5.58170794E-01
  1.40145345E-01 -7.89802083E-02 -5.71081501E-16  3.87167786E-15 -3.54760988E-01
  3.26807150E-02 -9.34075148E-16 -1.24590459E-14 -7.33617186E-01  2.81308582E-01
  2.07038915E-01  1.24938959E+00  3.63512514E-17  5.34120802E-17  9.23619553E-16
 -1.84691790E-01 -4.70737859E-01 -3.31492597E-16  7.44256188E-15 -1.00605602E+00
  1.31997927E+00  1.11276394E-15  2.37821017E-14 -1.22184006E+00 -4.66538380E-01
  1.18954199E-01 -8.67935929E-01 -1.95036434E-16  1.02913813E-15 -6.79870091E-15
 -1.17226924E-01 -9.07023161E-03 -4.70534133E-17 -9.70280563E-02 -2.67823029E-02
  2.33649217E-01 -6.44278431E-16  5.34033422E-01 -6.91739564E-02 -5.15620321E-01
 -5.14724256E-01 -5.02141558E-01  1.59129395E-16 -1.58220349E-16  2.71809095E-02
 -1.17226924E-01 -9.07023161E-03  5.25617240E-16  9.70280563E-02 -2.67823029E-02
  2.33649217E-01 -5.37446481E-16 -5.34033422E-01 -6.91739564E-02 -5.15620321E-01
 -5.14724256E-01 -5.02141558E-01 -8.49347446E-17 -5.62022977E-17 -2.71809095E-02
  1.04302590E-16 -1.23506160E-15 -1.36984985E-15  3.05603956E-01  1.13318805E-15
 -1.07127844E-15  1.36351976E-15 -1.17492653E+00 -1.75606941E-15  1.07694141E-15
  9.46545087E-16 -1.47600958E-15 -1.59488576E-16  1.28403885E-15  2.40767524E-01
  1.42390542E-15  7.37024764E-16  5.95793259E-16  2.41022909E-01  6.88784753E-15
 -3.11891613E-14 -2.26852029E-15  2.28998288E+00  1.61807992E-14  8.41423915E-15
 -5.52942537E-15  8.83123856E-16  2.51314860E-16  1.76636967E-15 -2.54682402E-01
 -1.41544551E-01 -2.14490722E-02  7.95867141E-16  6.11492360E-02  1.40785706E-01
  2.19877165E-01  2.04019268E-16  1.29017230E-01 -7.11438573E-01 -6.28009713E-01
 -5.54931944E-01 -7.34101657E-01 -5.91321853E-16  2.33606540E-16  1.26060071E-01
  1.41544551E-01  2.14490722E-02 -5.53182733E-16  6.11492360E-02 -1.40785706E-01
 -2.19877165E-01  2.20178096E-15  1.29017230E-01  7.11438573E-01  6.28009713E-01
  5.54931944E-01  7.34101657E-01  5.32611466E-16  9.93830021E-17  1.26060071E-01
  1.49473523E-01 -5.84186089E-02 -2.52028266E-15 -2.97836492E-15 -3.38642767E-01
 -4.72316641E-01  3.33034810E-15  1.63270748E-14 -1.20633537E+00  1.59741958E-01
  2.30959930E-01  1.60051870E+00  5.21471285E-16 -7.20447442E-16 -5.66805239E-15
 -3.76506656E-02 -1.28922972E+00  5.92991025E-16  7.32020882E-15 -7.52505969E-01
 -1.06327599E+00 -2.73482015E-15 -2.59966389E-14  8.95520530E-01  4.91353098E-01
 -1.11756703E-01 -1.02498435E+00  1.47820942E-17 -5.25277346E-16 -5.34929327E-15
  1.09851500E-01 -8.02971180E-03 -9.95892396E-17  1.07740265E-01  1.29691582E-02
 -3.08249891E-01  1.19391930E-15 -7.35887511E-01  1.44447710E-01  3.75128067E-01
  8.07852803E-01  4.01036413E-01 -2.05112443E-16  2.17719055E-16 -1.75282874E-01
  1.09851500E-01 -8.02971180E-03 -5.92835324E-16 -1.07740265E-01  1.29691582E-02
 -3.08249891E-01  1.12350294E-15  7.35887511E-01  1.44447710E-01  3.75128067E-01
  8.07852803E-01  4.01036413E-01  2.52290985E-16  5.11933004E-17  1.75282874E-01
  2.02759911E-02  1.45353874E-01  2.06942006E-15 -1.28233014E-16 -2.62552027E-01
 -2.01858504E-03 -4.90995615E-15  1.27719425E-15 -2.39376708E-01  4.52849705E-02
  9.28426598E-02  2.29355155E-01  1.38620171E-16 -9.21115074E-16  2.90833312E-16
 -4.98180524E-01  3.28899759E+00 -6.24089923E-16  9.06898664E-16  1.25596455E-01
 -2.11843725E-02  5.07493483E-15 -3.74432499E-15  1.05209368E-01 -1.56788457E+00
 -2.08380967E+00 -2.22120851E+00 -2.46867509E-16 -5.41411145E-16  1.65435671E-15
  3.37321063E-02  3.17791457E-03 -8.31914924E-17 -4.17798470E-02  3.03339621E-02
 -1.02436578E-01 -1.91570970E-15 -3.93997611E-01  2.52541918E-01  8.64572203E-02
  4.02572205E-01  2.29337728E-01  4.83783628E-16 -1.40202567E-16 -2.18995223E-01
  3.37321063E-02  3.17791457E-03  3.66360179E-16  4.17798470E-02  3.03339621E-02
 -1.02436578E-01 -1.84548545E-15  3.93997611E-01  2.52541918E-01  8.64572203E-02
  4.02572205E-01  2.29337728E-01  4.90856477E-18  8.99848977E-17  2.18995223E-01
 -3.69720293E-01 -1.35619707E+00 -6.87366314E-16 -1.38293903E-13  7.49313522E-02
  8.19593252E+00 -4.52395325E-16  1.13227279E-12 -2.77484185E+00 -1.29682296E+00
 -1.32350525E+00 -5.16195658E-01 -1.12008563E-15  1.77530887E-15 -2.25756867E-13
 -1.05867316E-01 -2.93472991E-01 -1.80328801E-15 -5.14511933E-13 -2.20772389E-01
 -6.53367433E+00  1.49406836E-15 -3.26680693E-12 -1.96284759E+00  2.64852582E-01
 -6.02806892E-01 -5.72132569E-01  1.50844526E-15 -3.39003429E-15  1.42833234E-13
 -2.68172400E-01 -1.30756298E+00  6.24273316E-16  4.72014547E-02 -1.29086367E-01
  4.62345485E+00  5.86869142E-17 -6.98173996E-01  9.71114445E-01 -1.12131368E+00
 -9.68175669E-01 -9.92514163E-01 -1.71710247E-15 -8.81931134E-16 -3.34765276E-01
 -2.68172400E-01 -1.30756298E+00 -1.19301845E-15 -4.72014547E-02 -1.29086367E-01
  4.62345485E+00  2.82093062E-16  6.98173996E-01  9.71114445E-01 -1.12131368E+00
 -9.68175669E-01 -9.92514163E-01 -7.31126436E-16  1.98380245E-16  3.34765276E-01
 -9.30486337E-14 -3.91197138E-13 -3.43710603E-16 -1.53720019E-01  2.48789782E-13
  2.10357533E-12 -7.82566707E-16  1.24725612E+00  2.10678788E-13 -2.75890226E-13
 -1.65674550E-13 -6.25249542E-13 -1.40941279E-15  1.52864577E-15 -2.50553278E-01
  5.36915625E-14 -1.75915049E-13  2.43397206E-16 -5.77553195E-01 -4.92089838E-13
  6.53023821E-12  2.17854278E-15 -3.62931086E+00 -5.19467600E-12 -5.07247214E-13
  8.34863455E-13  9.15355035E-13  2.27236928E-15 -9.84569062E-16  1.65804934E-01
 -5.16719853E-01 -2.48790874E+00  1.80728213E-15  1.67005542E-01 -2.07038394E-01
  8.71070971E+00 -2.26552752E-15 -8.85694884E-01  1.16318362E+00 -2.24434545E+00
 -1.99389185E+00 -1.99124017E+00  2.04515337E-15 -2.12356546E-15 -2.07463379E-01
  5.16719853E-01  2.48790874E+00 -5.20005006E-16  1.67005542E-01  2.07038394E-01
 -8.71070971E+00 -8.43393886E-16 -8.85694884E-01 -1.16318362E+00  2.24434545E+00
  1.99389185E+00  1.99124017E+00  1.02780116E-15  1.11035972E-15 -2.07463379E-01
 -3.43725335E-01 -1.29773885E+00  1.42224408E-16  2.28418738E-13  2.38340113E-01
  7.65164194E+00 -2.72357563E-15 -1.85191584E-12 -1.91266743E+00 -1.16589751E+00
 -1.10666944E+00 -8.44489295E-01  3.31296817E-15 -1.10092318E-15  3.69350852E-13
 -3.83550762E-02 -3.62589418E-01 -1.49101085E-15  8.61261924E-13 -5.20620163E-01
 -1.11591045E-01  4.23050247E-15  5.40196503E-12 -5.26462592E+00 -1.66103258E-01
  1.65948166E-01  2.54201673E-01 -8.90003539E-16 -2.20081967E-15 -2.46065760E-13
  4.07861725E-01  1.98796208E+00 -4.29996529E-16 -2.21194967E-01 -3.10761763E-02
 -7.23889435E+00 -8.09983598E-16  1.44560143E+00  5.46766502E-02  1.67850621E+00
  1.38928139E+00  1.77789664E+00  1.82686047E-15  3.38347277E-15  1.07778056E-01
  4.07861725E-01  1.98796208E+00  3.63963555E-16  2.21194967E-01 -3.10761763E-02
 -7.23889435E+00 -2.28839708E-15 -1.44560143E+00  5.46766502E-02  1.67850621E+00
  1.38928139E+00  1.77789664E+00 -6.93569609E-16 -2.10709005E-15 -1.07778056E-01
Total SCF Density                          R   N=        1830
  2.07895196E+00 -1.82737129E-01  5.09390487E-01 -7.04379639E-17  7.29468297E-16
  5.95805121E-01 -1.08419881E-15 -6.16222697E-15 -2.54273147E-16  7.93540769E-01
 -4.66613737E-02  1.00523156E-01 -4.47887483E-17  8.76494053E-16  6.03319276E-01
 -2.39353990E-01  5.76639588E-01 -4.77371703E-15  4.08314437E-14  2.85136820E-01
  7.68962469E-01  1.07420968E-16  4.13066624E-16  3.84219482E-01  1.20097661E-16
  7.37144855E-16 -2.90032874E-15  2.50691818E-01 -2.20809858E-16 -6.40212314E-15
 -6.90624422E-16  5.03330929E-01 -6.15193197E-15  2.61962092E-14 -1.06601047E-16
  3.19899232E-01 -3.79614105E-02  7.90114103E-02  1.50359831E-15 -1.76324340E-14
  2.97415250E-01  1.55653067E-01  1.42645207E-15 -1.60942645E-14  1.52758811E-01
 -1.36668861E-02 -5.75568499E-03  4.93433853E-16 -4.33060004E-15  7.75718067E-03
 -5.52744165E-03  3.16457731E-16 -3.18129195E-15  3.89314057E-03  3.74849880E-04
 -1.18819929E-02 -9.36316838E-03  6.95525598E-16 -3.93928708E-15  7.65294985E-03
 -1.11605031E-02  4.63171421E-16 -2.91974913E-15  4.10738692E-03  4.65596661E-04
  6.42021375E-04 -9.81317839E-03 -1.08324895E-02  1.58336448E-16 -6.42431288E-16
 -4.35957274E-02 -2.87490066E-02  1.24145194E-17 -1.06108565E-16 -2.06526649E-02
 -2.57785256E-04 -1.46563547E-04  3.70033468E-03  2.17044383E-16  1.07261522E-16
  1.38731865E-16 -9.82715181E-17 -1.05221688E-16  8.32877685E-17  7.33008301E-17
 -4.11141597E-17 -4.58026882E-17 -5.59592430E-18 -7.37938158E-18  5.32910298E-18
  1.01957925E-05  4.81142999E-16 -5.52102961E-17 -3.98022444E-02  3.58246366E-16
 -2.06837090E-16  2.82079811E-16 -2.52998224E-02  2.77363620E-16 -1.98863815E-16
 -4.22597827E-17 -5.45920343E-17 -7.12574371E-18 -8.68828637E-18  2.70526225E-03
 -1.22703938E-15  7.96665735E-16  8.20254967E-17 -3.98859893E-02  5.82052743E-16
 -1.17085441E-15  2.79504815E-17 -2.52090378E-02  9.87127622E-16  1.95014714E-16
  1.65539740E-16  2.61139192E-17  1.38158709E-18 -2.58560916E-17  2.28789065E-03
  1.52509910E-02 -3.29643146E-02  3.72799009E-17  1.95110728E-15  1.20972417E-01
  6.19364528E-03 -2.75264096E-16  2.82300479E-15  5.98054810E-02  2.10988812E-03
  2.73828216E-03 -1.13760628E-02 -5.89179113E-18  7.30314896E-16 -1.32616587E-15
  2.04770141E+00 -1.95498252E-02  4.28772314E-02  2.40821141E-16 -9.84170050E-15
 -2.90688874E-01 -6.49687344E-02 -6.29838744E-16 -4.12847940E-15 -1.36764121E-01
 -3.73043584E-03 -5.41461474E-03  2.68663063E-02  1.49572495E-16  4.47766677E-18
  5.07981025E-16 -7.53628747E-02  3.84394817E-01  2.59138191E-16  2.54881585E-16
  3.64929614E-01  6.46938497E-17 -7.01822896E-17 -4.08561096E-15  2.17703417E-01
 -1.19503566E-15  6.25513751E-16  3.95455764E-16  4.71482583E-16  3.02705524E-16
  9.79197926E-17 -2.65996007E-02  8.23003755E-17  4.70678801E-16  1.58776471E-16
  3.30021845E-01  1.00106928E-17  2.33823062E-15  5.98041008E-16  2.08339476E-01
  1.46005375E-15 -2.68118286E-15  4.56308001E-16  1.26855155E-01  7.39418598E-15
  1.14443259E-15  1.21638614E-15 -8.75849375E-16  3.12392776E-18  1.23831523E-16
 -1.91098673E-02  1.45329096E-15 -8.38497464E-15  8.77463469E-16  3.28855015E-01
 -5.17034818E-02  1.09583320E-01  1.06154864E-15 -3.34536112E-15 -3.78701625E-01
 -6.48597194E-03  4.02617803E-16  2.46108827E-15 -1.68728769E-01 -7.19246551E-03
 -6.74552531E-03  2.36331998E-02  5.62370192E-17  1.32712112E-16 -3.59958508E-16
 -2.73993403E-02  5.98201580E-02  1.07627191E-15  1.79381588E-15  4.21124540E-01
  1.60103842E-02 -5.00409039E-02  1.00567012E-15 -2.31929331E-14 -9.21677573E-02
 -1.08412969E-01  1.01810542E-15 -1.71306241E-14 -4.24415711E-02  2.75147082E-04
  6.30984330E-04  1.04654289E-02  4.46262486E-17 -2.57883572E-17 -1.56884804E-16
 -5.78410892E-02  1.26617067E-01 -2.48284135E-15  3.99750223E-14 -6.71441149E-03
  5.90308463E-02 -1.62592448E-16  1.88322286E-16  1.29901309E-01 -4.52707064E-16
 -4.17147906E-16 -1.69666895E-15  7.45589214E-02 -8.84791273E-16 -1.36114584E-19
  1.54983585E-16  1.70656439E-16  1.90005448E-16  6.21516432E-17 -9.83821471E-03
  7.62016630E-17  4.05741280E-16  8.50133921E-16  1.35207652E-01 -1.74122580E-16
  3.81118312E-16 -1.20385598E-15  5.73931941E-02 -2.76641290E-15  8.54849515E-15
  1.71444833E-15  1.56839493E-01  2.28943862E-14  3.85703590E-15  6.55317391E-16
  9.66923544E-02  1.43720016E-14  9.90972062E-16  9.52807392E-16 -1.01921020E-15
 -1.13995864E-16 -8.98906734E-17 -7.58717223E-03 -1.21849997E-15 -9.30827675E-15
  3.90123121E-15  4.39637503E-02 -1.66546927E-14  4.59581290E-15  1.82159185E-15
  4.50361255E-02  8.78094468E-03 -2.51088177E-02  3.39600786E-15 -2.02754147E-14
  2.76190733E-02 -7.73420371E-02  1.92434184E-15 -1.54987071E-14  2.69926963E-02
  2.40930255E-03  4.27192134E-03  2.00174177E-03 -2.16548268E-17 -3.04635914E-16
  1.73093736E-15  5.71911957E-03 -9.47446861E-03  4.77319427E-15 -2.21075900E-14
 -5.91686595E-03  1.67005852E-02  2.18345985E-15  7.98639425E-15  5.65540647E-02
  5.23976164E-03 -1.11956825E-02  1.90619790E-16  3.20300283E-15  1.33534520E-02
 -6.56169023E-03  1.42037564E-16  1.86806478E-15  5.74155275E-03  2.66810828E-04
  4.33474017E-04 -1.30860088E-03 -1.15993275E-17 -2.33872496E-17 -5.09658276E-17
 -8.61272080E-03 -2.40325239E-02  3.79985611E-16 -1.97099668E-15 -3.05499978E-03
 -6.09167942E-03  1.07107924E-16  1.64341122E-15  6.78665145E-04  1.91017260E-03
  9.09708890E-03 -1.85666159E-02 -5.01312775E-16  1.27626927E-15  3.77615943E-02
 -1.96064749E-02 -1.48962583E-16 -2.74665181E-16  1.97155121E-02  1.13206744E-03
  1.57282855E-03 -1.73616775E-03 -5.47770495E-18  2.34190236E-17 -1.15001564E-16
 -9.13460790E-03 -1.67321314E-02 -9.60209646E-16  4.54625025E-15 -3.23885032E-02
  7.71091653E-04 -4.46739159E-16  4.11728600E-15  1.29640623E-02  1.05801329E-03
  5.80442092E-03 -1.46626113E-02  2.51318456E-02  5.84190150E-17  9.77391264E-16
 -2.03919584E-03  3.93500889E-02  8.71053418E-17  3.43677781E-16 -2.66862857E-03
 -7.20380163E-04 -1.21971860E-03 -9.54783716E-04  4.75116529E-18  6.62811356E-18
 -1.05473178E-18 -1.49496695E-02 -2.94381414E-03 -4.36821357E-16  2.02910530E-15
  9.92172147E-03 -7.77304618E-03 -2.53480812E-16  2.10889223E-15 -1.29896701E-02
 -6.36509336E-05 -3.49729205E-03  4.03036633E-03 -9.75957139E-16  2.30967312E-17
  6.14624104E-16 -1.34180701E-16  4.29469379E-17  2.77886803E-16  2.87982631E-16
  2.01091815E-17 -5.82172744E-18 -6.90974691E-18 -1.70537183E-17 -2.90953749E-17
  1.43487585E-04 -1.79001037E-17 -6.77866056E-18  1.33732941E-17 -1.66106865E-16
 -1.60835176E-16  1.73001175E-16  7.35345815E-17  4.94959336E-17  2.07097169E-16
 -3.30680539E-16 -2.33937245E-16  3.75793900E-18  5.78532261E-17  4.77103307E-17
  2.01933171E-03  7.82556990E-16 -2.09775108E-16  4.26919208E-02  5.63105974E-16
 -2.25411426E-16 -6.02756146E-16  2.92100678E-02  4.07086410E-16  1.05887079E-17
  2.10882155E-17  4.27944645E-17  1.24836256E-18  9.19686109E-18 -2.64048515E-03
 -3.55671766E-17  4.89909435E-16 -2.55587327E-17  1.60052240E-02  3.84341711E-16
  1.75947248E-16  3.72784226E-16  4.00842158E-03 -5.50286709E-17 -9.57190137E-18
 -4.87236618E-18  1.72309439E-17  3.52498188E-17  1.02097565E-16  4.02513579E-03
 -7.75740668E-16 -5.12082345E-16 -2.83240422E-16  6.13444194E-02 -1.76276806E-15
  2.68173547E-16 -9.86476238E-17  3.87489875E-02 -2.27325795E-15 -2.63073650E-16
 -2.79815769E-16  3.04303179E-16 -2.87730697E-17  4.79879739E-17 -1.81971024E-03
 -1.96524647E-15  4.83254219E-17 -6.92642871E-16 -2.00470758E-02  4.37406414E-16
 -5.29776323E-15 -2.84298532E-16  1.58825563E-02  3.00352395E-15  9.86294321E-16
 -9.03765695E-17  4.83366032E-16 -2.49892728E-18  3.65069298E-17  1.10778875E-02
 -7.07637873E-04  1.39471569E-03  2.57548998E-16  2.02864095E-02 -8.22603844E-03
 -3.04780228E-03 -1.23026613E-16  1.18185122E-02 -2.63020994E-03 -3.25408402E-05
 -1.88733463E-04 -1.46581807E-04 -1.39528720E-15  8.88020316E-17 -4.05562107E-05
  5.12551183E-03  1.76764271E-03  4.75543927E-16 -1.25424673E-02  1.08053156E-02
  9.97630441E-03 -1.81983746E-16  7.50729057E-03 -3.17578979E-03  2.86813266E-03
 -3.65630641E-03  1.47172693E-03  1.44347168E-16 -4.74835649E-17  9.52800687E-03
  2.08526350E+00  2.40948273E-03 -3.96665186E-03  5.12797037E-16 -3.48206771E-02
  2.15591828E-02  6.05915516E-03  2.29951161E-17 -1.96566855E-02  7.57203049E-03
  5.91835703E-04  4.74218542E-04 -2.97087229E-04 -2.29143469E-18  1.76353849E-17
 -5.12567444E-04 -1.28135276E-02  3.86428178E-03  8.48413077E-17  4.38861173E-02
 -3.52050672E-02 -2.29059423E-02  3.37171067E-16 -1.65402236E-02  6.98706729E-03
 -6.83561535E-03  9.63577179E-03 -1.76696555E-03  2.59913204E-17  4.34317784E-17
 -2.23885329E-02 -2.13485701E-01  5.64004390E-01 -3.32793015E-16 -3.18786065E-16
 -1.37519784E-01  7.11126331E-17 -4.20053760E-17  2.91804340E-15 -1.21008200E-01
  1.41479484E-16 -1.45224104E-15 -1.63520872E-16 -4.70461562E-16 -1.19219420E-16
  2.16781265E-03  5.11506973E-03 -2.44746340E-17  2.09794914E-16 -3.51026843E-16
  1.11042471E-01  1.13158659E-16  2.46456307E-16 -4.60094738E-15  7.20389181E-02
  1.60595408E-16  2.67706481E-16  3.25686028E-16 -1.97384191E-16 -1.86393547E-16
  3.05080947E-02 -2.84519523E-02 -2.42328126E-16 -4.34812649E-16 -6.15230013E-16
  8.50690853E-01 -1.57089887E-04  8.36892916E-03 -7.16318376E-17  4.82867099E-02
 -3.01241456E-02 -6.95815773E-02  2.00454369E-16  2.35906852E-02  8.82340505E-03
  9.53881583E-04  4.39621109E-03  2.57358696E-03 -4.02482723E-16  1.43508126E-16
  5.74380720E-03  7.13534254E-02 -1.63135309E-01 -2.15075232E-16 -1.98302604E-01
  1.92071200E-01 -4.85092596E-02  1.40467778E-16  6.68160453E-02  7.56415182E-02
  9.09848913E-03  8.23248019E-03 -1.04485059E-02 -2.31913754E-17 -1.41315114E-16
  4.58015260E-02 -2.79840249E-02  4.40810051E-02  1.21257292E-16  7.39713932E-01
  1.77821026E-02 -2.36080517E-02  1.89516229E-16 -1.21198866E-01  8.02481899E-02
 -1.52353891E-01  2.75062174E-16 -9.21376889E-02  7.30610493E-02  5.93100235E-03
  9.36753466E-03  6.80805391E-03 -2.12434771E-16 -6.72713237E-17  8.86478718E-04
 -4.68998510E-02  1.08399987E-01 -7.98367984E-17  1.83211334E-01 -1.03993143E-01
  9.04279389E-02  2.43716539E-16  3.45469061E-02  1.33558237E-01 -6.33643851E-03
  3.22215481E-02 -3.29036020E-02  2.03193980E-16 -6.85269888E-17 -2.03495366E-02
  1.95355540E-02 -3.23099750E-02 -8.36292283E-17  1.17028857E-01  8.18313965E-01
 -3.02949552E-03  8.63386767E-03 -5.50336752E-16 -1.41303233E-01  2.94500607E-02
  6.45907707E-03 -6.88493960E-16 -8.45389348E-02  1.79588159E-02  8.11517094E-04
  1.62108106E-03 -1.45768019E-03  3.52370489E-17  2.49478803E-17  6.70261847E-03
  1.33235107E-02 -6.59056668E-02  3.49840942E-16 -4.94635913E-02  2.22048825E-02
 -4.63271613E-02  5.90060054E-16 -4.53515366E-02  2.55762739E-02 -2.80634714E-03
  1.15256512E-02 -3.26126650E-03  1.56586704E-16 -2.13102205E-16 -2.41524325E-02
 -2.26109314E-01  5.66130206E-01  3.19874172E-15  1.49047995E-01 -9.39744385E-02
  6.31838045E-01  3.68397517E-16 -2.67416693E-16 -1.12597093E-01  3.17576051E-16
  7.29262623E-16  2.30588797E-15 -9.37066259E-02  3.48260188E-16 -6.40491208E-16
 -1.24235621E-16 -3.35169910E-16 -1.52198067E-16  1.50038722E-03  4.86465489E-03
 -3.77152485E-17 -9.66028386E-17 -5.98662702E-16  5.84709666E-02  1.68750055E-16
 -4.20606486E-16 -3.02610947E-15  4.20309870E-02 -9.25387848E-17  2.57542556E-17
  2.25073219E-16 -1.37106483E-18 -1.27524257E-16  2.11152728E-02 -2.02052829E-02
 -1.07337466E-16  1.79385992E-18 -6.14758052E-16  5.78653232E-01  4.36869488E-17
  3.50705685E-16  1.95440874E-15  3.94556573E-01  2.30363560E-03  1.56038007E-04
 -3.11100099E-16  5.09443979E-02 -1.09293089E-02 -4.52296031E-02  6.15341458E-17
  2.70596918E-02  8.39121446E-03  7.69823049E-04  2.84312212E-03  1.21710619E-03
 -2.69278792E-16  1.32835005E-16  2.22981126E-03  4.55100666E-02 -9.67369867E-02
 -1.00161729E-15 -1.05783204E-01  1.04572903E-01 -2.78444827E-02 -3.43969732E-16
  4.92477162E-02  4.61118651E-02  5.34560799E-03  5.85571373E-03 -6.78786898E-03
  1.47301296E-17 -2.49281318E-17  2.93487406E-02 -1.79244148E-02  3.32227261E-02
 -7.49361363E-16  4.56872105E-01  9.56509472E-02  8.73381228E-02 -4.66097223E-16
  2.84859060E-01  9.40755999E-03 -9.08300345E-03 -3.81328659E-16 -1.09027388E-01
  4.70122415E-02 -9.53505227E-02 -7.15500435E-17 -7.87003785E-02  4.60409045E-02
  3.70560964E-03  6.01500510E-03  4.62068712E-03 -1.27233767E-16 -1.27681433E-17
  2.51273602E-03 -3.02332049E-02  6.41890046E-02 -8.14065943E-16  9.74580054E-02
 -5.36313231E-02  5.58426887E-02 -1.66060632E-16  1.57353011E-02  8.82001728E-02
 -3.76722029E-03  2.04077127E-02 -2.11407641E-02  2.04587130E-16 -6.72797145E-17
 -1.38929795E-02  1.24061707E-02 -2.42605643E-02  3.53383619E-16  9.41887703E-02
  5.21060797E-01 -5.25827488E-02  5.37050096E-16  7.11873351E-02  3.34219752E-01
  3.85742709E-04 -7.40610776E-04  2.53352752E-16  4.71691663E-03  1.30378873E-03
  5.92410132E-04  1.76960731E-16  2.90234023E-03  2.44376548E-04  9.93403973E-06
 -2.81697834E-05 -8.17289862E-05  7.12312747E-18 -1.22878739E-17 -3.23161541E-04
  1.13649962E-04  1.42530240E-03  3.80253437E-17  4.02711913E-03 -3.37395540E-03
  1.99839207E-05  3.55617807E-19  1.26805113E-03 -7.89942218E-04 -1.95718962E-04
  1.13602970E-04  6.55501383E-05 -2.81831007E-17  3.33725615E-17 -7.41625800E-05
 -1.99180801E-02  8.76487362E-03 -6.68573898E-16 -1.82025403E-03  1.12580800E-03
  6.42393005E-03 -4.64429289E-16 -5.61516811E-04  2.11832098E-04  3.81955224E-04
  9.23460599E-05  5.03867657E-05  4.50433220E-16  6.73172265E-03 -1.02077496E-03
  4.83358183E-03  2.43300590E-16  4.54417113E-03 -2.27931578E-03 -1.14843879E-04
 -3.94388141E-04  1.42535916E-04  2.65618853E-17 -3.55942420E-17 -6.93659656E-04
 -8.64451283E-03  1.66958986E-02  3.31811462E-16  1.09365148E-02 -1.40422046E-02
  4.25199807E-03  1.47147809E-16 -7.79685557E-04 -5.58081591E-03 -1.17468815E-03
 -5.37423209E-04  7.27749761E-04 -2.96862787E-17  3.41529936E-17 -1.47847668E-03
 -2.20850206E-02  1.30254416E-02 -3.30246391E-16 -3.67207826E-02 -7.03177352E-03
  3.80551856E-03 -2.53870117E-16 -2.18019283E-02 -6.20502469E-03  6.52072192E-04
  2.93819945E-03  3.53640245E-06  4.31511808E-05 -2.41809597E-18  7.81401512E-03
 -3.28065684E-03 -4.54430855E-03  1.93478080E-17  4.27528441E-03 -8.31821028E-04
  6.95662375E-05  1.19073946E-04  6.31757706E-04  5.54109031E-19  1.11919411E-17
 -6.65744324E-04 -3.87655729E-03  8.69797872E-03 -2.09093159E-16  1.27274199E-02
 -1.28552653E-03  3.55126041E-03 -8.74941460E-17  4.21582915E-03  2.90890416E-03
 -6.63074451E-04  5.93384462E-04 -7.92867243E-04 -1.53219767E-18  2.63646311E-17
 -2.17431295E-04 -2.05451031E-02  9.80913216E-03 -4.47251754E-16  4.52749639E-03
  2.70712168E-02  4.11361170E-03 -2.93196389E-16  4.35044625E-03  1.64903358E-02
  5.07550690E-04  5.20247557E-04  1.65280058E-03 -6.38084079E-16 -9.07624330E-17
 -2.09571313E-04 -2.91013532E-16 -2.36625820E-16 -1.24380893E-16  1.28639956E-03
 -1.57034725E-16 -9.63239060E-17  2.35877848E-19  8.13626688E-18  1.48499060E-17
 -6.69877421E-05  1.93064277E-04  1.55192676E-17 -2.03766869E-17  5.15910502E-17
 -8.71577273E-03 -1.66598317E-16  1.22705187E-16  1.99177131E-16 -4.53224829E-03
 -1.60454910E-16 -1.62293537E-16 -2.01826515E-17  3.18798918E-18  2.99047613E-17
 -9.42732933E-04  8.02860477E-04  4.51034024E-18  1.66682040E-16  1.13983159E-16
 -2.99394451E-02 -4.26042623E-17 -2.89508384E-16  4.09796951E-17 -2.00934272E-02
  2.91840110E-19 -1.69606283E-16  1.85760031E-17  5.58301740E-18  6.49241306E-18
  1.13260062E-03  6.73537095E-16 -2.73757341E-17  3.31147487E-03  1.36467245E-16
 -8.93345368E-17 -5.69316242E-17  1.34842657E-03  9.10021618E-17 -6.14710594E-17
 -4.53717431E-18 -9.38906232E-18  1.00354786E-18  5.62726146E-05 -3.20361473E-04
 -8.63989854E-18 -4.56134726E-17  4.29196747E-17  6.78281044E-03  8.04106359E-17
  5.84656388E-17 -7.55414028E-17  3.20603270E-03  1.09157915E-17  4.81697777E-17
  8.28066272E-18 -1.00157379E-17 -8.04895010E-18  7.91936635E-04 -2.15547921E-04
 -9.87973311E-18  1.71017277E-16 -3.27905519E-17  1.99176899E-02 -1.54257718E-16
 -8.52042587E-17  3.86732755E-17  1.33441763E-02 -1.22402116E-16 -5.42345188E-17
 -1.60250790E-17  1.49400045E-18 -1.48232782E-17 -7.54244894E-04  5.41238205E-04
  9.86571733E-05 -6.55392347E-04 -6.70174905E-17  2.13789493E-03  5.48635079E-03
  4.88850923E-03 -2.28912609E-17  1.54556957E-03  1.87082127E-03 -4.42941588E-05
 -5.92341908E-05 -8.86363907E-04 -6.90590736E-18  7.32817654E-18  1.75866171E-04
  7.79241113E-03 -1.43095294E-02 -4.62455308E-17 -8.48839769E-03  2.64945959E-03
 -5.84762873E-03 -4.21280494E-17  2.38851453E-04 -2.66184923E-03  9.23550779E-04
 -4.27966384E-04  8.22168279E-04 -6.03303931E-18 -4.61357009E-18  1.35177324E-03
  2.44109114E-03 -4.72984484E-03 -5.29854017E-17  1.11024697E-02 -2.03332815E-02
 -3.76162115E-04 -3.52890763E-17  6.22867482E-03 -1.25162270E-02 -1.70821389E-04
 -8.64587331E-04 -9.16738966E-04  7.42401180E-18 -4.68008527E-18  1.07891136E-03
 -7.07637873E-04  1.39471569E-03 -4.36974372E-18 -2.02864095E-02 -8.22603844E-03
 -3.04780228E-03 -4.95594175E-16 -1.18185122E-02 -2.63020994E-03 -3.25408402E-05
 -1.88733463E-04 -1.46581807E-04  9.96160770E-16  5.72317695E-16  4.05562107E-05
  5.12551183E-03  1.76764271E-03 -4.11331167E-17  1.25424673E-02  1.08053156E-02
  9.97630441E-03  3.42780486E-16 -7.50729057E-03 -3.17578979E-03  2.86813266E-03
 -3.65630641E-03  1.47172693E-03  3.86624050E-16  3.59503464E-16 -9.52800687E-03
 -1.41603470E-03  3.65786982E-03  5.09149315E-16 -1.99489313E-02 -4.60601225E-03
  1.31196703E-03 -5.41947240E-16 -1.16162453E-02 -3.50664111E-03  1.24302845E-04
  2.62823243E-04 -7.57669771E-04  3.34042628E-18 -3.88891676E-16  1.49949985E-04
  2.08526350E+00  2.40948273E-03 -3.96665186E-03 -1.54685407E-15  3.48206771E-02
  2.15591828E-02  6.05915516E-03 -1.29316140E-15  1.96566855E-02  7.57203049E-03
  5.91835703E-04  4.74218542E-04 -2.97087229E-04  1.58606320E-17  1.27037926E-16
  5.12567444E-04 -1.28135276E-02  3.86428178E-03 -3.28445511E-15 -4.38861173E-02
 -3.52050672E-02 -2.29059423E-02 -3.19104927E-16  1.65402236E-02  6.98706729E-03
 -6.83561535E-03  9.63577179E-03 -1.76696555E-03 -7.97858731E-17  3.60306276E-18
  2.23885329E-02  3.65786982E-03 -8.15443453E-03 -1.09968014E-15  3.76160441E-02
 -8.96627365E-04 -3.77196815E-03 -5.87118727E-16  2.16933031E-02  4.12809416E-04
  4.00338445E-05 -4.90341726E-04  1.21046185E-03  1.77605782E-16 -3.09478284E-17
 -8.11421001E-05 -2.13485701E-01  5.64004390E-01  3.00402005E-16  8.30802178E-17
 -1.37519784E-01 -1.10431570E-16 -1.15970021E-15 -4.36940264E-15 -1.21008200E-01
 -3.29974564E-15 -7.93005963E-16  2.55324879E-16  2.89884189E-16  8.67936931E-16
 -2.16781265E-03  5.11506973E-03  1.33692385E-16  4.73956003E-17  4.49121917E-16
  1.11042471E-01  1.92825333E-15  2.17065887E-15 -7.39053446E-15  7.20389181E-02
  9.41249857E-15  7.95996582E-15  5.22120930E-16 -2.05960773E-15 -1.49973136E-15
 -3.05080947E-02 -2.84519523E-02 -1.65426870E-15  2.60047759E-16 -1.42716505E-17
 -7.11426777E-02 -3.73677013E-16 -1.91411918E-16  1.34472735E-16 -5.93665032E-02
 -1.89602627E-15 -1.91335105E-15  1.30045341E-16  3.11515932E-16 -2.66988580E-16
 -1.45379770E-03 -4.01149196E-03  4.25816920E-17 -1.02273344E-15 -5.65331365E-15
  8.50690853E-01  1.57089887E-04 -8.36892916E-03 -3.07390638E-16  4.82867099E-02
  3.01241456E-02  6.95815773E-02 -7.83538884E-16  2.35906852E-02 -8.82340505E-03
 -9.53881583E-04 -4.39621109E-03 -2.57358696E-03 -3.24207246E-16 -4.76400588E-17
  5.74380720E-03 -7.13534254E-02  1.63135309E-01 -1.22854159E-17 -1.98302604E-01
 -1.92071200E-01  4.85092596E-02  7.05792418E-16  6.68160453E-02 -7.56415182E-02
 -9.09848913E-03 -8.23248019E-03  1.04485059E-02 -3.53220457E-16 -3.99902887E-16
  4.58015260E-02  1.99489313E-02 -3.76160441E-02 -3.97654572E-16  1.54797074E-01
  4.63904648E-04 -1.13997274E-01 -3.76110052E-16  1.15836439E-01 -6.37885385E-03
  3.57000079E-03  7.21084964E-03  4.71864019E-03 -1.83657687E-17 -1.97086988E-16
  1.94149150E-03  2.79840249E-02 -4.40810051E-02  1.50961318E-16  7.39713932E-01
  1.77821026E-02 -2.36080517E-02 -5.62925056E-16  1.21198866E-01  8.02481899E-02
 -1.52353891E-01  3.55995857E-17  9.21376889E-02  7.30610493E-02  5.93100235E-03
  9.36753466E-03  6.80805391E-03  2.95990655E-16 -1.64887614E-16 -8.86478718E-04
 -4.68998510E-02  1.08399987E-01  7.21456992E-17 -1.83211334E-01 -1.03993143E-01
  9.04279389E-02  3.66818565E-16 -3.45469061E-02  1.33558237E-01 -6.33643851E-03
  3.22215481E-02 -3.29036020E-02 -2.60372301E-16 -1.34279603E-16  2.03495366E-02
 -4.60601225E-03 -8.96627365E-04  8.62752819E-18 -4.63904648E-04 -1.23703716E-02
  6.49066776E-02  3.63359416E-16 -1.67990311E-02 -2.00440742E-03 -3.48660657E-03
 -9.40540951E-04 -7.07112820E-03 -1.39905438E-16  1.42563670E-16 -4.83937948E-03
  1.95355540E-02 -3.23099750E-02  1.11254812E-16 -1.17028857E-01  8.18313965E-01
 -3.02949552E-03  8.63386767E-03  5.78066230E-15  1.41303233E-01  2.94500607E-02
  6.45907707E-03  1.97852048E-15  8.45389348E-02  1.79588159E-02  8.11517094E-04
  1.62108106E-03 -1.45768019E-03 -1.06233230E-16 -4.70296402E-16 -6.70261847E-03
  1.33235107E-02 -6.59056668E-02  1.12087895E-14  4.94635913E-02  2.22048825E-02
 -4.63271613E-02  6.23028314E-15  4.53515366E-02  2.55762739E-02 -2.80634714E-03
  1.15256512E-02 -3.26126650E-03 -7.85387690E-16 -2.74776520E-16  2.41524325E-02
  1.31196703E-03 -3.77196815E-03  3.52864763E-15  1.13997274E-01  6.49066776E-02
 -2.83493407E-03  1.75404025E-15  7.28221109E-02  3.96990847E-02  4.83295602E-04
 -5.88250806E-03  5.17737315E-03 -3.28652346E-16  1.56002086E-16  4.45681779E-04
 -2.26109314E-01  5.66130206E-01  2.33055556E-14 -1.49047995E-01 -9.39744385E-02
  6.31838045E-01  1.66863096E-17  2.13435847E-16 -1.12597093E-01  5.47955386E-16
  5.64071115E-18 -2.33137759E-15 -9.37066259E-02 -1.81369030E-15 -1.76403536E-16
  1.63395331E-16  1.86348177E-16  5.10138462E-16 -1.50038722E-03  4.86465489E-03
  4.11345395E-17 -3.24903864E-17 -5.23226935E-16  5.84709666E-02  1.90977093E-15
  1.24418074E-15 -5.19767294E-15  4.20309870E-02  6.38070202E-15  5.21894710E-15
  3.89204063E-16 -1.33175411E-15 -9.85793117E-16 -2.11152728E-02 -2.02052829E-02
 -1.11421840E-15 -2.02301718E-16 -1.21385655E-16 -5.93665032E-02 -3.33717502E-16
 -7.80184119E-17 -1.11377102E-16 -4.70298615E-02 -1.27387900E-15 -1.27541236E-15
  9.75352343E-17  1.89365327E-16 -1.64910026E-16 -3.77931286E-04 -3.21769708E-03
  4.86424942E-17 -5.66171672E-16 -3.98456990E-15  5.78653232E-01 -4.92136674E-16
 -3.62490706E-16  1.54435377E-14  3.94556573E-01 -2.30363560E-03 -1.56038007E-04
  1.57138834E-15  5.09443979E-02  1.09293089E-02  4.52296031E-02  2.95549071E-16
  2.70596918E-02 -8.39121446E-03 -7.69823049E-04 -2.84312212E-03 -1.21710619E-03
 -2.33745170E-16 -1.70645719E-16  2.22981126E-03 -4.55100666E-02  9.67369867E-02
  3.30230996E-15 -1.05783204E-01 -1.04572903E-01  2.78444827E-02  1.94666838E-15
  4.92477162E-02 -4.61118651E-02 -5.34560799E-03 -5.85571373E-03  6.78786898E-03
 -3.59441562E-16 -3.11159376E-16  2.93487406E-02  1.16162453E-02 -2.16933031E-02
  1.08448905E-15  1.15836439E-01  1.67990311E-02 -7.28221109E-02  4.73510155E-16
  8.55413482E-02  5.88030039E-03  2.43982570E-03  3.65301044E-03  4.16060023E-03
 -1.31414022E-16 -7.67604745E-17  1.13599236E-03  1.79244148E-02 -3.32227261E-02
  6.19457904E-15  4.56872105E-01 -9.56509472E-02 -8.73381228E-02  3.74813241E-15
  2.84859060E-01  9.40755999E-03 -9.08300345E-03  6.04314163E-16  1.09027388E-01
  4.70122415E-02 -9.53505227E-02  4.50788617E-16  7.87003785E-02  4.60409045E-02
  3.70560964E-03  6.01500510E-03  4.62068712E-03  1.78351745E-16 -1.76533263E-16
 -2.51273602E-03 -3.02332049E-02  6.41890046E-02  2.01432204E-15 -9.74580054E-02
 -5.36313231E-02  5.58426887E-02  1.10894710E-15 -1.57353011E-02  8.82001728E-02
 -3.76722029E-03  2.04077127E-02 -2.11407641E-02 -2.62753338E-16 -1.11635352E-16
  1.38929795E-02 -3.50664111E-03  4.12809416E-04  6.55759705E-16  6.37885385E-03
 -2.00440742E-03  3.96990847E-02  5.65380799E-16 -5.88030039E-03  1.46263518E-03
 -2.08745799E-03 -9.77877431E-04 -3.78387698E-03 -1.65019242E-16  1.22883923E-16
 -3.19865045E-03  1.24061707E-02 -2.42605643E-02  4.05689005E-15 -9.41887703E-02
  5.21060797E-01 -5.25827488E-02  2.45419181E-15 -7.11873351E-02  3.34219752E-01
  3.85742709E-04 -7.40610776E-04 -1.21512226E-15 -4.71691663E-03  1.30378873E-03
  5.92410132E-04 -5.50943874E-16 -2.90234023E-03  2.44376548E-04  9.93403973E-06
 -2.81697834E-05 -8.17289862E-05  2.30992328E-18  1.02371161E-16  3.23161541E-04
  1.13649962E-04  1.42530240E-03 -2.21247660E-15 -4.02711913E-03 -3.37395540E-03
  1.99839207E-05 -1.01187842E-15 -1.26805113E-03 -7.89942218E-04 -1.95718962E-04
  1.13602970E-04  6.55501383E-05  9.76008912E-17  4.27878549E-17  7.41625800E-05
  1.24302845E-04  4.00338445E-05 -8.02440917E-16 -3.57000079E-03 -3.48660657E-03
  4.83295602E-04 -4.08607166E-16 -2.43982570E-03 -2.08745799E-03 -2.15276403E-05
  2.17588366E-04 -1.97521434E-04  7.30941632E-17 -2.73777925E-17  1.46588898E-05
 -1.99180801E-02  8.76487362E-03 -4.01454406E-15  1.82025403E-03  1.12580800E-03
  6.42393005E-03 -2.65121228E-15  5.61516811E-04  2.11832098E-04  3.81955224E-04
  9.23460599E-05  5.03867657E-05 -4.71110468E-16 -6.73172265E-03 -1.02077496E-03
  4.83358183E-03 -2.33915686E-16 -4.54417113E-03 -2.27931578E-03 -1.14843879E-04
 -3.94388141E-04  1.42535916E-04 -9.27794989E-18  3.18544416E-17  6.93659656E-04
 -8.64451283E-03  1.66958986E-02 -1.08465545E-15 -1.09365148E-02 -1.40422046E-02
  4.25199807E-03 -4.41100606E-16  7.79685557E-04 -5.58081591E-03 -1.17468815E-03
 -5.37423209E-04  7.27749761E-04  4.72525662E-17  1.13332372E-17  1.47847668E-03
  2.62823243E-04 -4.90341726E-04 -2.39976419E-16 -7.21084964E-03 -9.40540951E-04
 -5.88250806E-03 -1.00650831E-16 -3.65301044E-03 -9.77877431E-04  2.17588366E-04
  1.26276105E-03  2.10658705E-04  3.57818566E-17 -1.31263927E-17 -3.03760672E-04
 -2.20850206E-02  1.30254416E-02 -2.47612555E-15  3.67207826E-02 -7.03177352E-03
  3.80551856E-03 -1.69972463E-15  2.18019283E-02 -6.20502469E-03  6.52072192E-04
  2.93819945E-03  3.53640245E-06  4.31511808E-05 -9.76224715E-16 -7.81401512E-03
 -3.28065684E-03 -4.54430855E-03 -4.54862368E-16 -4.27528441E-03 -8.31821028E-04
  6.95662375E-05  1.19073946E-04  6.31757706E-04  1.61005129E-17  7.13644707E-17
  6.65744324E-04 -3.87655729E-03  8.69797872E-03 -1.72075533E-15 -1.27274199E-02
 -1.28552653E-03  3.55126041E-03 -7.55073389E-16 -4.21582915E-03  2.90890416E-03
 -6.63074451E-04  5.93384462E-04 -7.92867243E-04  7.83422221E-17  2.05956783E-17
  2.17431295E-04 -7.57669771E-04  1.21046185E-03 -3.98623442E-16 -4.71864019E-03
 -7.07112820E-03  5.17737315E-03 -1.62562500E-16 -4.16060023E-03 -3.78387698E-03
 -1.97521434E-04  2.10658705E-04 -5.58384784E-04  5.30834667E-17 -9.71068350E-18
 -1.96968054E-04 -2.05451031E-02  9.80913216E-03 -3.28599150E-15 -4.52749639E-03
  2.70712168E-02  4.11361170E-03 -2.21001771E-15 -4.35044625E-03  1.64903358E-02
  5.07550690E-04  5.20247557E-04  1.65280058E-03 -2.33467068E-16  2.04458190E-16
  2.09571313E-04  3.46048257E-16 -3.73676424E-17  4.07382874E-17 -1.28639956E-03
  9.20242903E-17 -7.89061236E-18  1.12720251E-17  1.24227685E-17  2.67356785E-17
 -6.69877421E-05 -1.93064277E-04 -1.91673070E-17 -1.41250688E-17 -1.75619212E-16
  8.71577273E-03  3.86460196E-16  3.15247666E-16 -4.01171628E-16  4.53224829E-03
  4.31326660E-16  3.20808199E-16  3.25106401E-17 -9.72876143E-17 -3.87220375E-17
 -9.42732933E-04 -8.02860477E-04 -7.23385264E-17 -9.40251921E-17  8.94632340E-17
  1.45379770E-03  2.21183227E-18 -1.02672514E-16  9.24810248E-17  3.77931286E-04
 -6.49253752E-17 -1.47127156E-16  6.20612397E-18  1.14610263E-17 -7.93176167E-18
 -2.52363478E-04  1.48074432E-05  4.64415865E-18  2.35671780E-16 -2.77231424E-16
  2.99394451E-02 -3.84610339E-16 -2.24736247E-16  1.08095847E-15  2.00934272E-02
  4.47731908E-17  5.42125988E-17 -1.77082222E-16 -1.29867644E-16 -1.53978367E-16
  1.13260062E-03 -1.63149485E-16 -7.12328124E-17  3.31147487E-03  9.69655536E-17
 -8.69903218E-17 -2.01168180E-16  1.34842657E-03 -2.12464784E-17 -4.71725000E-17
  1.16521794E-17  1.48815632E-17  2.19488266E-17 -5.62726146E-05 -3.20361473E-04
 -7.32155329E-18 -6.38230355E-17 -1.40164433E-16  6.78281044E-03  2.50552056E-16
  1.70080555E-16 -2.29048646E-16  3.20603270E-03  2.37598800E-16  1.87133407E-16
  2.87053039E-17 -7.08190581E-17 -2.35240081E-17 -7.91936635E-04 -2.15547921E-04
 -6.99790535E-17 -3.34803254E-16 -3.72143586E-17 -4.01149196E-03 -2.64293073E-16
 -2.59936157E-16 -5.29502129E-17 -3.21769708E-03 -2.14521481E-16 -2.25434450E-16
  9.02010082E-18  2.11735289E-17 -1.19224070E-17 -1.48074432E-05 -7.99213892E-05
  5.78256684E-18  5.23703316E-16 -2.56550783E-16  1.99176899E-02 -3.52621410E-16
 -1.70109519E-16  6.09417943E-16  1.33441763E-02 -4.22789665E-17  1.50939313E-17
 -1.20858400E-16 -9.18465006E-17 -1.05582974E-16  7.54244894E-04  5.41238205E-04
 -9.86571733E-05  6.55392347E-04  4.76984649E-16  2.13789493E-03 -5.48635079E-03
 -4.88850923E-03  2.04832995E-16  1.54556957E-03 -1.87082127E-03  4.42941588E-05
  5.92341908E-05  8.86363907E-04  2.00244207E-18 -4.89198027E-17  1.75866171E-04
 -7.79241113E-03  1.43095294E-02  7.78083289E-16 -8.48839769E-03 -2.64945959E-03
  5.84762873E-03  4.08970986E-16  2.38851453E-04  2.66184923E-03 -9.23550779E-04
  4.27966384E-04 -8.22168279E-04 -5.01612289E-17 -2.36563684E-17  1.35177324E-03
 -1.49949985E-04  8.11421001E-05  2.51286407E-16  1.94149150E-03  4.83937948E-03
 -4.45681779E-04  1.23170695E-16  1.13599236E-03  3.19865045E-03 -1.46588898E-05
  3.03760672E-04  1.96968054E-04 -2.46820684E-17  1.22931172E-17 -4.66303201E-04
 -2.44109114E-03  4.72984484E-03  1.28176388E-15  1.11024697E-02  2.03332815E-02
  3.76162115E-04  7.93830824E-16  6.22867482E-03  1.25162270E-02  1.70821389E-04
  8.64587331E-04  9.16738966E-04  3.81872437E-17  2.17508228E-17  1.07891136E-03
Grdnt Energy                               R     -3.130079509933888E+02
Grdnt NVar                                 I                0
Grdnt IGetFC                               I                4
Quartic Cent Dist                          R   N=          10
  1.97521169E-07  4.45795764E-07 -1.06643368E-07 -8.33088479E-08 -1.36047778E-07
  1.30726929E-07  1.11824561E-07  2.94122076E-07  8.33088479E-08 -3.33971203E-08
Sextic Cent Dist                           R   N=          14
  4.85895970E-13  6.72891503E-14 -1.84930040E-12  2.37329559E-12 -2.43873747E-13
 -2.82957252E-12  3.76018712E-13  9.12428948E-14 -4.37040928E-12 -1.38325270E-12
  6.73959940E-12 -1.27155528E-13  1.97326538E-13 -1.16718220E-13
Mulliken Charges                           R   N=           4
 -3.59079491E-01  7.63555598E-01 -2.02238054E-01 -2.02238054E-01
APT Charges                                R   N=           4
 -6.11159696E-01  1.55555190E+00 -4.72196101E-01 -4.72196101E-01
Optimization MaxStp                        I                2
Optimization MaxJob                        I                1
Optimization Job offset                    I                0
Optimization Num results per geometry      I                8
Optimization Num geometry variables        I               12
Optimization Reference Energy              R     -3.130000000000000E+02
Optimization Number of geometries          I   N=           1
           1
Opt point       1 Results for each geome   R   N=           8
 -7.95099339E-03  0.00000000E+00  2.54069380E-06  9.60360840E-07  1.98645422E-06
  9.96271256E-07  0.00000000E+00  0.00000000E+00
Opt point       1 Geometries               R   N=          12
 -1.54114572E-32  4.59425434E-48  2.50065190E+00 -1.66568233E-33  6.17557830E-49
  2.70272410E-01  0.00000000E+00  2.01939157E+00 -1.20149165E+00 -2.47304143E-16
 -2.01939157E+00 -1.20149165E+00
Opt point       1 Gradient at each geome   R   N=          12
  1.40600950E-16  6.07527094E-16 -2.04491135E-06  1.78190019E-15 -7.17990743E-15
  2.54069380E-06  1.58625027E-16 -3.92318551E-07 -2.47891291E-07 -2.08112617E-15
  3.92318579E-07 -2.47891299E-07
ONIOM Charges                              I   N=          16
           0           0           0           0           0           0
           0           0           0           0           0           0
           0           0           0           0
ONIOM Multiplicities                       I   N=          16
           1           0           0           0           0           0
           0           0           0           0           0           0
           0           0           0           0
Atom Layers                                I   N=           4
           1           1           1           1
Atom Modifiers                             I   N=           4
           0           0           0           0
Int Atom Modified Types                    I   N=           4
           0           0           0           0
Atom Modified Types                        C   N=           4
                                                
Link Atoms                                 I   N=           4
           0           0           0           0
Atom Modified MM Charges                   R   N=           4
  0.00000000E+00  0.00000000E+00  0.00000000E+00  0.00000000E+00
Link Distances                             R   N=          16
  0.00000000E+00  0.00000000E+00  0.00000000E+00  0.00000000E+00  0.00000000E+00
  0.00000000E+00  0.00000000E+00  0.00000000E+00  0.00000000E+00  0.00000000E+00
  0.00000000E+00  0.00000000E+00  0.00000000E+00  0.00000000E+00  0.00000000E+00
  0.00000000E+00
Cartesian Gradient                         R   N=          12
  1.40600950E-16  6.07527094E-16 -2.04491135E-06  1.78190019E-15 -7.17990743E-15
  2.54069380E-06  1.58625027E-16 -3.92318551E-07 -2.47891291E-07 -2.08112617E-15
  3.92318579E-07 -2.47891299E-07
Cartesian Force Constants                  R   N=          78
  3.40058869E-02  7.51557837E-17  1.04265354E-01 -1.29201689E-16  5.85295267E-16
  1.00854976E+00 -8.55443714E-02 -8.35779317E-17  2.76315058E-17  2.15206000E-01
 -2.61439821E-16 -1.04332462E-01 -1.23005447E-15 -1.53725485E-15  5.73252972E-01
  7.93494730E-17 -2.60544793E-16 -8.87143888E-01 -1.20059291E-15  3.31876318E-15
  1.22550527E+00  2.57692422E-02  5.87373317E-18  1.10054622E-17 -6.48308141E-02
 -6.30953224E-17 -2.05230514E-16  1.95376275E-02 -2.79342716E-17  3.35537908E-05
  3.78764169E-02 -1.02303692E-16 -2.34460255E-01  1.14525445E-01 -4.74486607E-18
  3.24862102E-01 -7.90610045E-18  5.75528383E-02 -6.07029370E-02 -3.84059087E-17
  1.13248595E-01 -1.69180690E-01  7.49994210E-17 -1.61601647E-01  2.08965292E-01
  2.57692422E-02  4.75365754E-17  1.36721714E-16 -6.48308141E-02  1.47499588E-15
  1.12482942E-15  1.95239443E-02  1.68184957E-16 -4.49972317E-17  1.95376275E-02
  1.64105437E-16  3.35537908E-05 -3.78764169E-02  1.45757975E-15 -2.34460255E-01
 -1.14525445E-01  9.60646742E-17 -9.04354008E-02 -9.19978534E-03 -1.40914603E-15
  3.24862102E-01  7.45365910E-17 -5.75528383E-02 -6.07029370E-02  1.04436942E-15
 -1.13248595E-01 -1.69180690E-01  1.01766847E-16  9.19978534E-03  2.09183350E-02
 -1.04887550E-15  1.61601647E-01  2.08965292E-01
Cartesian 3rd/4th derivatives              R   N=         936
 -7.93762211E-03  5.46412698E-15  6.85919012E-03 -1.14799818E-13  2.82582776E-11
  4.54675319E-02  2.51371618E-03 -2.15381623E-14  1.08556428E-13 -2.21980417E-03
 -1.74038874E-14  8.27041408E-03  1.40397609E-11  5.09701984E-15 -6.80199329E-03
  8.89860591E-14 -2.73293446E-11 -3.54215512E-02 -1.07373308E-13 -1.60594175E-11
  3.56417703E-04  2.71195293E-03  1.00572241E-14 -1.53071021E-14 -1.46955998E-04
 -1.52029109E-14  3.18676162E-14  6.10349765E-03 -1.19593606E-14 -7.56480212E-03
  7.56151824E-03  7.03401623E-15 -7.34210386E-04 -1.10965592E-02  1.94637738E-14
 -3.87851080E-02 -6.27428887E-16  9.96350355E-03 -5.02299036E-03  1.52792339E-14
 -1.59814470E-02  1.75325668E-02 -1.57984057E-14  4.77649223E-03 -7.89011781E-03
  2.71195293E-03  6.01681122E-15  2.15504924E-14 -1.46955994E-04  2.75097785E-14
 -1.34803670E-14 -8.66849456E-03 -1.45384294E-14  1.14660068E-15  6.10349759E-03
  2.38991211E-14 -7.56480212E-03 -7.56151827E-03  9.40712623E-15 -7.34210388E-04
  1.10965593E-02 -1.43180870E-14  4.70841205E-02  1.24145124E-03 -1.89881603E-14
 -3.87851082E-02  2.64411880E-14 -9.96350356E-03 -5.02299036E-03 -1.64623535E-14
  1.59814470E-02  1.75325668E-02 -7.62108417E-16 -1.24145123E-03 -4.61945863E-03
 -9.21672603E-15 -4.77649222E-03 -7.89011764E-03 -1.01896819E-10  5.87894459E-15
 -2.98922403E-11 -2.04273763E-13  4.81690676E-02 -1.22529985E-10 -1.50401209E-12
 -1.19996525E-15  2.33304148E-13  1.14680922E-11 -7.66179541E-16  3.76003023E-13
 -6.78406224E-02  8.56393500E-15  1.41001134E-11  1.67795552E-13 -7.79658508E-02
 -4.81753873E-12 -1.65197659E-13  1.49871611E-02  1.88236513E-11  6.79727536E-03
 -2.07138615E-15 -8.71597528E-15  2.76531415E-03  8.76376933E-15  2.12575119E-15
 -9.56258958E-03 -2.64132068E-14 -2.34517569E-03  9.83577742E-03  3.92358130E-14
 -3.96107735E-02  3.14893449E-02 -7.90174327E-15  4.19559492E-02  2.14925229E-14
  1.48983916E-02 -2.68567024E-02 -3.07569953E-14  2.64267307E-02 -9.47834051E-03
  6.19871119E-15 -3.45428759E-02  3.63350428E-02 -6.79727536E-03 -2.60759320E-15
 -2.03144099E-14 -2.76531415E-03 -1.65615248E-14 -4.72364512E-15  1.61563799E-13
 -4.92086292E-15  3.06576121E-15  9.56258942E-03  2.13004418E-14  2.34517570E-03
  9.83577742E-03 -4.65997827E-14  3.96107735E-02  3.14893449E-02  1.20936008E-15
 -9.51757652E-13 -6.78224643E-03  2.40899809E-14 -4.19559492E-02  1.49856876E-14
  1.48983916E-02  2.68567024E-02 -3.73494944E-14  2.64267307E-02  9.47834051E-03
  3.91512901E-16 -6.78224643E-03 -6.46255196E-13  2.19722938E-14 -3.45428759E-02
 -3.63350427E-02 -1.12706906E-10 -3.35461669E-14 -1.08476872E-10 -1.13433342E-01
 -4.95043685E-13 -7.44015982E-11 -4.70003779E-13  1.73606288E-14  9.82691847E-02
  3.53442842E-11  4.41866702E-15  4.70003779E-13  3.99003437E-13 -5.80906414E-14
  2.64142124E-11  1.19481336E-01  3.59542870E-13  1.10450888E-12 -7.28266587E-02
 -6.35907987E-13  1.39121119E-11  9.40007558E-14 -1.92807137E-03  7.58207877E-03
 -2.82002267E-13  2.75590603E-02 -2.33273384E-02 -9.72437819E-11  3.04662245E-03
  7.55677951E-13  1.46876181E-14  1.56882319E-02 -8.60694420E-13  4.70003779E-14
 -2.21829216E-02 -9.93852366E-11 -3.02399665E-03  3.52502834E-14 -1.90939035E-13
 -1.27212630E-02 -1.88001512E-13  5.64004535E-13  1.61661396E-02  3.76003023E-13
 -9.88182945E-11 -3.89221879E-13  1.92807137E-03  7.58207877E-03  7.99006424E-13
 -2.75590603E-02 -2.33273384E-02  2.82002267E-13  3.44806726E-03 -4.20879970E-04
  9.97818023E-11 -3.04662245E-03  1.06852422E-13  4.99379015E-14 -1.56882319E-02
 -1.46876181E-14 -2.35001889E-14 -3.44806726E-03  3.52502834E-14  3.30471407E-14
  2.21829216E-02  1.93341930E-10 -3.02399665E-03 -2.35001889E-14  3.96565688E-13
 -1.27212630E-02  7.05005668E-14  4.93503968E-13 -4.20879970E-04  7.78443759E-14
  2.58502078E-13  1.61661396E-02  3.29002645E-13  9.84657917E-11 -2.64605370E-02
 -4.85888226E-15 -4.73701939E-03 -2.43519800E-13  2.31661422E-11  2.13122529E-01
  1.00377305E-02  6.43910237E-16  3.73304853E-13 -3.81825496E-02  1.90410980E-15
  1.11848903E-02 -2.63361578E-11  4.05161806E-14  3.09279342E-01  2.43010769E-13
 -2.87117813E-11 -1.72427324E-01 -2.27675782E-13  3.17768692E-11  3.23806331E-01
  8.21140328E-03  1.47563139E-14 -6.21169699E-14  1.40724096E-02  3.29580992E-14
  6.22908424E-15 -2.81577779E-02 -1.42564278E-14 -3.22393540E-03  1.09342052E-02
  8.86002638E-14 -1.60232116E-01  1.19874246E-01 -6.16282802E-14  1.93075351E-01
 -1.92113461E-15  2.02251654E-02 -2.03476024E-02 -5.75079905E-14  1.19558579E-01
 -7.56895036E-02  4.78664469E-14 -1.35296098E-01  9.00560625E-02  8.21140328E-03
 -1.05413418E-14 -6.76680832E-14  1.40724096E-02 -7.53783895E-14 -2.15640710E-14
  5.87396504E-03 -1.27155558E-14  1.15626782E-14 -2.81577779E-02  1.72112003E-14
 -3.22393540E-03 -1.09342052E-02 -1.29760355E-13 -1.60232116E-01 -1.19874246E-01
  1.39138672E-14 -2.96192992E-02 -4.48764696E-03  9.86352872E-14  1.93075351E-01
  2.43016568E-15 -2.02251654E-02 -2.03476024E-02 -8.81210805E-14 -1.19558579E-01
 -7.56895036E-02  8.02143879E-15  4.48764696E-03  5.98104325E-03  7.76694760E-14
  1.35296098E-01  9.00560628E-02 -5.16064149E-11  4.63020582E-15  4.31463469E-11
  1.85610269E-13 -9.48874228E-02 -9.07577297E-11 -9.40007558E-14 -2.18479502E-16
 -2.29195707E-13 -3.96683189E-11 -4.05332253E-15  6.48605215E-12  9.92340490E-02
 -9.19978434E-14 -3.19602570E-11 -1.64496405E-13  8.58585678E-02 -5.28754251E-12
  1.73941661E-13 -4.94392887E-01  2.03746638E-11  3.96881356E-04 -3.20840801E-15
  1.31386507E-14  3.02909809E-02  2.35242950E-14 -2.71712595E-14 -3.06878625E-02
  1.85025639E-14  5.66234867E-03 -2.17331307E-03 -1.53020346E-15 -2.38604137E-01
  2.04267159E-01 -6.99874119E-15  2.32941788E-01 -1.06594548E-14  4.51442748E-03
  2.91994220E-03  4.97478074E-15  1.97579419E-01 -1.39993737E-01  1.31104306E-14
 -1.99686723E-01  1.37073794E-01 -3.96881355E-04 -1.20331830E-15  3.04467870E-14
 -3.02909809E-02  7.25268709E-14  1.77260038E-14 -5.69879582E-13 -9.97361924E-15
 -7.42575651E-15  3.06878623E-02 -1.90794472E-14 -5.66234867E-03 -2.17331306E-03
  9.37465264E-14  2.38604137E-01  2.04267159E-01 -1.33171458E-14  4.17128354E-13
 -2.40712382E-03 -6.13499334E-14 -2.32941789E-01 -1.04544090E-14  4.51442749E-03
 -2.91994220E-03  5.02792651E-14  1.97579419E-01  1.39993737E-01  9.22178253E-16
 -2.40712382E-03  5.28754251E-14 -4.07470343E-14 -1.99686723E-01 -1.37073794E-01
  1.40191256E-01 -7.51864972E-15  1.19846331E-01 -2.34614865E-14 -3.86398226E-12
 -1.36986316E+00 -1.31138366E-01 -2.87990817E-15  4.17745693E-15  8.73226635E-02
 -2.35068565E-15 -1.20049552E-01  4.76166331E-12  3.05564861E-14  4.24589088E-01
  7.56894547E-15  4.32435648E-12  1.35071086E+00  5.89076110E-16  4.18481486E-12
 -1.23493910E+00 -4.52644506E-03  6.03043232E-16  2.37504760E-15  2.19078514E-02
 -1.02127252E-14  9.05410341E-15 -1.53651200E-02 -7.53067591E-16  1.01610452E-04
 -7.00513634E-03 -1.25604223E-14 -1.52269768E-01  1.01890041E-01  4.98401895E-15
  1.48972806E-01 -5.32175688E-16 -1.08832141E-02  9.57614573E-03  9.46705078E-15
  1.11233681E-01 -5.78858831E-02 -9.99288074E-15 -9.76176861E-02  4.35155003E-02
 -4.52644506E-03  9.79551466E-15  1.69089820E-14  2.19078514E-02 -1.79930753E-14
 -1.72121250E-14 -2.01628640E-03  8.32947094E-15  1.05800565E-15 -1.53651200E-02
  1.06224030E-14  1.01610452E-04  7.00513634E-03 -1.51161556E-14 -1.52269768E-01
 -1.01890041E-01  4.62566297E-15  3.19535149E-03 -2.73278122E-03 -1.31910345E-16
  1.48972806E-01  1.64247168E-14  1.08832141E-02  9.57614573E-03 -1.42335838E-14
 -1.11233681E-01 -5.78858831E-02 -1.43627027E-15  2.73278122E-03  4.79423700E-03
 -7.54862667E-16  9.76176861E-02  4.35155004E-02 -1.24711509E-03 -9.22219225E-13
  1.84505253E-03  1.19992116E-12 -1.58498071E-10 -5.48798796E-04  1.49826030E-03
 -3.78665159E-13  1.56942243E-11 -1.51513506E-03 -9.56400658E-13  2.03298429E-03
  8.16453183E-10  5.43494234E-11 -3.67703635E-02 -3.00206620E-13  2.48090096E-10
 -7.63089553E-04  3.37606281E-11 -3.20893375E-09 -7.77061949E-03 -1.25564809E-04
  5.55602250E-13 -2.01661931E-12  8.43700957E-06  1.37593088E-12 -2.69042914E-13
 -3.50373280E-03  1.33854906E-12 -1.93901215E-03  7.86718783E-04  6.74270427E-12
  1.73686932E-02 -9.90997048E-03 -3.25731082E-12  1.08320624E-02 -1.68952808E-12
  1.64331753E-04  6.55938307E-04 -5.47763733E-12 -1.04115032E-02  4.26685549E-03
  2.00159788E-12  9.68521159E-03 -8.13087721E-03 -1.25564854E-04  4.93322773E-13
 -1.51360317E-11  8.43725331E-06 -5.26026859E-11 -3.20620541E-11  3.62086880E-03
 -5.00989336E-12  5.25691183E-12 -3.50371739E-03  8.20731491E-13 -1.93901200E-03
 -7.86718572E-04 -5.92261934E-11  1.73686948E-02  9.90997158E-03  1.13480821E-12
 -2.62617184E-02  5.61960211E-04  5.55422962E-11  1.08320217E-02  6.95845634E-13
 -1.64331826E-04  6.55938916E-04 -4.30419316E-11  1.04115055E-02  4.26685689E-03
  3.81843491E-13 -5.61959952E-04  3.20810323E-03  4.10020793E-11 -9.68521320E-03
 -8.13087504E-03  2.92774367E-03  1.07745658E-12  1.75710676E-02 -3.79389744E-13
 -1.47221961E-10 -8.56429075E-02 -5.73182906E-03 -1.09037179E-13  1.53755008E-11
  1.32224642E-03 -8.47725923E-13 -1.68875654E-02  2.66135834E-10  5.23459750E-11
  2.78151633E-02  5.10203873E-13  2.72869758E-10  1.06503206E-01  3.00581869E-11
 -1.54667038E-09 -1.18783308E-01  1.40204664E-03 -2.90128738E-13  5.83495998E-13
  2.20479110E-03 -1.12087660E-12 -8.61678838E-13 -3.08424008E-03  1.12854298E-13
 -3.41745468E-04  4.88742929E-03  3.91673343E-12 -5.46379937E-03 -1.19056455E-03
  1.21849312E-12  2.34679258E-03  2.66337755E-13  2.39714045E-03 -1.04301519E-02
 -5.01260465E-12  2.09348334E-03  6.14005084E-03  5.22398372E-14 -4.09374413E-03
  5.61563348E-03  1.40204683E-03 -9.30250025E-13 -1.58381126E-11  2.20479122E-03
 -4.82111048E-11 -2.85773876E-11 -5.22626044E-04 -5.43403170E-12  4.78537135E-12
 -3.08420062E-03 -6.19242883E-14 -3.41745570E-04 -4.88742942E-03 -5.46664021E-11
 -5.46379797E-03  1.19056585E-03  1.54274378E-15  3.45873323E-03 -3.96879741E-04
  5.29984262E-11  2.34681518E-03 -4.91119792E-13 -2.39714058E-03 -1.04301519E-02
 -3.94857996E-11 -2.09348210E-03  6.14005253E-03  3.23722152E-13  3.96879337E-04
 -1.32553656E-03  3.86910341E-11  4.09374341E-03  5.61567020E-03  4.53204540E-02
  3.50857033E-13  1.11606673E-02  1.42311491E-12  5.55572078E-11 -2.19945310E-01
 -3.70458906E-02 -6.62635251E-13 -2.87507567E-12  4.12204695E-02  7.64123614E-13
 -8.85970167E-03  2.22567284E-11  2.11348352E-11 -6.95878007E-02 -4.56374928E-12
  5.00326007E-12  2.27264101E-01  2.10348497E-11  1.27333761E-09 -2.73387937E-01
 -4.13727447E-03 -1.83632499E-12 -9.92193947E-13 -2.08729192E-03  7.36791818E-12
 -3.16424784E-12  8.45297856E-03 -3.62113807E-13 -1.15048324E-03  4.60022661E-03
  4.36198101E-12  3.92237536E-02 -2.96680060E-02 -4.36480536E-12 -3.66856545E-02
  1.11662047E-12 -1.16978933E-03 -3.65940727E-03 -5.53644606E-12 -2.70746272E-02
  2.30619189E-02  2.42658467E-12  2.66560980E-02 -1.95188347E-02 -4.13727448E-03
 -7.97545116E-13  1.98982236E-12 -2.08729193E-03 -1.22150027E-11 -1.24204142E-11
 -2.22841956E-03  7.75272497E-13  1.95494480E-12  8.45301796E-03 -2.62900167E-12
 -1.15048311E-03 -4.60022663E-03 -9.71774860E-12  3.92237515E-02  2.96680046E-02
 -4.99155208E-13 -1.38762587E-03  1.58831851E-03  1.10786862E-11 -3.66856594E-02
  1.75638249E-12  1.16978934E-03 -3.65940728E-03 -1.19114996E-11  2.70746257E-02
  2.30619179E-02  2.51652176E-12 -1.58831854E-03  1.16343981E-04  7.25389373E-12
 -2.66560966E-02 -1.95188059E-02 -8.47791701E-03 -2.02981608E-12  5.86008011E-04
 -9.35551390E-12 -1.23322711E-10  4.02607011E-02  2.41607682E-03  4.45006906E-13
  2.67176088E-11 -3.90754852E-02  4.38036409E-13  1.81065015E-03  4.03722834E-10
  4.89676201E-11  2.06162705E-01  8.69779447E-12  1.16499408E-10 -2.53992638E-02
  2.37638920E-11 -2.44612176E-10  7.26989926E-02  3.03092816E-03  8.66335297E-13
 -3.24054287E-12  1.83297036E-02  2.17120100E-12  8.95043649E-13 -2.33877199E-02
 -1.04757938E-15 -1.19833289E-03  3.36126952E-03  9.43526859E-12 -1.03986676E-01
  6.82616674E-02 -3.61016400E-12  1.12338270E-01 -8.87488381E-13  7.67470285E-03
 -7.43072295E-03 -6.16490362E-12  7.21726205E-02 -2.36498644E-02  2.00336522E-12
 -7.57351303E-02  3.00901438E-02  3.03092816E-03  4.66514514E-13 -1.43800575E-11
  1.83297035E-02 -4.94105898E-11 -3.22274058E-11  2.02704791E-03 -6.01000787E-12
  5.14037107E-12 -2.33876386E-02  1.87348792E-12 -1.19833283E-03 -3.36126913E-03
 -5.73606264E-11 -1.03986676E-01 -6.82616678E-02  3.81658229E-13 -7.15329076E-03
 -4.11219303E-03  5.33771228E-11  1.12338303E-01  1.45123990E-12 -7.67470291E-03
 -7.43072182E-03 -4.33813138E-11 -7.21726204E-02 -2.36498654E-02  4.39913152E-13
  4.11219338E-03  9.90444336E-04  4.05279975E-11  7.57351300E-02  3.00901975E-02
  1.07741085E-02 -1.22720838E-12  2.86775266E-02 -1.03241842E-11  1.78556206E-10
 -1.57201434E-01 -8.67619408E-03  5.15172868E-13  2.77815535E-11 -9.31680805E-02
 -4.14326490E-13 -2.79045331E-02 -2.05529395E-10  4.71046837E-11  3.38334786E-01
  9.75830155E-12 -2.16982775E-10  1.50382977E-01  2.21954479E-11 -4.98318250E-11
  1.48535855E-01 -1.04895185E-03  4.81495795E-13 -3.34811992E-12  5.09221368E-02
  2.15443921E-12 -8.62381743E-13 -5.04485806E-02 -5.74178472E-14 -3.86504750E-04
 -4.95827666E-04  9.59272590E-12 -1.55215124E-01  2.10957080E-01 -3.65946375E-12
  1.59367103E-01 -7.54042148E-13 -1.90022040E-03  3.40922089E-03 -7.40659255E-12
  2.05577784E-01 -1.49459414E-01  3.51920479E-12 -2.07069408E-01  1.43837196E-01
 -1.04895212E-03 -2.14196445E-14 -1.43677549E-11  5.09221368E-02 -4.66785287E-11
 -2.99620434E-11  5.75387856E-04 -6.06179515E-12  4.73277420E-12 -5.04485461E-02
  1.97961339E-12 -3.86505088E-04  4.95827677E-04 -5.57253134E-11 -1.55215124E-01
 -2.10957080E-01  8.32559268E-13 -3.76547315E-03  3.39184469E-03  5.11847832E-11
  1.59367118E-01  1.22595688E-12  1.90022042E-03  3.40922205E-03 -4.16351254E-11
 -2.05577783E-01 -1.49459414E-01  7.89076025E-13 -3.39184468E-03  2.21301295E-03
  3.86579293E-11  2.07069408E-01  1.43837235E-01 -2.77151330E-01 -1.14125599E-12
 -2.74359930E-01 -1.97693430E-13 -1.49976855E-10  1.62918431E+00  2.78004137E-01
  8.46015295E-13  1.25923194E-11 -3.18627785E-01 -1.33305364E-14  2.77618025E-01
  1.39157810E-10  4.92226782E-11 -1.07376344E-01 -9.22124056E-13  1.55708381E-10
 -1.65336017E+00  3.75100319E-11 -3.51080126E-11  1.67330964E+00 -4.26395637E-04
 -6.62778821E-13  5.28265065E-13  2.03118189E-02  2.20567804E-12 -3.23415148E-12
 -1.67577339E-02  6.84194119E-13 -1.62904157E-03 -2.56368091E-03  6.85893000E-12
 -8.51208397E-02  4.22389595E-02 -2.62769504E-12  8.20164777E-02 -1.32673605E-13
 -4.31378344E-04  1.20879319E-02 -6.98430830E-12  3.76505946E-02 -9.97473739E-03
  2.13257910E-12 -3.84472475E-02 -8.45552438E-03 -4.26395557E-04  7.06060152E-13
 -1.31813965E-11  2.03118189E-02 -4.92487580E-11 -3.22244320E-11 -3.12769067E-03
 -5.10137993E-12  5.07574710E-12 -1.67577132E-02  7.51053073E-13 -1.62904136E-03
  2.56368104E-03 -5.54403544E-11 -8.51208402E-02 -4.22389598E-02  8.93826353E-13
  4.73340699E-03  1.22803119E-03  5.20671174E-11  8.20164626E-02  1.15852318E-12
  4.31378436E-04  1.20879321E-02 -4.21827595E-11 -3.76505948E-02 -9.97473718E-03
  6.71086463E-13 -1.22803109E-03  6.34235799E-03  3.93909867E-11  3.84472475E-02
 -8.45552996E-03
Dipole Moment                              R   N=           3
  6.32466402E-17 -3.71000520E-16 -4.54425391E-01
Dipole Derivatives                         R   N=          36
 -3.47159451E-01 -6.89650816E-16 -2.49469282E-16 -8.59667357E-18 -5.35146345E-01
 -5.85528889E-16 -4.27312091E-17 -1.39317438E-15 -9.47185012E-01  5.64500793E-01
  2.42203879E-15  1.71379489E-15 -6.55624657E-16  1.98548176E+00  3.25626570E-15
 -4.75187224E-16  8.14306305E-15  2.10806493E+00 -1.08670671E-01 -2.98740734E-16
 -1.69373891E-16 -7.61944008E-17 -7.25167708E-01  3.68802800E-01  3.96988843E-18
  3.45494538E-01 -5.80439960E-01 -1.08670671E-01 -5.56473681E-16 -4.31499526E-16
  3.80376764E-16 -7.25167708E-01 -3.68802800E-01  2.77180986E-16 -3.45494538E-01
 -5.80439960E-01
Polarizability                             R   N=           6
  8.74272718E+00  5.10629533E-17  1.34461910E+01  2.08849670E-16  3.44169138E-15
  1.78694461E+01
Quadrupole Moment                          R   N=           6
  1.55916563E+00  1.96477910E-02 -1.57881342E+00 -1.15326352E-16 -7.06838007E-17
 -3.21542852E-16
NDeriv for static properties               I                6
ND12 for static properties                 I               -2
Dipole Moment num derivs                   R   N=          36
  1.93060381E-16  1.02012231E-12 -6.91493540E-02  6.01181645E-16 -8.84623872E-02
 -7.02108579E-13  1.84408669E-01  3.38645056E-15  2.62442609E-15  1.43690932E-15
 -1.80188802E-13 -2.20899823E-01 -8.58140713E-16  6.37064211E-01 -4.61196079E-14
  2.47378953E-16 -1.44461479E-16 -6.50096876E-01  4.88794198E-15 -8.39606472E-12
  2.00948317E-02 -4.79297997E-15 -3.89000081E-13 -1.22168232E-02  1.67105358E-13
  1.66285582E-15  4.21981771E-02  1.07937113E-14  1.66559104E-11 -1.87844818E-02
  7.76717868E-15  2.78070992E-13  7.63922631E-03 -4.42185533E-15 -1.00525948E-13
  1.06664591E-01
Dipole Derivatives num derivs              R   N=         432
 -9.74598175E-03 -1.11421272E-14  2.22261139E-14 -2.19293899E-16 -1.03781915E-02
  5.47681422E-11  1.88716340E-15 -1.81284080E-11  1.26068353E-02 -2.86557719E-03
 -3.47103429E-14  1.15054014E-15  1.08517866E-14  5.14680382E-02  3.75246402E-11
 -3.17483757E-14  1.15358490E-10 -9.28272063E-02  6.30577946E-03  3.41468802E-14
  1.23486631E-14 -3.46519706E-15 -2.05449233E-02  3.26046190E-02  4.57598841E-15
 -4.74549012E-02  4.01101855E-02  6.30577947E-03  1.17055899E-14 -3.57253171E-14
 -7.16729560E-15 -2.05449234E-02 -3.26046190E-02  2.52852239E-14  4.74549011E-02
  4.01101855E-02 -1.21319725E-12 -5.35855091E-15  4.50942994E-14 -1.82038043E-14
 -1.76251417E-14 -6.20848836E-02 -1.78199284E-14  4.96452570E-02  2.23251795E-13
  4.40041038E-12 -1.21034907E-14  1.99300091E-14  9.07459751E-15  1.73313893E-12
 -1.41574677E-03 -5.00719753E-14  1.26915489E-02  5.87504724E-14 -4.39879327E-04
  2.83914865E-14 -3.83186336E-14 -7.46645562E-15 -1.57497282E-02  3.17503152E-02
  3.02887190E-14 -3.11684030E-02  2.67641128E-03  4.39879324E-04 -1.09294450E-14
 -2.67056748E-14  1.65956624E-14  1.57497282E-02  3.17503152E-02  3.76031847E-14
 -3.11684030E-02 -2.67641128E-03 -1.26754144E-12 -5.97181211E-14  7.65744257E-02
  6.42863296E-15 -5.14066633E-13 -3.26172749E-14 -9.28737981E-02  8.45005635E-14
 -1.42176143E-12  4.96441492E-13 -2.94879275E-15  1.43329041E-01  8.80853671E-14
 -9.40007558E-14 -1.49871912E-13  1.00510396E-01  1.37343250E-13  1.50401209E-12
  6.02926723E-13  1.10165682E-01 -1.09951733E-01 -1.55369193E-03  6.16879960E-13
  5.80160915E-13 -3.81829892E-03 -2.27658080E-13  1.64501323E-13  6.14676817E-13
 -1.10165682E-01 -1.09951733E-01  1.55369193E-03  9.51757652E-13 -2.92283600E-13
 -3.81829892E-03  5.14066633E-14  6.46255196E-13 -5.69027915E-02 -1.25664944E-15
  1.40342310E-13 -2.58318850E-14 -4.29664344E-02  7.07850388E-11  3.11399562E-14
 -1.44536726E-10 -4.85711299E-02  6.20107345E-03  2.44350760E-14 -1.66395010E-13
  3.45069510E-14  7.24686931E-02 -6.88754972E-11 -6.13118879E-14  1.14504762E-10
  1.07427403E-01  2.53508590E-02  1.80927056E-14  1.16254984E-14 -4.06047395E-14
 -1.47511294E-02  5.67237028E-02  1.09260432E-15  5.60881714E-03 -2.94281363E-02
  2.53508590E-02 -4.12711322E-14  1.44272017E-14  3.19296735E-14 -1.47511294E-02
 -5.67237027E-02  2.90793274E-14 -5.60881711E-03 -2.94281363E-02  2.43080079E-12
  4.09624755E-15 -4.81553917E-14  1.93043881E-14  1.28076030E-12 -1.52913545E-02
 -8.12685651E-15 -9.25574610E-02  7.81381282E-13 -4.43566066E-13 -6.47101824E-14
  5.69272508E-14  1.59513272E-14  8.51881849E-13  2.51406050E-02  3.86143419E-14
  1.05151787E-04 -2.93752362E-13  1.16939892E-01  3.13599262E-14 -3.07505140E-15
 -1.47817568E-14 -9.31158594E-03 -4.92462526E-03  8.03047415E-15  4.62261546E-02
  3.76262436E-03 -1.16939892E-01  2.92540086E-14 -5.69680768E-15 -2.04739585E-14
  9.31158594E-03 -4.92462526E-03 -3.85179596E-14  4.62261546E-02 -3.76262436E-03
 -7.54230820E-02 -9.75230444E-15 -4.40069038E-14  3.04264253E-15  1.73858568E-03
 -1.08584308E-14 -2.67529154E-14 -7.13823828E-13  2.84970580E-01 -1.26460243E-01
  4.29418315E-14  1.00523252E-13 -1.78287296E-14 -4.12181058E-02  3.89463653E-13
  2.77742255E-15  1.85680173E-14 -2.87719329E-01  1.00941662E-01 -1.16442705E-14
 -4.26337242E-15  1.46951916E-14  1.97397601E-02  1.03004059E-01  6.72575258E-15
  1.09683084E-02  1.37437473E-03  1.00941662E-01 -2.15452565E-14 -5.22529763E-14
  9.08955477E-17  1.97397601E-02 -1.03004059E-01  1.72497402E-14 -1.09683084E-02
  1.37437473E-03  6.19241908E-03 -5.88441681E-13 -6.40346756E-12 -8.13846644E-12
  6.08568067E-03 -3.71241227E-11  6.27989579E-12 -1.84477850E-10  6.49672422E-03
 -3.30899655E-03  2.55645423E-11  1.56619339E-11  1.27346327E-12 -2.76904458E-02
  4.82813762E-09 -1.36010396E-11 -9.96522586E-10 -2.25201140E-02 -1.44171139E-03
 -4.36906688E-12  7.78854877E-12 -4.75346165E-12  1.08023825E-02 -9.96381995E-03
 -4.79309968E-12 -6.87480505E-03  8.01169483E-03 -1.44171108E-03 -2.55197060E-11
 -2.18828399E-11  1.36348884E-11  1.08023825E-02  9.96382078E-03  1.34402769E-11
  6.87480562E-03  8.01169493E-03  2.38486494E-03  1.81196776E-12 -2.49148711E-12
 -8.59551988E-12  1.74259718E-02 -1.38951750E-11  9.39655326E-14 -2.82441436E-11
  2.79834844E-02 -1.30113418E-02  1.69175487E-11  1.54387078E-11  4.15930588E-12
 -3.51345905E-02 -8.34797747E-11 -3.75724889E-12 -1.10516177E-11 -3.48179933E-02
  5.31323845E-03 -1.07454774E-12  2.19077259E-12 -6.70624995E-12  8.85430939E-03
  2.19569166E-03 -3.80689520E-12 -7.71104600E-04  3.41725445E-03  5.31323850E-03
 -2.25676410E-11 -1.99738181E-11  1.31588875E-11  8.85430947E-03 -2.19569159E-03
  8.79621194E-12  7.71104592E-04  3.41725455E-03  4.92634312E-02  6.80821681E-12
 -5.10376390E-14 -9.20960156E-12  1.95883439E-02  1.01431153E-11  1.08983723E-11
  4.60632349E-11  9.42010186E-02 -4.79158832E-02 -1.84590802E-11 -4.11479091E-11
  9.97785576E-12 -8.59424873E-02 -2.66912848E-11  1.32523646E-11 -7.04807748E-11
 -1.55551946E-01 -6.73774011E-04  5.55929491E-12  2.68025933E-11 -1.51805166E-11
  3.31770718E-02 -3.12551501E-02 -3.16183911E-12 -2.42785285E-02  3.06754639E-02
 -6.73773974E-04  1.11269511E-11  1.02120704E-11 -9.74480371E-12  3.31770716E-02
  3.12551502E-02 -1.76839505E-11  2.42785285E-02  3.06754639E-02 -8.34207370E-03
  4.82211699E-13 -2.89062484E-12 -1.08585650E-11 -4.06156274E-03  1.80833376E-10
 -2.49032580E-12 -2.17197591E-10 -2.96643658E-03 -5.66264152E-03  1.81205745E-11
  9.06550434E-12  5.48014104E-12 -9.62697770E-03 -1.74631388E-09 -6.33798601E-13
 -2.82183712E-10 -2.16787954E-02  7.00235751E-03 -2.06320067E-12  8.10679396E-12
 -3.92027156E-12  6.84426969E-03 -6.84300439E-04 -6.66009524E-12 -3.82962632E-03
  1.23226161E-02  7.00235792E-03 -2.14522578E-11 -1.91174982E-11  1.13151191E-11
  6.84427080E-03  6.84296256E-04  1.11102530E-11  3.82962678E-03  1.23226159E-02
  8.08565997E-03  1.05785126E-14 -2.64608899E-12 -4.61390261E-12  3.48433295E-03
  2.36877940E-11 -1.76672388E-12 -6.08734522E-11 -4.75891722E-02 -2.67006613E-02
  2.00936288E-11  8.59965977E-12 -1.56352169E-12  1.46471313E-01 -3.41241202E-11
 -8.79808944E-12 -1.40782812E-12  1.52901575E-01  9.30750088E-03 -8.02689969E-13
  7.76811469E-12 -3.50133033E-12 -7.49778226E-02  1.97795480E-02 -1.32782539E-12
  5.60786354E-02 -5.26562010E-02  9.30750084E-03 -2.42141896E-11 -1.85575103E-11
  1.16951782E-11 -7.49778227E-02 -1.97795480E-02  1.32186721E-11 -5.60786353E-02
 -5.26562011E-02  3.06792659E-02 -3.70722840E-13 -1.15898603E-11 -4.53065301E-12
  4.40150798E-03  8.08510082E-11 -1.84070273E-13 -8.97485399E-11 -1.01687677E-02
 -3.18530456E-02  2.47451980E-11  3.12500682E-11 -2.03974720E-12  7.94460181E-02
  5.00497754E-11 -8.44822108E-12  1.27813532E-10 -3.39472923E-02  5.86890059E-04
 -1.81215860E-12  8.50527655E-13 -4.40797162E-12 -4.19237629E-02  9.37912510E-03
 -1.58766511E-12  1.13854885E-02  2.20580302E-02  5.86890079E-04 -2.74749888E-11
 -2.53465603E-11  1.29947954E-11 -4.19237630E-02 -9.37912514E-03  1.15459898E-11
 -1.13854886E-02  2.20580301E-02
Polarizability num derivs                  R   N=          72
  2.07119124E-02  4.31556263E-14  8.61518497E-01 -9.37500163E-14  5.57822611E-11
 -8.07447045E-01 -2.94222366E-11  1.24398669E-13 -2.82002267E-13 -1.81173975E-14
  1.23457980E+00 -2.83882282E-11  3.10202494E-12  6.20859685E-14  6.43905177E-12
 -7.04422586E-01 -3.23927288E-12 -9.58807709E-12 -1.89196914E-01  1.05883425E-14
 -1.62072595E+00  3.46166459E-13 -8.18971580E-11 -1.87543254E+00 -1.18910956E-11
  4.34264730E-14 -3.76003023E-12 -3.86978225E-14  4.87399699E-01 -9.02407256E-12
  4.81203210E-01 -2.96656490E-14 -2.27854066E-01 -2.20316378E-14  2.99933869E-12
  2.47200636E+00  4.41811919E-02  6.38806691E-12  1.94552464E-01  2.74170102E-11
 -4.91303597E-10  1.13104572E-01  1.14637259E-01  2.06555971E-12  2.98052457E-01
  2.38416004E-11  1.09784483E-11  2.40839739E-01  9.45994213E-01 -7.83733149E-12
  4.61522794E-01  6.57352917E-12  2.48178738E-10  5.65372657E-01 -3.20416113E-02
  1.67510189E-12  3.45389717E-01  1.50332235E-11  1.59688093E-09  2.11799796E-01
  2.05077209E-03 -5.27551970E-12  9.11875765E-01  1.45637392E-11  3.61375542E-10
  5.29105836E-01 -9.50774869E-02 -1.32377921E-11  9.59443597E-02  1.25394919E-11
  9.15563785E-10  4.34257376E-01
Quadrupole Moment num derivs               R   N=          72
 -1.97346165E-02 -3.26280501E-02  5.23626666E-02 -7.56545340E-14 -2.85756501E-14
  2.01586028E-10  4.98204006E-12 -1.69201360E-12 -3.19602570E-12 -1.82780478E-14
  3.45374216E-14 -1.05567481E-01  4.70003779E-14  7.52006046E-12 -7.52006046E-12
 -3.74704090E-13  4.61339343E-02  4.84239470E-13  2.03626670E-02  1.71479716E-01
 -1.91842383E-01 -6.20824787E-14  1.70189795E-14 -2.16257000E-11  3.19602570E-12
 -4.46503590E-12  1.17500945E-12  6.93860921E-14 -1.62430830E-13 -5.19666345E-01
 -2.44115029E-02  5.81157611E-01 -5.56746108E-01  9.91138469E-15 -3.44871010E-14
  1.79029128E-13 -4.05878316E-03 -4.10614469E-02  4.51202300E-02 -4.07482345E-11
 -1.35539339E-11  1.06008697E-10 -4.21691330E-03  3.75725913E-02 -3.33556780E-02
 -3.66954608E-11 -1.94729924E-11  2.70879677E-10  8.27677832E-02 -1.04915338E-01
  2.21475548E-02  1.80628798E-11 -1.33994494E-11 -1.69061995E-10 -6.56272029E-03
  3.91168928E-03  2.65103099E-03 -3.07469694E-11 -2.70229829E-11  7.74965259E-10
 -3.46760037E-02  6.87829264E-02 -3.41069228E-02 -3.39212970E-11 -3.61181434E-12
  1.24489467E-11 -1.02429956E-01 -1.35885590E-01  2.38315546E-01 -2.95859522E-11
 -3.55108339E-11  1.02813289E-10
QEq coupling tensors                       R   N=          24
 -7.53560691E-01 -5.95881366E-19  1.45632854E+00 -3.85669422E-19 -1.44796576E-17
 -7.02767850E-01 -1.32446854E-01 -7.44436139E-18 -1.02650954E-01 -4.81910613E-18
 -7.94644096E-17  2.35097809E-01  8.74250869E-01 -1.24263472E-18 -1.13373410E+00
 -1.18159788E-19  2.05133818E+00  2.59483233E-01  8.74250869E-01  1.80799952E-16
 -1.13373410E+00  1.32848383E-16 -2.05133818E+00  2.59483233E-01
NDeriv for magnetic props                  I                6
ND12 for magnetic props                    I               -2
QEq coupling tensors num derivs            R   N=         288
 -1.24656579E-01 -2.50303388E-14  7.92273462E-02 -1.50930480E-14 -1.55422670E-10
  4.54292324E-02  1.69254514E-02 -9.66292597E-15 -1.40782943E-02  1.25419040E-13
 -3.71238114E-11 -2.84715707E-03  1.04180558E-01 -3.40887712E-14 -6.67770209E-01
 -4.11109660E-14 -1.88102509E-01  5.63589651E-01  1.04180558E-01  2.35356669E-14
 -6.67770209E-01  2.95915567E-14  1.88102509E-01  5.63589651E-01  8.02237700E-12
 -2.82887614E-14 -4.01265726E-12 -5.35149384E-14 -5.21697592E-01 -4.00971974E-12
 -2.50644203E-12 -1.11825967E-13 -1.00242993E-12 -3.65519776E-14 -1.10951968E-03
  3.50887196E-12 -1.02597449E-01 -2.27146372E-14 -2.78596548E-01 -3.63338189E-14
 -1.62887578E-01  3.81193997E-01  1.02597449E-01  8.23038694E-14  2.78596548E-01
  9.88848819E-15 -1.62887578E-01 -3.81193997E-01  6.01604837E-12  8.08353887E-15
  6.01604837E-12  3.58677728E-01  5.28754251E-14 -6.01604837E-12 -2.50644203E-12
  5.77034049E-14  2.00522706E-12 -1.73073938E-02  1.26313516E-13  5.01582158E-13
 -4.01265726E-12  6.22607787E-01  2.00926615E-12 -4.64075782E-01  8.22506613E-14
 -4.01118850E-12  1.00257681E-11 -6.22607787E-01  1.00287056E-11 -4.64075782E-01
  1.22200983E-12  1.00257681E-11 -7.57197782E-02  2.58519736E-14  4.21320451E-02
 -9.12626855E-14  1.28662685E-11  3.35877331E-02 -4.00340562E-03  4.44785873E-15
 -2.96229053E-03  4.08339978E-14  2.66408774E-12  6.96569615E-03 -2.14494076E-01
 -4.43461442E-14  1.53517421E-03  1.54222174E-14 -2.36047643E-01  2.12958902E-01
 -2.14494076E-01  4.58906867E-14  1.53517420E-03  4.42125608E-14  2.36047643E-01
  2.12958902E-01  2.00632863E-12 -1.26658990E-14 -4.01265726E-12  2.86339277E-15
  3.72479887E-01  2.00632863E-12 -1.00242993E-12  1.07594733E-14  5.01214967E-13
 -7.16393600E-14 -6.10281465E-02 -4.01045412E-12 -1.81509266E-01  2.09261258E-14
  4.57171491E-01 -8.77938559E-14 -8.25142529E-03 -2.75662225E-01  1.81509266E-01
 -7.00353591E-14 -4.57171491E-01  4.62296154E-14 -8.25142529E-03  2.75662225E-01
  2.35149639E-01 -9.16475184E-15  6.65283758E-01  8.60919367E-14  1.04146606E-13
 -9.00433397E-01 -1.19740595E-02  1.08626037E-13 -3.03501826E-02 -7.56205138E-14
 -1.53169932E-13  4.23242421E-02 -1.20814579E-01 -4.11373705E-14 -3.00783082E-01
  2.07825960E-14 -1.91943652E-01  4.21597661E-01 -1.20814579E-01 -1.97830944E-14
 -3.00783082E-01  4.21614615E-14  1.91943652E-01  4.21597661E-01 -9.12705574E-03
  2.90462183E-12  2.57782735E-03  1.68318931E-12  2.75514986E-11  6.54922776E-03
  1.34658166E-03 -6.38072466E-12  1.04456617E-03 -1.23209887E-11  1.11317866E-10
 -2.39114720E-03  1.67545097E-02 -3.24868452E-12  4.58137629E-02 -3.96973489E-12
 -1.10533156E-01 -6.25682738E-02  1.67545086E-02  4.46054060E-11  4.58137624E-02
  2.55413578E-11  1.10533156E-01 -6.25682698E-02  2.27144135E-02  1.80785625E-12
 -1.42878710E-01  1.35166147E-12  6.17887177E-11  1.20164295E-01 -1.66405395E-03
  4.83040647E-12 -2.76889407E-03  7.02339696E-12  1.19789362E-10  4.43294802E-03
  5.73819042E-03  5.24518494E-13 -3.72516320E-03 -3.22303216E-13 -2.90183025E-02
 -2.01302976E-03  5.73819275E-03  2.57656047E-11 -3.72516214E-03  2.13883470E-11
  2.90183026E-02 -2.01302806E-03 -2.96567626E-01  7.79023094E-13  1.08260461E-01
 -1.03496335E-12 -1.61783712E-11  1.88307164E-01  1.28413838E-02  1.73687022E-12
 -8.00010854E-03 -4.06063024E-12 -5.39472925E-12 -4.84127522E-03 -2.32276686E-01
  2.82011692E-11  1.48901952E-01 -4.91351809E-11 -8.37922713E-02  8.33747323E-02
 -2.32276685E-01 -2.75357367E-11  1.48901954E-01 -1.38258680E-11  8.37922714E-02
  8.33747317E-02  2.76221722E-02  5.17581187E-12 -1.34027776E-02 -3.49903312E-12
  2.41531188E-10 -1.42193965E-02 -8.76898229E-03 -4.74677140E-12  1.43851792E-03
 -3.60991276E-12  8.06197944E-11  7.33046532E-03 -1.35094759E-03 -3.36099126E-12
 -1.06411432E-03  3.52537317E-12  3.09957723E-04  2.41505872E-03 -1.35094632E-03
  2.61905954E-11 -1.06411368E-03  1.84680948E-11 -3.09957308E-04  2.41506191E-03
  2.06337534E-01  1.74440227E-12 -2.02116067E-01  2.46820662E-12  1.26625904E-11
 -4.22146850E-03 -2.79555121E-02  1.51361721E-11  3.85065059E-02 -8.75512533E-13
 -5.78093453E-11 -1.05509934E-02 -1.30826205E-01 -7.17969531E-12  1.95897567E-01
 -5.79810627E-12 -2.88908974E-01 -6.50713642E-02 -1.30826206E-01  2.84905504E-11
  1.95897568E-01  2.94574004E-11  2.88908974E-01 -6.50713621E-02  1.70630022E-01
  1.71230692E-12 -1.48113473E-01  1.13348564E-11 -3.76360512E-11 -2.25165509E-02
  2.65252687E-02  5.72806365E-12  7.87548689E-02  1.46366292E-12  2.36556881E-12
 -1.05280137E-01 -2.89826394E-02  1.76784620E-12  1.31515547E-02 -1.73790404E-12
 -1.73757826E-01  1.58310809E-02 -2.89826396E-02  3.09688374E-11  1.31515570E-02
  2.36461445E-11  1.73757827E-01  1.58310833E-02
Number of Normal Modes                     I                6
Vib-LE2Fix                                 I               14
Vib-NDFDPol                                I                0
Vib-NumROA                                 I                0
Vib-NDim                                   I                4
Vib-NDim0                                  I                4
Vib-LFlags                                 I                8
Vib-IFlags                                 I   N=          48
           0           0           1           0           0           0
           0           0           0           0           2           0
           0           0           0           0           0           0
           3           0           0           0           0           0
           0           0           4           0           0           0
           0           0           0           0           5           0
           0           0           0           0           0           0
           6           0           0           0           0           0
Vib-AtMass                                 R   N=           4
  1.59949146E+01  1.20000000E+01  1.89984032E+01  1.89984032E+01
Vib-E2                                     R   N=          84
  5.71178371E+02  6.13292793E+02  7.64460532E+02  9.77001399E+02  1.28298922E+03
  1.99534691E+03  1.76834942E+01  1.70502127E+01  1.27422898E+01  1.72456098E+01
  1.31861496E+01  1.31620748E+01  3.39908318E+00  3.77846780E+00  4.38740592E+00
  9.69882514E+00  1.27883411E+01  3.08753140E+01  4.66151948E+00  7.62901658E+00
  3.31523193E+01  4.75709674E+01  3.95655917E+02  4.12009669E+02  0.00000000E+00
  0.00000000E+00  0.00000000E+00  0.00000000E+00  0.00000000E+00  0.00000000E+00
  0.00000000E+00  0.00000000E+00  0.00000000E+00  0.00000000E+00  0.00000000E+00
  0.00000000E+00  0.00000000E+00  0.00000000E+00  0.00000000E+00  0.00000000E+00
  0.00000000E+00  0.00000000E+00  0.00000000E+00  0.00000000E+00  0.00000000E+00
  0.00000000E+00  0.00000000E+00  0.00000000E+00  0.00000000E+00  0.00000000E+00
  0.00000000E+00  0.00000000E+00  0.00000000E+00  0.00000000E+00  0.00000000E+00
  0.00000000E+00  0.00000000E+00  0.00000000E+00  0.00000000E+00  0.00000000E+00
  0.00000000E+00  0.00000000E+00  0.00000000E+00  0.00000000E+00  0.00000000E+00
  0.00000000E+00  0.00000000E+00  0.00000000E+00  0.00000000E+00  0.00000000E+00
  0.00000000E+00  0.00000000E+00  0.00000000E+00  0.00000000E+00  0.00000000E+00
  0.00000000E+00  0.00000000E+00  0.00000000E+00  0.00000000E+00  0.00000000E+00
  0.00000000E+00  0.00000000E+00  0.00000000E+00  0.00000000E+00
Vib-Modes                                  R   N=          72
 -3.54207688E-16 -9.24534083E-12 -3.91203296E-01  1.11442985E-15  3.81128536E-12
 -3.49581432E-01 -1.70062755E-16  5.35449579E-01  2.75082079E-01 -2.35636416E-16
 -5.35449579E-01  2.75082079E-01 -1.00800759E-15  6.66476979E-01 -4.70795536E-12
  3.49840298E-15 -2.96215734E-01 -4.31158222E-12 -6.69075825E-16 -1.87006600E-01
  4.46162380E-01 -6.91977529E-16 -1.87006600E-01 -4.46162380E-01 -2.76758837E-01
 -2.18723565E-15  3.33590195E-15  9.27934323E-01  4.16138150E-15  3.05833039E-15
 -1.76553730E-01  1.72679136E-15 -3.10026338E-15 -1.76553730E-01 -2.51380121E-15
 -1.63999981E-15  2.33339835E-15 -6.99306528E-13  5.48384738E-01 -7.73287968E-15
  4.50337870E-13  3.48416968E-01  1.48536286E-15  4.15620473E-01 -3.40880507E-01
  1.43446403E-15 -4.15620473E-01 -3.40880507E-01  1.02153751E-15 -8.81626939E-02
 -1.70392389E-13 -3.38748459E-15  9.09491961E-01 -1.26372561E-13  6.55116808E-16
 -2.50119672E-01  1.41301117E-01  6.24485983E-16 -2.50119672E-01 -1.41301117E-01
  2.09415690E-16 -1.48175159E-14 -5.29162638E-01 -6.90419360E-16  7.54012216E-16
  8.44854343E-01  1.31978617E-16  3.40920693E-02 -4.40653056E-02  1.27803543E-16
 -3.40920693E-02 -4.40653056E-02
Anharmonic Number of Normal Modes          I               27
Anharmonic Vib-LE2Fix                      I               14
Anharmonic Vib-NDFDPol                     I                0
Anharmonic Vib-NumROA                      I                0
Anharmonic Vib-NDim                        I                4
Anharmonic Vib-NDim0                       I                4
Anharmonic Vib-LFlags                      I                8
Anharmonic Vib-IFlags                      I   N=         216
           1           0           3           0           0           0
           0           0           1           0           6           0
           0           0           0           0           1           0
           4           0           0           0           0           0
           1           0           2           0           0           0
           0           0           1           0           5           0
           0           0           0           0           1           0
           1           0           0           0           0           0
           2           0           3           0           0           0
           0           0           3           0           6           3
           0           0           0           0           2           0
           6           0           0           0           0           0
           3           0           4           3           0           0
           0           0           3           0           6           4
           0           0           0           0           2           0
           4           0           0           0           0           0
           3           0           3           2           0           0
           0           0           3           0           6           2
           0           0           0           0           3           0
           4           2           0           0           0           0
           2           0           2           0           0           0
           0           0           3           0           5           3
           0           0           0           0           3           0
           6           5           0           0           0           0
           3           0           5           4           0           0
           0           0           3           0           5           2
           0           0           0           0           2           0
           5           0           0           0           0           0
           3           0           3           1           0           0
           0           0           3           0           6           1
           0           0           0           0           3           0
           4           1           0           0           0           0
           3           0           2           1           0           0
           0           0           3           0           5           1
           0           0           0           0           2           0
           1           0           0           0           0           0
Anharmonic Vib-AtMass                      R   N=           4
  1.59949146E+01  1.20000000E+01  1.89984032E+01  1.89984032E+01
Anharmonic Vib-E2                          R   N=         378
  5.66439791E+02  6.08389552E+02  7.57445488E+02  9.62500699E+02  1.25704447E+03
  1.96628574E+03  1.13341863E+03  1.17517626E+03  1.21717462E+03  1.32392941E+03
  1.36615647E+03  1.51535928E+03  1.52564435E+03  1.57023992E+03  1.71694999E+03
  1.91644891E+03  1.81700625E+03  1.86115936E+03  2.00881423E+03  2.20864752E+03
  2.50533548E+03  2.52742562E+03  2.56420665E+03  2.71294314E+03  2.92234705E+03
  3.21214595E+03  3.90289778E+03  0.00000000E+00  0.00000000E+00  0.00000000E+00
  0.00000000E+00  0.00000000E+00  0.00000000E+00  0.00000000E+00  0.00000000E+00
  0.00000000E+00  0.00000000E+00  0.00000000E+00  0.00000000E+00  0.00000000E+00
  0.00000000E+00  0.00000000E+00  0.00000000E+00  0.00000000E+00  0.00000000E+00
  0.00000000E+00  0.00000000E+00  0.00000000E+00  0.00000000E+00  0.00000000E+00
  0.00000000E+00  0.00000000E+00  0.00000000E+00  0.00000000E+00  0.00000000E+00
  0.00000000E+00  0.00000000E+00  0.00000000E+00  0.00000000E+00  0.00000000E+00
  0.00000000E+00  0.00000000E+00  0.00000000E+00  0.00000000E+00  0.00000000E+00
  0.00000000E+00  0.00000000E+00  0.00000000E+00  0.00000000E+00  0.00000000E+00
  0.00000000E+00  0.00000000E+00  0.00000000E+00  0.00000000E+00  0.00000000E+00
  0.00000000E+00  0.00000000E+00  0.00000000E+00  0.00000000E+00  0.00000000E+00
  0.00000000E+00  4.52954489E+00  7.23362192E+00  3.26454987E+01  4.68788786E+01
  3.86933626E+02  3.63234364E+02  2.22332676E-03  2.70492108E-03  1.04436237E-04
  5.00839218E-04  7.98648484E-23  2.22475278E+00  7.56137814E-02  2.48539703E+00
  2.32140580E-03  2.76867402E+01  2.61130009E-04  2.81661583E+00  2.10829387E-24
  4.29379050E+00  4.95693694E+00  7.44900437E-03  6.32929696E-03  9.12471475E-02
  2.40799854E+00  3.91347011E-01  3.73048489E+00  0.00000000E+00  0.00000000E+00
  0.00000000E+00  0.00000000E+00  0.00000000E+00  0.00000000E+00  0.00000000E+00
  0.00000000E+00  0.00000000E+00  0.00000000E+00  0.00000000E+00  0.00000000E+00
  0.00000000E+00  0.00000000E+00  0.00000000E+00  0.00000000E+00  0.00000000E+00
  0.00000000E+00  0.00000000E+00  0.00000000E+00  0.00000000E+00  0.00000000E+00
  0.00000000E+00  0.00000000E+00  0.00000000E+00  0.00000000E+00  0.00000000E+00
  0.00000000E+00  0.00000000E+00  0.00000000E+00  0.00000000E+00  0.00000000E+00
  0.00000000E+00  0.00000000E+00  0.00000000E+00  0.00000000E+00  0.00000000E+00
  0.00000000E+00  0.00000000E+00  0.00000000E+00  0.00000000E+00  0.00000000E+00
  0.00000000E+00  0.00000000E+00  0.00000000E+00  0.00000000E+00  0.00000000E+00
  0.00000000E+00  0.00000000E+00  0.00000000E+00  0.00000000E+00  0.00000000E+00
  0.00000000E+00  0.00000000E+00  0.00000000E+00  0.00000000E+00  0.00000000E+00
  0.00000000E+00  0.00000000E+00  0.00000000E+00  0.00000000E+00  0.00000000E+00
  0.00000000E+00  0.00000000E+00  0.00000000E+00  0.00000000E+00  0.00000000E+00
  0.00000000E+00  0.00000000E+00  0.00000000E+00  0.00000000E+00  0.00000000E+00
  0.00000000E+00  0.00000000E+00  0.00000000E+00  0.00000000E+00  0.00000000E+00
  0.00000000E+00  0.00000000E+00  0.00000000E+00  0.00000000E+00  3.19012879E+01
  4.74330949E+01  1.71940952E+02  1.94304815E+02  1.22798549E+03  7.36966425E+02
  7.82564875E-03  9.18245886E-03  3.42299078E-04  1.50917952E-03  2.33218303E-22
  5.85697742E+00  1.97722028E-01  6.31447378E+00  5.39387433E-03  5.76344273E+01
  5.73334092E-04  6.03742095E+00  4.18695963E-24  7.75571502E+00  7.89323275E+00
  1.17578320E-02  9.84713412E-03  1.34179450E-01  3.28724317E+00  4.86042398E-01
  3.81316425E+00  0.00000000E+00  0.00000000E+00  0.00000000E+00  0.00000000E+00
  0.00000000E+00  0.00000000E+00  0.00000000E+00  0.00000000E+00  0.00000000E+00
  0.00000000E+00  0.00000000E+00  0.00000000E+00  0.00000000E+00  0.00000000E+00
  0.00000000E+00  0.00000000E+00  0.00000000E+00  0.00000000E+00  0.00000000E+00
  0.00000000E+00  0.00000000E+00  0.00000000E+00  0.00000000E+00  0.00000000E+00
  0.00000000E+00  0.00000000E+00  0.00000000E+00  0.00000000E+00  0.00000000E+00
  0.00000000E+00  0.00000000E+00  0.00000000E+00  0.00000000E+00  0.00000000E+00
  0.00000000E+00  0.00000000E+00  0.00000000E+00  0.00000000E+00  0.00000000E+00
  0.00000000E+00  0.00000000E+00  0.00000000E+00  0.00000000E+00  0.00000000E+00
  0.00000000E+00  0.00000000E+00  0.00000000E+00  0.00000000E+00  0.00000000E+00
  0.00000000E+00  0.00000000E+00  0.00000000E+00  0.00000000E+00  0.00000000E+00
  0.00000000E+00  0.00000000E+00  0.00000000E+00  0.00000000E+00  0.00000000E+00
  0.00000000E+00  0.00000000E+00  0.00000000E+00  0.00000000E+00  0.00000000E+00
  0.00000000E+00  0.00000000E+00  0.00000000E+00  0.00000000E+00  0.00000000E+00
  0.00000000E+00  0.00000000E+00  0.00000000E+00  0.00000000E+00  0.00000000E+00
  0.00000000E+00  0.00000000E+00  0.00000000E+00  0.00000000E+00  0.00000000E+00
  0.00000000E+00  0.00000000E+00  0.00000000E+00  0.00000000E+00  0.00000000E+00
  0.00000000E+00  0.00000000E+00  0.00000000E+00  0.00000000E+00  0.00000000E+00
  0.00000000E+00  0.00000000E+00  0.00000000E+00  0.00000000E+00  0.00000000E+00
  0.00000000E+00  0.00000000E+00  0.00000000E+00  0.00000000E+00  0.00000000E+00
  0.00000000E+00  0.00000000E+00  0.00000000E+00  0.00000000E+00  0.00000000E+00
  0.00000000E+00  0.00000000E+00  0.00000000E+00  0.00000000E+00  0.00000000E+00
  0.00000000E+00  0.00000000E+00  0.00000000E+00  0.00000000E+00  0.00000000E+00
  0.00000000E+00  0.00000000E+00  0.00000000E+00  0.00000000E+00  0.00000000E+00
  0.00000000E+00  0.00000000E+00  0.00000000E+00  0.00000000E+00  0.00000000E+00
  0.00000000E+00  0.00000000E+00  0.00000000E+00  0.00000000E+00  0.00000000E+00
  0.00000000E+00  0.00000000E+00  0.00000000E+00  0.00000000E+00  0.00000000E+00
  0.00000000E+00  0.00000000E+00  0.00000000E+00  0.00000000E+00  0.00000000E+00
  0.00000000E+00  0.00000000E+00  0.00000000E+00  0.00000000E+00  0.00000000E+00
  0.00000000E+00  0.00000000E+00  0.00000000E+00  0.00000000E+00  0.00000000E+00
  0.00000000E+00  0.00000000E+00  0.00000000E+00  0.00000000E+00  0.00000000E+00
  0.00000000E+00  0.00000000E+00  0.00000000E+00  0.00000000E+00  0.00000000E+00
  0.00000000E+00  0.00000000E+00  0.00000000E+00
Anharmonic Vib-Modes                       R   N=         324
 -9.88608086E-17 -2.19843674E-12 -9.31983087E-02  2.53649399E-16  9.06250402E-13
 -8.30844763E-02  5.62064279E-18  1.27259674E-01  6.54716261E-02 -8.26019853E-17
 -1.27259674E-01  6.54716261E-02 -1.98080063E-16  1.61408571E-01 -1.14015914E-12
  8.26847466E-16 -7.17613102E-02 -1.04416824E-12 -1.58478318E-16 -4.52822421E-02
  1.08047038E-01 -1.97019763E-16 -4.52822421E-02 -1.08047038E-01 -7.75314234E-02
 -5.90606941E-16  9.46360494E-16  2.59952201E-01  1.09158416E-15  8.17070136E-16
 -4.94598912E-02  4.97860060E-16 -8.60957896E-16 -4.94598912E-02 -6.90102651E-16
 -4.51878590E-16 -5.83200704E-16  1.44593484E-13 -1.32716828E-01  1.85238143E-15
 -9.86266667E-14 -8.53476703E-02 -3.73731598E-16 -9.87254437E-02  8.28218649E-02
 -3.05290293E-16  9.87254437E-02  8.28218649E-02  2.74178549E-16 -2.41083415E-02
 -4.81272461E-14 -8.60511697E-16  2.50385133E-01 -3.59024743E-14  1.66526370E-16
 -6.89271276E-02  3.90263324E-02  1.46167165E-16 -6.89271276E-02 -3.90263324E-02
 -3.99316853E-16  1.16425103E-13  5.70102824E-02  1.30921817E-15 -7.10966706E-14
 -2.75475633E-01 -2.70426525E-16 -7.22642628E-02  6.30008997E-02 -2.20329404E-16
  7.22642628E-02  6.30008997E-02 -2.17672297E-16 -4.32748931E-12 -1.88513686E-01
  5.72518869E-16  1.78238159E-12 -1.67651296E-01 -3.57852972E-18  2.46959020E-01
  1.32302589E-01 -1.74782597E-16 -2.46959020E-01  1.32302589E-01 -2.96901628E-16
  1.63546688E-01 -9.30290236E-02  1.08337553E-15 -7.05184348E-02 -8.31312509E-02
 -1.53383782E-16  8.07563030E-02  1.75398307E-01 -2.80946941E-16 -1.73905926E-01
 -4.45680332E-02 -4.16574102E-16  3.22812429E-01 -8.13526538E-03  1.71723026E-15
 -1.43474004E-01  6.53301992E-04 -3.29174842E-16 -9.27359639E-02  2.19319881E-01
 -4.04765568E-16 -8.84197447E-02 -2.12883379E-01 -7.73316154E-02 -2.19915158E-12
 -9.30290236E-02  2.59282273E-01  9.07421310E-13 -8.31312509E-02 -4.93324270E-02
  1.27331114E-01  6.54151370E-02 -4.93324270E-02 -1.27331114E-01  6.54151370E-02
 -7.75314234E-02  1.61406215E-01 -1.13921733E-12  2.59952201E-01 -7.17370020E-02
 -1.04335454E-12 -4.94598912E-02 -4.52889271E-02  1.08050815E-01 -4.94598912E-02
 -4.52889272E-02 -1.08050815E-01 -1.55062847E-01 -2.55555334E-15 -4.23770729E-03
  5.19904403E-01  3.50340976E-15  1.32554581E-02 -9.89197825E-02  2.43938987E-03
 -2.40240535E-03 -9.89197825E-02 -2.43938987E-03 -2.40240535E-03 -6.72249104E-16
 -2.05426250E-12 -2.20437603E-01  2.07579163E-15  8.08526266E-13 -1.71631068E-01
 -3.62187429E-16  2.99884745E-02  1.46997971E-01 -3.82976906E-16 -2.99884745E-02
  1.46997971E-01 -7.58489391E-16  1.61300984E-01 -1.32052334E-01  2.61076714E-15
 -5.06368275E-02 -8.38996248E-02 -5.19517584E-16 -1.51990790E-01  1.94911094E-01
 -4.90948001E-16  4.81739840E-02 -3.07414391E-02 -7.62204972E-02  1.67814526E-13
 -1.32052334E-01  2.55556846E-01 -1.07368978E-13 -8.38996248E-02 -4.86236075E-02
 -1.00082387E-01  8.20848275E-02 -4.86236075E-02  1.00082387E-01  8.20848275E-02
 -1.12425271E-15  3.36647398E-13 -2.99050252E-01  3.56010088E-15 -2.15291052E-13
 -9.62087228E-02 -7.17971338E-16 -1.92985091E-01  1.56270710E-01 -5.84184637E-16
  1.92985091E-01  1.56270710E-01  1.74199552E-16 -2.42271392E-02 -9.30290236E-02
 -6.03711877E-16  2.48783402E-01 -8.31312509E-02  1.71543199E-16  5.89598473E-02
  1.03981116E-01  6.31204990E-17 -1.95702381E-01  2.68491578E-02  5.67445426E-17
  1.37127491E-01  6.73377979E-03  3.07056629E-17  1.78723857E-01 -1.92499546E-02
 -5.43721040E-18 -1.17872501E-01  1.50207919E-01 -6.17311749E-17 -1.10463994E-01
 -1.43718257E-01 -7.75314234E-02 -2.42787237E-02 -4.59773157E-14  2.59952201E-01
  2.50460859E-01 -3.39831646E-14 -4.94598912E-02 -6.88793201E-02  3.89122727E-02
 -4.94598912E-02 -6.88793201E-02 -3.89122727E-02 -2.83495097E-16 -2.40585489E-02
 -1.32052334E-01  9.15389020E-16  2.74309476E-01 -8.38996248E-02 -1.92956829E-16
 -1.76586166E-01  1.26656292E-01 -1.46555302E-16  2.35786081E-02  3.75133633E-02
  5.20038368E-16 -4.85574475E-02  9.16442101E-03 -1.62711750E-15  5.00921719E-01
 -2.71112014E-02  3.13377430E-16 -1.43235822E-01  8.25288957E-02  2.76537445E-16
 -1.32281459E-01 -7.31201953E-02 -1.30112782E-16 -2.19344093E-12  5.37519310E-02
  3.95131769E-16  9.05944503E-13 -3.15394459E-01 -2.89614216E-17  1.18445192E-01
  7.69795209E-02 -1.11073420E-16 -1.18445192E-01  7.69795209E-02 -2.36989568E-16
  1.63168726E-01  1.45856906E-01  9.94522497E-16 -7.38156909E-02 -2.32873282E-01
 -1.98170050E-16 -5.47714229E-02  1.21078587E-01 -2.30478712E-16 -3.59773382E-02
 -9.67865124E-02 -7.87849667E-02  3.48356051E-15  1.45856906E-01  2.64155160E-01
  9.02264695E-16 -2.32873282E-01 -5.02595685E-02 -9.39704237E-03  1.21460373E-02
 -5.02595685E-02  9.39704237E-03  1.21460373E-02 -6.22757145E-16  1.83321950E-13
  1.29084268E-02  2.02097928E-15 -1.13498921E-13 -3.17241699E-01 -4.14576140E-16
 -1.10986811E-01  9.47561528E-02 -3.37634656E-16  1.10986811E-01  9.47561528E-02
  2.50706671E-16 -2.57070322E-02  1.45856906E-01 -7.44139593E-16  2.60911838E-01
 -2.32873282E-01  1.36741475E-16 -8.09756964E-02  5.23615548E-02  1.22208882E-16
 -6.21816116E-02 -2.80694803E-02 -7.90337015E-17  7.54929684E-15  2.89774861E-01
  3.35246717E-16 -6.95432787E-16 -4.67010524E-01 -7.95391117E-17 -1.99997344E-02
  2.55074624E-02 -6.56743180E-17  1.99997344E-02  2.55074624E-02
Anharmonic number of displacements         I                6
Anharmonic displacement N1                 I                0
Anharmonic displacement flags              I   N=           6
           1           2           3           4           5           6
Anharmonic displacements                   R   N=          72
 -8.42313849E-17 -2.19856284E-12 -9.30290236E-02  2.65013925E-16  9.06332230E-13
 -8.31312509E-02 -4.04413056E-17  1.27331114E-01  6.54151370E-02 -5.60348698E-17
 -1.27331114E-01  6.54151370E-02 -2.44117492E-16  1.61406215E-01 -1.14016429E-12
  8.47237039E-16 -7.17370020E-02 -1.04417135E-12 -1.62035599E-16 -4.52889271E-02
  1.08050815E-01 -1.67581892E-16 -4.52889272E-02 -1.08050815E-01 -7.75314234E-02
 -6.12733797E-16  9.34522018E-16  2.59952201E-01  1.16577246E-15  8.56762918E-16
 -4.94598912E-02  4.83744597E-16 -8.68510056E-16 -4.94598912E-02 -7.04218114E-16
 -4.59430750E-16 -5.61887807E-16  1.68394656E-13 -1.32052334E-01  1.86209560E-15
 -1.08442418E-13 -8.38996248E-02 -3.57678869E-16 -1.00082387E-01  8.20848275E-02
 -3.45422311E-16  1.00082387E-01  8.20848275E-02  2.81316573E-16 -2.42787237E-02
 -4.69235860E-14 -9.32863991E-16  2.50460859E-01 -3.48011655E-14  1.80409642E-16
 -6.88793201E-02  3.89122727E-02  1.71974358E-16 -6.88793201E-02 -3.89122727E-02
 -5.77227534E-17  4.08425853E-15  1.45856906E-01  1.90305256E-16 -2.07833813E-16
 -2.32873282E-01 -3.63782160E-17 -9.39704237E-03  1.21460373E-02 -3.52274102E-17
  9.39704237E-03  1.21460373E-02
ClPar MaxAn                                I              200
ClPar NIntPar                              I               12
ClPar NRealPar                             I               16
ClPar NBits                                I               30
ClPar LenBitVec                            I                1
ClPar Read BitMap                          I   N=         200
           0           0           0           0           0           0
           0           0           0           0           0           0
           0           0           0           0           0           0
           0           0           0           0           0           0
           0           0           0           0           0           0
           0           0           0           0           0           0
           0           0           0           0           0           0
           0           0           0           0           0           0
           0           0           0           0           0           0
           0           0           0           0           0           0
           0           0           0           0           0           0
           0           0           0           0           0           0
           0           0           0           0           0           0
           0           0           0           0           0           0
           0           0           0           0           0           0
           0           0           0           0           0           0
           0           0           0           0           0           0
           0           0           0           0           0           0
           0           0           0           0           0           0
           0           0           0           0           0           0
           0           0           0           0           0           0
           0           0           0           0           0           0
           0           0           0           0           0           0
           0           0           0           0           0           0
           0           0           0           0           0           0
           0           0           0           0           0           0
           0           0           0           0           0           0
           0           0           0           0           0           0
           0           0           0           0           0           0
           0           0           0           0           0           0
           0           0           0           0           0           0
           0           0           0           0           0           0
           0           0           0           0           0           0
           0           0
ClPar Default BitMap                       I   N=         200
      516096      516096      516096      516096      516096      516096
      516096      516096      516096      516096      516096      516096
      516096      516096      516096      516096      516096      516096
      516096      516096      516096      516096      516096      516096
      516096      516096      516096      516096      516096      516096
      516096      516096      516096      516096      516096      516096
      516096      516096      516096      516096      516096      516096
      516096      516096      516096      516096      516096      516096
      516096      516096      516096      516096      516096      516096
      516096      516096      516096      516096      516096      516096
      516096      516096      516096      516096      516096      516096
      516096      516096      516096      516096      516096      516096
      516096      516096      516096      516096      516096      516096
      516096      516096      516096      516096      516096      516096
      516096      516096      122880      122880      122880      122880
      122880      122880      122880      122880      122880      122880
      122880      122880      122880      122880      122880      122880
      122880      122880      122880      122880      122880      122880
      122880      122880      122880      122880      122880      122880
      122880      122880      122880      122880      122880      122880
      122880      122880      122880      122880      122880      122880
      122880      122880      122880      122880      122880      122880
      122880      122880      122880      122880      122880      122880
      122880      122880      122880      122880      122880      122880
      122880      122880      122880      122880      122880      122880
      122880      122880      122880      122880      122880      122880
      122880      122880      122880      122880      122880      122880
      122880      122880      122880      122880      122880      122880
      122880      122880      122880      122880      122880      122880
      122880      122880      122880      122880      122880      122880
      122880      122880      122880      122880      122880      122880
      122880      122880      122880      122880      122880      122880
      122880      122880      122880      122880      122880      122880
      122880      122880
ClPar Int Params                           I   N=        2400
           0           0           0           0           0           0
           0           0           0           0           0           0
           0           0           0           0           0           0
           0           0           0           0           0           0
           0           0           0           0           0           0
           0           0           0           0           0           0
           0           0           0           0           0           0
           0           0           0           0           0           0
           0           0           0           0           0           0
           0           0           0           0           0           0
           0           0           0           0           0           0
           0           0           0           0           0           0
           0           0           0           0           0           0
           0           0           0           0           0           0
           0           0           0           0           0           0
           0           0           0           0           0           0
           0           0           0           0           0           0
           0           0           0           0           0           0
           0           0           0           0           0           0
           0           0           0           0           0           0
           0           0           0           0           0           0
           0           0           0           0           0           0
           0           0           0           0           0           0
           0           0           0           0           0           0
           0           0           0           0           0           0
           0           0           0           0           0           0
           0           0           0           0           0           0
           0           0           0           0           0           0
           0           0           0           0           0           0
           0           0           0           0           0           0
           0           0           0           0           0           0
           0           0           0           0           0           0
           0           0           0           0           0           0
           0           0           0           0           0           0
           0           0           0           0           0           0
           0           0           0           0           0           0
           0           0           0           0           0           0
           0           0           0           0           0           0
           0           0           0           0           0           0
           0           0           0           0           0           0
           0           0           0           0           0           0
           0           0           0           0           0           0
           0           0           0           0           0           0
           0           0           0           0           0           0
           0           0           0           0           0           0
           0           0           0           0           0           0
           0           0           0           0           0           0
           0           0           0           0           0           0
           0           0           0           0           0           0
           0           0           0           0           0           0
           0           0           0           0           0           0
           0           0           0           0           0           0
           0           0           0           0           0           0
           0           0           0           0           0           0
           0           0           0           0           0           0
           0           0           0           0           0           0
           0           0           0           0           0           0
           0           0           0           0           0           0
           0           0           0           0           0           0
           0           0           0           0           0           0
           0           0           0           0           0           0
           0           0           0           0           0           0
           0           0           0           0           0           0
           0           0           0           0           0           0
           0           0           0           0           0           0
           0           0           0           0           0           0
           0           0           0           0           0           0
           0           0           0           0           0           0
           0           0           0           0           0           0
           0           0           0           0           0           0
           0           0           0           0           0           0
           0           0           0           0           0           0
           0           0           0           0           0           0
           0           0           0           0           0           0
           0           0           0           0           0           0
           0           0           0           0           0           0
           0           0           0           0           0           0
           0           0           0           0           0           0
           0           0           0           0           0           0
           0           0           0           0           0           0
           0           0           0           0           0           0
           0           0           0           0           0           0
           0           0           0           0           0           0
           0           0           0           0           0           0
           0           0           0           0           0           0
           0           0           0           0           0           0
           0           0           0           0           0           0
           0           0           0           0           0           0
           0           0           0           0           0           0
           0           0           0           0           0           0
           0           0           0           0           0           0
           0           0           0           0           0           0
           0           0           0           0           0           0
           0           0           0           0           0           0
           0           0           0           0           0           0
           0           0           0           0           0           0
           0           0           0           0           0           0
           0           0           0           0           0           0
           0           0           0           0           0           0
           0           0           0           0           0           0
           0           0           0           0           0           0
           0           0           0           0           0           0
           0           0           0           0           0           0
           0           0           0           0           0           0
           0           0           0           0           0           0
           0           0           0           0           0           0
           0           0           0           0           0           0
           0           0           0           0           0           0
           0           0           0           0           0           0
           0           0           0           0           0           0
           0           0           0           0           0           0
           0           0           0           0           0           0
           0           0           0           0           0           0
           0           0           0           0           0           0
           0           0           0           0           0           0
           0           0           0           0           0           0
           0           0           0           0           0           0
           0           0           0           0           0           0
           0           0           0           0           0           0
           0           0           0           0           0           0
           0           0           0           0           0           0
           0           0           0           0           0           0
           0           0           0           0           0           0
           0           0           0           0           0           0
           0           0           0           0           0           0
           0           0           0           0           0           0
           0           0           0           0           0           0
           0           0           0           0           0           0
           0           0           0           0           0           0
           0           0           0           0           0           0
           0           0           0           0           0           0
           0           0           0           0           0           0
           0           0           0           0           0           0
           0           0           0           0           0           0
           0           0           0           0           0           0
           0           0           0           0           0           0
           0           0           0           0           0           0
           0           0           0           0           0           0
           0           0           0           0           0           0
           0           0           0           0           0           0
           0           0           0           0           0           0
           0           0           0           0           0           0
           0           0           0           0           0           0
           0           0           0           0           0           0
           0           0           0           0           0           0
           0           0           0           0           0           0
           0           0           0           0           0           0
           0           0           0           0           0           0
           0           0           0           0           0           0
           0           0           0           0           0           0
           0           0           0           0           0           0
           0           0           0           0           0           0
           0           0           0           0           0           0
           0           0           0           0           0           0
           0           0           0           0           0           0
           0           0           0           0           0           0
           0           0           0           0           0           0
           0           0           0           0           0           0
           0           0           0           0           0           0
           0           0           0           0           0           0
           0           0           0           0           0           0
           0           0           0           0           0           0
           0           0           0           0           0           0
           0           0           0           0           0           0
           0           0           0           0           0           0
           0           0           0           0           0           0
           0           0           0           0           0           0
           0           0           0           0           0           0
           0           0           0           0           0           0
           0           0           0           0           0           0
           0           0           0           0           0           0
           0           0           0           0           0           0
           0           0           0           0           0           0
           0           0           0           0           0           0
           0           0           0           0           0           0
           0           0           0           0           0           0
           0           0           0           0           0           0
           0           0           0           0           0           0
           0           0           0           0           0           0
           0           0           0           0           0           0
           0           0           0           0           0           0
           0           0           0           0           0           0
           0           0           0           0           0           0
           0           0           0           0           0           0
           0           0           0           0           0           0
           0           0           0           0           0           0
           0           0           0           0           0           0
           0           0           0           0           0           0
           0           0           0           0           0           0
           0           0           0           0           0           0
           0           0           0           0           0           0
           0           0           0           0           0           0
           0           0           0           0           0           0
           0           0           0           0           0           0
           0           0           0           0           0           0
           0           0           0           0           0           0
           0           0           0           0           0           0
           0           0           0           0           0           0
           0           0           0           0           0           0
           0           0           0           0           0           0
           0           0           0           0           0           0
           0           0           0           0           0           0
           0           0           0           0           0           0
           0           0           0           0           0           0
           0           0           0           0           0           0
           0           0           0           0           0           0
           0           0           0           0           0           0
           0           0           0           0           0           0
           0           0           0           0           0           0
           0           0           0           0           0           0
           0           0           0           0           0           0
           0           0           0           0           0           0
           0           0           0           0           0           0
           0           0           0           0           0           0
           0           0           0           0           0           0
           0           0           0           0           0           0
           0           0           0           0           0           0
           0           0           0           0           0           0
           0           0           0           0           0           0
           0           0           0           0           0           0
           0           0           0           0           0           0
           0           0           0           0           0           0
           0           0           0           0           0           0
           0           0           0           0           0           0
           0           0           0           0           0           0
           0           0           0           0           0           0
           0           0           0           0           0           0
           0           0           0           0           0           0
           0           0           0           0           0           0
           0           0           0           0           0           0
           0           0           0           0           0           0
           0           0           0           0           0           0
           0           0           0           0           0           0
           0           0           0           0           0           0
           0           0           0           0           0           0
           0           0           0           0           0           0
           0           0           0           0           0           0
           0           0           0           0           0           0
           0           0           0           0           0           0
           0           0           0           0           0           0
           0           0           0           0           0           0
           0           0           0           0           0           0
           0           0           0           0           0           0
           0           0           0           0           0           0
           0           0           0           0           0           0
           0           0           0           0           0           0
           0           0           0           0           0           0
           0           0           0           0           0           0
           0           0           0           0           0           0
           0           0           0           0           0           0
           0           0           0           0           0           0
           0           0           0           0           0           0
           0           0           0           0           0           0
           0           0           0           0           0           0
           0           0           0           0           0           0
           0           0           0           0           0           0
           0           0           0           0           0           0
           0           0           0           0           0           0
           0           0           0           0           0           0
           0           0           0           0           0           0
           0           0           0           0           0           0
           0           0           0           0           0           0
           0           0           0           0           0           0
           0           0           0           0           0           0
           0           0           0           0           0           0
           0           0           0           0           0           0
           0           0           0           0           0           0
           0           0           0           0           0           0
           0           0           0           0           0           0
           0           0           0           0           0           0
           0           0           0           0           0           0
           0           0           0           0           0           0
           0           0           0           0           0           0
           0           0           0           0           0           0
           0           0           0           0           0           0
           0           0           0           0           0           0
           0           0           0           0           0           0
           0           0           0           0           0           0
           0           0           0           0           0           0
           0           0           0           0           0           0
           0           0           0           0           0           0
           0           0           0           0           0           0
           0           0           0           0           0           0
           0           0           0           0           0           0
           0           0           0           0           0           0
           0           0           0           0           0           0
           0           0           0           0           0           0
           0           0           0           0           0           0
           0           0           0           0           0           0
           0           0           0           0           0           0
           0           0           0           0           0           0
           0           0           0           0           0           0
           0           0           0           0           0           0
           0           0           0           0           0           0
           0           0           0           0           0           0
           0           0           0           0           0           0
           0           0           0           0           0           0
           0           0           0           0           0           0
           0           0           0           0           0           0
           0           0           0           0           0           0
           0           0           0           0           0           0
           0           0           0           0           0           0
           0           0           0           0           0           0
           0           0           0           0           0           0
           0           0           0           0           0           0
           0           0           0           0           0           0
           0           0           0           0           0           0
           0           0           0           0           0           0
           0           0           0           0           0           0
           0           0           0           0           0           0
           0           0           0           0           0           0
           0           0           0           0           0           0
           0           0           0           0           0           0
           0           0           0           0           0           0
           0           0           0           0           0           0
           0           0           0           0           0           0
           0           0           0           0           0           0
           0           0           0           0           0           0
           0           0           0           0           0           0
           0           0           0           0           0           0
           0           0           0           0           0           0
           0           0           0           0           0           0
           0           0           0           0           0           0
           0           0           0           0           0           0
           0           0           0           0           0           0
           0           0           0           0           0           0
           0           0           0           0           0           0
           0           0           0           0           0           0
           0           0           0           0           0           0
           0           0           0           0           0           0
           0           0           0           0           0           0
           0           0           0           0           0           0
           0           0           0           0           0           0
           0           0           0           0           0           0
           0           0           0           0           0           0
           0           0           0           0           0           0
           0           0           0           0           0           0
           0           0           0           0           0           0
           0           0           0           0           0           0
           0           0           0           0           0           0
           0           0           0           0           0           0
           0           0           0           0           0           0
           0           0           0           0           0           0
           0           0           0           0           0           0
           0           0           0           0           0           0
           0           0           0           0           0           0
           0           0           0           0           0           0
           0           0           0           0           0           0
           0           0           0           0           0           0
           0           0           0           0           0           0
           0           0           0           0           0           0
           0           0           0           0           0           0
           0           0           0           0           0           0
           0           0           0           0           0           0
           0           0           0           0           0           0
           0           0           0           0           0           0
           0           0           0           0           0           0
           0           0           0           0           0           0
           0           0           0           0           0           0
           0           0           0           0           0           0
           0           0           0           0           0           0
           0           0           0           0           0           0
           0           0           0           0           0           0
           0           0           0           0           0           0
           0           0           0           0           0           0
           0           0           0           0           0           0
           0           0           0           0           0           0
           0           0           0           0           0           0
           0           0           0           0           0           0
           0           0           0           0           0           0
           0           0           0           0           0           0
           0           0           0           0           0           0
           0           0           0           0           0           0
           0           0           0           0           0           0
           0           0           0           0           0           0
           0           0           0           0           0           0
           0           0           0           0           0           0
           0           0           0           0           0           0
           0           0           0           0           0           0
           0           0           0           0           0           0
           0           0           0           0           0           0
           0           0           0           0           0           0
           0           0           0           0           0           0
           0           0           0           0           0           0
           0           0           0           0           0           0
           0           0           0           0           0           0
           0           0           0           0           0           0
           0           0           0           0           0           0
           0           0           0           0           0           0
           0           0           0           0           0           0
           0           0           0           0           0           0
           0           0           0           0           0           0
           0           0           0           0           0           0
           0           0           0           0           0           0
           0           0           0           0           0           0
           0           0           0           0           0           0
           0           0           0           0           0           0
           0           0           0           0           0           0
           0           0           0           0           0           0
           0           0           0           0           0           0
ClPar Real Params                          R   N=        3200
  0.00000000E+00  0.00000000E+00  0.00000000E+00  0.00000000E+00  0.00000000E+00
  0.00000000E+00  0.00000000E+00  0.00000000E+00  0.00000000E+00  0.00000000E+00
  0.00000000E+00  0.00000000E+00  0.00000000E+00  0.00000000E+00  0.00000000E+00
  0.00000000E+00  0.00000000E+00  0.00000000E+00  0.00000000E+00  0.00000000E+00
  0.00000000E+00  0.00000000E+00  0.00000000E+00  0.00000000E+00  0.00000000E+00
  0.00000000E+00  0.00000000E+00  0.00000000E+00  0.00000000E+00  0.00000000E+00
  0.00000000E+00  0.00000000E+00  0.00000000E+00  0.00000000E+00  0.00000000E+00
  0.00000000E+00  0.00000000E+00  0.00000000E+00  0.00000000E+00  0.00000000E+00
  0.00000000E+00  0.00000000E+00  0.00000000E+00  0.00000000E+00  0.00000000E+00
  0.00000000E+00  0.00000000E+00  0.00000000E+00  0.00000000E+00  0.00000000E+00
  0.00000000E+00  0.00000000E+00  0.00000000E+00  0.00000000E+00  0.00000000E+00
  0.00000000E+00  0.00000000E+00  0.00000000E+00  0.00000000E+00  0.00000000E+00
  0.00000000E+00  0.00000000E+00  0.00000000E+00  0.00000000E+00  0.00000000E+00
  0.00000000E+00  0.00000000E+00  0.00000000E+00  0.00000000E+00  0.00000000E+00
  0.00000000E+00  0.00000000E+00  0.00000000E+00  0.00000000E+00  0.00000000E+00
  0.00000000E+00  0.00000000E+00  0.00000000E+00  0.00000000E+00  0.00000000E+00
  0.00000000E+00  0.00000000E+00  0.00000000E+00  0.00000000E+00  0.00000000E+00
  0.00000000E+00  0.00000000E+00  0.00000000E+00  0.00000000E+00  0.00000000E+00
  0.00000000E+00  0.00000000E+00  0.00000000E+00  0.00000000E+00  0.00000000E+00
  0.00000000E+00  0.00000000E+00  0.00000000E+00  0.00000000E+00  0.00000000E+00
  0.00000000E+00  0.00000000E+00  0.00000000E+00  0.00000000E+00  0.00000000E+00
  0.00000000E+00  0.00000000E+00  0.00000000E+00  0.00000000E+00  0.00000000E+00
  0.00000000E+00  0.00000000E+00  0.00000000E+00  0.00000000E+00  0.00000000E+00
  0.00000000E+00  0.00000000E+00  0.00000000E+00  0.00000000E+00  0.00000000E+00
  0.00000000E+00  0.00000000E+00  0.00000000E+00  0.00000000E+00  0.00000000E+00
  0.00000000E+00  0.00000000E+00  0.00000000E+00  0.00000000E+00  0.00000000E+00
  0.00000000E+00  0.00000000E+00  0.00000000E+00  0.00000000E+00  0.00000000E+00
  0.00000000E+00  0.00000000E+00  0.00000000E+00  0.00000000E+00  0.00000000E+00
  0.00000000E+00  0.00000000E+00  0.00000000E+00  0.00000000E+00  0.00000000E+00
  0.00000000E+00  0.00000000E+00  0.00000000E+00  0.00000000E+00  0.00000000E+00
  0.00000000E+00  0.00000000E+00  0.00000000E+00  0.00000000E+00  0.00000000E+00
  0.00000000E+00  0.00000000E+00  0.00000000E+00  0.00000000E+00  0.00000000E+00
  0.00000000E+00  0.00000000E+00  0.00000000E+00  0.00000000E+00  0.00000000E+00
  0.00000000E+00  0.00000000E+00  0.00000000E+00  0.00000000E+00  0.00000000E+00
  0.00000000E+00  0.00000000E+00  0.00000000E+00  0.00000000E+00  0.00000000E+00
  0.00000000E+00  0.00000000E+00  0.00000000E+00  0.00000000E+00  0.00000000E+00
  0.00000000E+00  0.00000000E+00  0.00000000E+00  0.00000000E+00  0.00000000E+00
  0.00000000E+00  0.00000000E+00  0.00000000E+00  0.00000000E+00  0.00000000E+00
  0.00000000E+00  0.00000000E+00  0.00000000E+00  0.00000000E+00  0.00000000E+00
  0.00000000E+00  0.00000000E+00  0.00000000E+00  0.00000000E+00  0.00000000E+00
  2.26000000E-01  4.43000000E-01  1.01000000E-01  1.47000000E-01  1.92000000E-01
  2.40000000E-01  2.75000000E-01  3.03000000E-01  3.25000000E-01  4.13000000E-01
  9.60000000E-02  1.35000000E-01  1.73000000E-01  2.11000000E-01  2.48000000E-01
  2.86000000E-01  3.23000000E-01  3.60000000E-01  8.20000000E-02  1.04000000E-01
  1.17000000E-01  1.23000000E-01  1.29000000E-01  1.34000000E-01  1.40000000E-01
  1.44000000E-01  1.48000000E-01  1.52000000E-01  1.55000000E-01  1.76000000E-01
  1.98000000E-01  2.19000000E-01  2.39000000E-01  2.60000000E-01  2.80000000E-01
  3.00000000E-01  7.90000000E-02  9.90000000E-02  1.19000000E-01  1.26000000E-01
  1.33000000E-01  1.40000000E-01  1.47000000E-01  1.53000000E-01  1.58000000E-01
  1.63000000E-01  1.57000000E-01  1.70000000E-01  1.87000000E-01  2.03000000E-01
  2.19000000E-01  2.34000000E-01  2.50000000E-01  2.65000000E-01  7.40000000E-02
  9.20000000E-02  1.05000000E-01  1.06000000E-01  1.07000000E-01  1.08000000E-01
  1.09000000E-01  1.10000000E-01  1.11000000E-01  1.12000000E-01  1.13000000E-01
  1.14000000E-01  1.15000000E-01  1.16000000E-01  1.17000000E-01  1.17000000E-01
  1.26000000E-01  1.36000000E-01  1.46000000E-01  1.55000000E-01  1.65000000E-01
  1.73000000E-01  1.82000000E-01  1.90000000E-01  1.62000000E-01  1.78000000E-01
  1.10000000E-01  1.35000000E-01  1.59000000E-01  1.83000000E-01  2.07000000E-01
  2.31000000E-01  6.90000000E-02  9.40000000E-02  1.02000000E-01  1.03000000E-01
  1.05000000E-01  1.07000000E-01  1.09000000E-01  1.11000000E-01  1.13000000E-01
  1.15000000E-01  1.17000000E-01  1.19000000E-01  1.20000000E-01  1.22000000E-01
  1.24000000E-01  1.26000000E-01  1.28000000E-01  1.28000000E-01  1.28000000E-01
  1.28000000E-01  1.28000000E-01  1.28000000E-01  1.28000000E-01  1.28000000E-01
  1.28000000E-01  1.28000000E-01  1.28000000E-01  1.28000000E-01  1.28000000E-01
  1.28000000E-01  1.28000000E-01  1.28000000E-01  1.28000000E-01  1.28000000E-01
  1.28000000E-01  1.28000000E-01  1.28000000E-01  1.28000000E-01  1.28000000E-01
  1.28000000E-01  1.28000000E-01  1.28000000E-01  1.28000000E-01  1.28000000E-01
  1.28000000E-01  1.28000000E-01  1.28000000E-01  1.28000000E-01  1.28000000E-01
  1.28000000E-01  1.28000000E-01  1.28000000E-01  1.28000000E-01  1.28000000E-01
  1.28000000E-01  1.28000000E-01  1.28000000E-01  1.28000000E-01  1.28000000E-01
  1.28000000E-01  1.28000000E-01  1.28000000E-01  1.28000000E-01  1.28000000E-01
  1.28000000E-01  1.28000000E-01  1.28000000E-01  1.28000000E-01  1.28000000E-01
  1.28000000E-01  1.28000000E-01  1.28000000E-01  1.28000000E-01  1.28000000E-01
  1.28000000E-01  1.28000000E-01  1.28000000E-01  1.28000000E-01  1.28000000E-01
  1.28000000E-01  1.28000000E-01  1.28000000E-01  1.28000000E-01  1.28000000E-01
  1.28000000E-01  1.28000000E-01  1.28000000E-01  1.28000000E-01  1.28000000E-01
  1.28000000E-01  1.28000000E-01  1.28000000E-01  1.28000000E-01  1.28000000E-01
  1.28000000E-01  1.28000000E-01  1.28000000E-01  1.28000000E-01  1.28000000E-01
  1.28000000E-01  1.28000000E-01  1.28000000E-01  1.28000000E-01  1.28000000E-01
  1.28000000E-01  1.28000000E-01  1.28000000E-01  1.28000000E-01  1.28000000E-01
  1.28000000E-01  1.28000000E-01  1.28000000E-01  1.28000000E-01  1.28000000E-01
  5.47000000E-01  5.92000000E-01  5.99000000E-01  6.68000000E-01  6.98000000E-01
  7.18000000E-01  7.26000000E-01  7.36000000E-01  7.43000000E-01  7.45000000E-01
  6.07000000E-01  6.66000000E-01  6.93000000E-01  7.09000000E-01  7.20000000E-01
  7.29000000E-01  7.35000000E-01  7.40000000E-01  6.08000000E-01  7.34000000E-01
  7.46000000E-01  7.55000000E-01  7.61000000E-01  7.65000000E-01  7.67000000E-01
  7.60000000E-01  7.49000000E-01  7.33000000E-01  7.08000000E-01  6.48000000E-01
  6.88000000E-01  7.09000000E-01  7.22000000E-01  7.31000000E-01  7.38000000E-01
  7.44000000E-01  6.09000000E-01  7.30000000E-01  7.41000000E-01  7.52000000E-01
  7.58000000E-01  7.63000000E-01  7.66000000E-01  7.58000000E-01  7.48000000E-01
  7.33000000E-01  7.01000000E-01  6.45000000E-01  6.86000000E-01  7.08000000E-01
  7.22000000E-01  7.31000000E-01  7.38000000E-01  7.44000000E-01  6.08000000E-01
  7.28000000E-01  7.32000000E-01  7.32000000E-01  7.32000000E-01  7.32000000E-01
  7.32000000E-01  7.32000000E-01  7.32000000E-01  7.32000000E-01  7.32000000E-01
  7.31000000E-01  7.31000000E-01  7.31000000E-01  7.31000000E-01  7.46000000E-01
  7.37000000E-01  7.46000000E-01  7.51000000E-01  7.55000000E-01  7.58000000E-01
  7.47000000E-01  7.32000000E-01  7.11000000E-01  7.41000000E-01  7.07000000E-01
  7.47000000E-01  7.43000000E-01  7.42000000E-01  7.42000000E-01  7.43000000E-01
  7.44000000E-01  6.05000000E-01  7.24000000E-01  7.26000000E-01  7.26000000E-01
  7.27000000E-01  7.27000000E-01  7.27000000E-01  7.28000000E-01  7.28000000E-01
  7.28000000E-01  7.28000000E-01  7.28000000E-01  7.29000000E-01  7.29000000E-01
  7.29000000E-01  7.29000000E-01  7.29000000E-01  7.29000000E-01  7.29000000E-01
  7.29000000E-01  7.29000000E-01  7.29000000E-01  7.29000000E-01  7.29000000E-01
  7.29000000E-01  7.29000000E-01  7.29000000E-01  7.29000000E-01  7.29000000E-01
  7.29000000E-01  7.29000000E-01  7.29000000E-01  7.29000000E-01  7.29000000E-01
  7.29000000E-01  7.29000000E-01  7.29000000E-01  7.29000000E-01  7.29000000E-01
  7.29000000E-01  7.29000000E-01  7.29000000E-01  7.29000000E-01  7.29000000E-01
  7.29000000E-01  7.29000000E-01  7.29000000E-01  7.29000000E-01  7.29000000E-01
  7.29000000E-01  7.29000000E-01  7.29000000E-01  7.29000000E-01  7.29000000E-01
  7.29000000E-01  7.29000000E-01  7.29000000E-01  7.29000000E-01  7.29000000E-01
  7.29000000E-01  7.29000000E-01  7.29000000E-01  7.29000000E-01  7.29000000E-01
  7.29000000E-01  7.29000000E-01  7.29000000E-01  7.29000000E-01  7.29000000E-01
  7.29000000E-01  7.29000000E-01  7.29000000E-01  7.29000000E-01  7.29000000E-01
  7.29000000E-01  7.29000000E-01  7.29000000E-01  7.29000000E-01  7.29000000E-01
  7.29000000E-01  7.29000000E-01  7.29000000E-01  7.29000000E-01  7.29000000E-01
  7.29000000E-01  7.29000000E-01  7.29000000E-01  7.29000000E-01  7.29000000E-01
  7.29000000E-01  7.29000000E-01  7.29000000E-01  7.29000000E-01  7.29000000E-01
  7.29000000E-01  7.29000000E-01  7.29000000E-01  7.29000000E-01  7.29000000E-01
  7.29000000E-01  7.29000000E-01  7.29000000E-01  7.29000000E-01  7.29000000E-01
  7.29000000E-01  7.29000000E-01  7.29000000E-01  7.29000000E-01  7.29000000E-01
  7.29000000E-01  7.29000000E-01  7.29000000E-01  7.29000000E-01  7.29000000E-01
  1.00000000E+00  1.70400000E+00  3.23000000E-01  3.89000000E-01  4.67000000E-01
  5.67000000E-01  6.36000000E-01  6.64000000E-01  6.96000000E-01  8.79000000E-01
  3.07000000E-01  3.48000000E-01  4.00000000E-01  4.54000000E-01  5.09000000E-01
  5.65000000E-01  6.21000000E-01  6.77000000E-01  2.56000000E-01  3.50000000E-01
  3.64000000E-01  3.62000000E-01  3.62000000E-01  3.62000000E-01  3.62000000E-01
  3.65000000E-01  3.69000000E-01  3.75000000E-01  3.86000000E-01  4.46000000E-01
  4.55000000E-01  4.74000000E-01  4.96000000E-01  5.20000000E-01  5.45000000E-01
  5.70000000E-01  2.45000000E-01  3.22000000E-01  3.55000000E-01  3.59000000E-01
  3.64000000E-01  3.70000000E-01  3.76000000E-01  3.85000000E-01  3.95000000E-01
  4.08000000E-01  3.76000000E-01  4.23000000E-01  4.22000000E-01  4.32000000E-01
  4.45000000E-01  4.59000000E-01  4.75000000E-01  4.91000000E-01  2.28000000E-01
  2.92000000E-01  2.89000000E-01  2.92000000E-01  2.95000000E-01  2.98000000E-01
  3.00000000E-01  3.03000000E-01  3.06000000E-01  3.09000000E-01  3.12000000E-01
  3.15000000E-01  3.18000000E-01  3.21000000E-01  3.24000000E-01  3.61000000E-01
  3.69000000E-01  3.70000000E-01  3.72000000E-01  3.75000000E-01  3.78000000E-01
  3.85000000E-01  3.94000000E-01  4.07000000E-01  5.26000000E-01  6.21000000E-01
  3.36000000E-01  3.54000000E-01  3.71000000E-01  3.86000000E-01  4.02000000E-01
  4.17000000E-01  2.09000000E-01  2.94000000E-01  2.65000000E-01  2.72000000E-01
  2.78000000E-01  2.84000000E-01  2.91000000E-01  2.97000000E-01  3.03000000E-01
  3.10000000E-01  3.16000000E-01  3.22000000E-01  3.29000000E-01  3.35000000E-01
  3.41000000E-01  3.48000000E-01  3.54000000E-01  3.54000000E-01  3.54000000E-01
  3.54000000E-01  3.54000000E-01  3.54000000E-01  3.54000000E-01  3.54000000E-01
  3.54000000E-01  3.54000000E-01  3.54000000E-01  3.54000000E-01  3.54000000E-01
  3.54000000E-01  3.54000000E-01  3.54000000E-01  3.54000000E-01  3.54000000E-01
  3.54000000E-01  3.54000000E-01  3.54000000E-01  3.54000000E-01  3.54000000E-01
  3.54000000E-01  3.54000000E-01  3.54000000E-01  3.54000000E-01  3.54000000E-01
  3.54000000E-01  3.54000000E-01  3.54000000E-01  3.54000000E-01  3.54000000E-01
  3.54000000E-01  3.54000000E-01  3.54000000E-01  3.54000000E-01  3.54000000E-01
  3.54000000E-01  3.54000000E-01  3.54000000E-01  3.54000000E-01  3.54000000E-01
  3.54000000E-01  3.54000000E-01  3.54000000E-01  3.54000000E-01  3.54000000E-01
  3.54000000E-01  3.54000000E-01  3.54000000E-01  3.54000000E-01  3.54000000E-01
  3.54000000E-01  3.54000000E-01  3.54000000E-01  3.54000000E-01  3.54000000E-01
  3.54000000E-01  3.54000000E-01  3.54000000E-01  3.54000000E-01  3.54000000E-01
  3.54000000E-01  3.54000000E-01  3.54000000E-01  3.54000000E-01  3.54000000E-01
  3.54000000E-01  3.54000000E-01  3.54000000E-01  3.54000000E-01  3.54000000E-01
  3.54000000E-01  3.54000000E-01  3.54000000E-01  3.54000000E-01  3.54000000E-01
  3.54000000E-01  3.54000000E-01  3.54000000E-01  3.54000000E-01  3.54000000E-01
  3.54000000E-01  3.54000000E-01  3.54000000E-01  3.54000000E-01  3.54000000E-01
  3.54000000E-01  3.54000000E-01  3.54000000E-01  3.54000000E-01  3.54000000E-01
  3.54000000E-01  3.54000000E-01  3.54000000E-01  3.54000000E-01  3.54000000E-01
  2.74000000E-01  2.96000000E-01  5.80000000E-02  4.40000000E-02  3.90000000E-02
  3.90000000E-02  3.60000000E-02  3.20000000E-02  2.90000000E-02  3.30000000E-02
  5.50000000E-02  3.90000000E-02  3.30000000E-02  3.00000000E-02  2.80000000E-02
  2.60000000E-02  2.50000000E-02  2.50000000E-02  4.50000000E-02  4.40000000E-02
  3.30000000E-02  2.50000000E-02  2.10000000E-02  1.80000000E-02  1.50000000E-02
  1.80000000E-02  2.10000000E-02  2.50000000E-02  3.30000000E-02  5.00000000E-02
  3.80000000E-02  3.10000000E-02  2.70000000E-02  2.40000000E-02  2.20000000E-02
  2.10000000E-02  4.30000000E-02  4.00000000E-02  3.20000000E-02  2.50000000E-02
  2.10000000E-02  1.80000000E-02  1.60000000E-02  1.90000000E-02  2.20000000E-02
  2.80000000E-02  3.10000000E-02  4.70000000E-02  3.40000000E-02  2.80000000E-02
  2.40000000E-02  2.10000000E-02  1.90000000E-02  1.80000000E-02  3.90000000E-02
  3.60000000E-02  2.50000000E-02  2.50000000E-02  2.50000000E-02  2.60000000E-02
  2.60000000E-02  2.60000000E-02  2.70000000E-02  2.70000000E-02  2.70000000E-02
  2.70000000E-02  2.80000000E-02  2.80000000E-02  2.80000000E-02  3.30000000E-02
  3.30000000E-02  2.60000000E-02  2.10000000E-02  1.80000000E-02  1.60000000E-02
  1.80000000E-02  2.20000000E-02  2.60000000E-02  4.90000000E-02  8.20000000E-02
  3.00000000E-02  2.40000000E-02  2.10000000E-02  1.80000000E-02  1.60000000E-02
  1.50000000E-02  3.50000000E-02  3.60000000E-02  2.20000000E-02  2.30000000E-02
  2.40000000E-02  2.40000000E-02  2.50000000E-02  2.50000000E-02  2.60000000E-02
  2.70000000E-02  2.70000000E-02  2.80000000E-02  2.80000000E-02  2.90000000E-02
  3.00000000E-02  3.00000000E-02  3.10000000E-02  3.10000000E-02  3.10000000E-02
  3.10000000E-02  3.10000000E-02  3.10000000E-02  3.10000000E-02  3.10000000E-02
  3.10000000E-02  3.10000000E-02  3.10000000E-02  3.10000000E-02  3.10000000E-02
  3.10000000E-02  3.10000000E-02  3.10000000E-02  3.10000000E-02  3.10000000E-02
  3.10000000E-02  3.10000000E-02  3.10000000E-02  3.10000000E-02  3.10000000E-02
  3.10000000E-02  3.10000000E-02  3.10000000E-02  3.10000000E-02  3.10000000E-02
  3.10000000E-02  3.10000000E-02  3.10000000E-02  3.10000000E-02  3.10000000E-02
  3.10000000E-02  3.10000000E-02  3.10000000E-02  3.10000000E-02  3.10000000E-02
  3.10000000E-02  3.10000000E-02  3.10000000E-02  3.10000000E-02  3.10000000E-02
  3.10000000E-02  3.10000000E-02  3.10000000E-02  3.10000000E-02  3.10000000E-02
  3.10000000E-02  3.10000000E-02  3.10000000E-02  3.10000000E-02  3.10000000E-02
  3.10000000E-02  3.10000000E-02  3.10000000E-02  3.10000000E-02  3.10000000E-02
  3.10000000E-02  3.10000000E-02  3.10000000E-02  3.10000000E-02  3.10000000E-02
  3.10000000E-02  3.10000000E-02  3.10000000E-02  3.10000000E-02  3.10000000E-02
  3.10000000E-02  3.10000000E-02  3.10000000E-02  3.10000000E-02  3.10000000E-02
  3.10000000E-02  3.10000000E-02  3.10000000E-02  3.10000000E-02  3.10000000E-02
  3.10000000E-02  3.10000000E-02  3.10000000E-02  3.10000000E-02  3.10000000E-02
  3.10000000E-02  3.10000000E-02  3.10000000E-02  3.10000000E-02  3.10000000E-02
  3.10000000E-02  3.10000000E-02  3.10000000E-02  3.10000000E-02  3.10000000E-02
  3.10000000E-02  3.10000000E-02  3.10000000E-02  3.10000000E-02  3.10000000E-02
 -5.92770000E-01 -9.17860000E-01 -2.48668000E+00 -8.36430000E-01 -3.18470000E-01
 -4.55790000E-01 -5.70730000E-01 -6.77940000E-01 -7.69860000E-01 -8.51140000E-01
 -1.51908000E+00 -3.18830000E-01 -2.17900000E-01 -3.01260000E-01 -3.72750000E-01
 -4.15890000E-01 -4.45930000E-01 -5.91320000E-01 -9.56370000E-01 -2.88450000E-01
 -4.87320000E-01 -6.34280000E-01 -7.17490000E-01 -7.91980000E-01 -8.68490000E-01
 -9.17520000E-01 -9.54890000E-01 -9.88460000E-01 -1.50055000E+00 -2.92560000E-01
 -2.14960000E-01 -2.91180000E-01 -3.42080000E-01 -3.84480000E-01 -4.34940000E-01
 -5.24310000E-01 -8.10070000E-01 -2.58460000E-01 -4.35550000E-01 -5.32740000E-01
 -6.08450000E-01 -6.10260000E-01 -7.58920000E-01 -8.90130000E-01 -8.45780000E-01
 -8.69340000E-01 -1.38234000E+00 -2.64850000E-01 -1.97280000E-01 -2.65040000E-01
 -2.94470000E-01 -3.16570000E-01 -3.63590000E-01 -4.57840000E-01 -8.61830000E-01
 -1.33004000E+00 -6.82880000E-01 -6.25540000E-01 -6.35430000E-01 -8.79690000E-01
 -9.02690000E-01 -9.59650000E-01 -1.01869000E+00 -6.81170000E-01 -7.96500000E-01
 -9.04950000E-01 -8.34790000E-01 -9.01560000E-01 -9.74130000E-01 -1.03326000E+00
 -7.15490000E-01 -7.83960000E-01 -8.28380000E-01 -5.61040000E-01 -1.03841000E+00
 -8.62500000E-01 -9.59300000E-01 -1.01755000E+00 -7.64900000E-01 -1.29467000E+00
 -1.92740000E-01 -2.56010000E-01 -3.19820000E-01 -1.94660000E-01 -2.60090000E-01
 -4.27990000E-01  0.00000000E+00  0.00000000E+00  0.00000000E+00  0.00000000E+00
  0.00000000E+00  0.00000000E+00  0.00000000E+00  0.00000000E+00  0.00000000E+00
  0.00000000E+00  0.00000000E+00  0.00000000E+00  0.00000000E+00  0.00000000E+00
  0.00000000E+00  0.00000000E+00  0.00000000E+00  0.00000000E+00  0.00000000E+00
  0.00000000E+00  0.00000000E+00  0.00000000E+00  0.00000000E+00  0.00000000E+00
  0.00000000E+00  0.00000000E+00  0.00000000E+00  0.00000000E+00  0.00000000E+00
  0.00000000E+00  0.00000000E+00  0.00000000E+00  0.00000000E+00  0.00000000E+00
  0.00000000E+00  0.00000000E+00  0.00000000E+00  0.00000000E+00  0.00000000E+00
  0.00000000E+00  0.00000000E+00  0.00000000E+00  0.00000000E+00  0.00000000E+00
  0.00000000E+00  0.00000000E+00  0.00000000E+00  0.00000000E+00  0.00000000E+00
  0.00000000E+00  0.00000000E+00  0.00000000E+00  0.00000000E+00  0.00000000E+00
  0.00000000E+00  0.00000000E+00  0.00000000E+00  0.00000000E+00  0.00000000E+00
  0.00000000E+00  0.00000000E+00  0.00000000E+00  0.00000000E+00  0.00000000E+00
  0.00000000E+00  0.00000000E+00  0.00000000E+00  0.00000000E+00  0.00000000E+00
  0.00000000E+00  0.00000000E+00  0.00000000E+00  0.00000000E+00  0.00000000E+00
  0.00000000E+00  0.00000000E+00  0.00000000E+00  0.00000000E+00  0.00000000E+00
  0.00000000E+00  0.00000000E+00  0.00000000E+00  0.00000000E+00  0.00000000E+00
  0.00000000E+00  0.00000000E+00  0.00000000E+00  0.00000000E+00  0.00000000E+00
  0.00000000E+00  0.00000000E+00  0.00000000E+00  0.00000000E+00  0.00000000E+00
  0.00000000E+00  0.00000000E+00  0.00000000E+00  0.00000000E+00  0.00000000E+00
  0.00000000E+00  0.00000000E+00  0.00000000E+00  0.00000000E+00  0.00000000E+00
  0.00000000E+00  0.00000000E+00  0.00000000E+00  0.00000000E+00  0.00000000E+00
  0.00000000E+00  0.00000000E+00  0.00000000E+00  0.00000000E+00  0.00000000E+00
  1.90440000E+00  1.36430000E+00  4.84000000E-01  7.31600000E+00  9.24030000E+00
  8.78200000E+00  5.61290000E+00  4.83340000E+00  3.24870000E+00  2.71090000E+00
  2.01130000E+00  1.50282000E+01  1.46788000E+01  2.13546000E+01  2.38290000E+01
  1.98022000E+01  1.50468000E+01  1.09745000E+01  1.27219000E+01  1.51949000E+01
  1.57342000E+01  2.79222000E+01  1.61366000E+01  2.21252000E+01  2.45676000E+01
  1.96016000E+01  1.79818000E+01  1.72396000E+01  5.01500000E+00  1.92898000E+01
  2.34477000E+01  2.23993000E+01  2.96586000E+01  2.60081000E+01  2.15580000E+01
  1.69594000E+01  1.56479000E+01  1.86897000E+01  1.93530000E+01  3.43444000E+01
  1.98480000E+01  2.72140000E+01  3.02182000E+01  2.41099000E+01  2.21176000E+01
  2.12047000E+01  7.56690000E+00  2.37264000E+01  2.93879000E+01  3.01278000E+01
  4.19382000E+01  3.85203000E+01  3.39511000E+01  2.75774000E+01  1.56460000E+01
  1.04460000E+01  2.01830000E+01  4.99540000E+01  4.76430000E+01  1.18690000E+01
  1.08670000E+01  9.96100000E+00  9.18700000E+00  3.67980000E+01  1.34070000E+01
  9.38200000E+00  9.81700000E+00  8.90800000E+00  8.40700000E+00  8.05800000E+00
  1.29600000E+01  2.67920000E+01  2.49300000E+01  3.45630000E+01  1.11860000E+01
  1.09440000E+01  1.01270000E+01  9.40400000E+00  1.36660000E+01  7.81000000E+00
  6.93600000E+01  5.86630000E+01  4.79690000E+01  4.52740000E+01  3.92290000E+01
  3.30660000E+01  0.00000000E+00  0.00000000E+00  0.00000000E+00  0.00000000E+00
  0.00000000E+00  0.00000000E+00  0.00000000E+00  0.00000000E+00  0.00000000E+00
  0.00000000E+00  0.00000000E+00  0.00000000E+00  0.00000000E+00  0.00000000E+00
  0.00000000E+00  0.00000000E+00  0.00000000E+00  0.00000000E+00  0.00000000E+00
  0.00000000E+00  0.00000000E+00  0.00000000E+00  0.00000000E+00  0.00000000E+00
  0.00000000E+00  0.00000000E+00  0.00000000E+00  0.00000000E+00  0.00000000E+00
  0.00000000E+00  0.00000000E+00  0.00000000E+00  0.00000000E+00  0.00000000E+00
  0.00000000E+00  0.00000000E+00  0.00000000E+00  0.00000000E+00  0.00000000E+00
  0.00000000E+00  0.00000000E+00  0.00000000E+00  0.00000000E+00  0.00000000E+00
  0.00000000E+00  0.00000000E+00  0.00000000E+00  0.00000000E+00  0.00000000E+00
  0.00000000E+00  0.00000000E+00  0.00000000E+00  0.00000000E+00  0.00000000E+00
  0.00000000E+00  0.00000000E+00  0.00000000E+00  0.00000000E+00  0.00000000E+00
  0.00000000E+00  0.00000000E+00  0.00000000E+00  0.00000000E+00  0.00000000E+00
  0.00000000E+00  0.00000000E+00  0.00000000E+00  0.00000000E+00  0.00000000E+00
  0.00000000E+00  0.00000000E+00  0.00000000E+00  0.00000000E+00  0.00000000E+00
  0.00000000E+00  0.00000000E+00  0.00000000E+00  0.00000000E+00  0.00000000E+00
  0.00000000E+00  0.00000000E+00  0.00000000E+00  0.00000000E+00  0.00000000E+00
  0.00000000E+00  0.00000000E+00  0.00000000E+00  0.00000000E+00  0.00000000E+00
  0.00000000E+00  0.00000000E+00  0.00000000E+00  0.00000000E+00  0.00000000E+00
  0.00000000E+00  0.00000000E+00  0.00000000E+00  0.00000000E+00  0.00000000E+00
  0.00000000E+00  0.00000000E+00  0.00000000E+00  0.00000000E+00  0.00000000E+00
  0.00000000E+00  0.00000000E+00  0.00000000E+00  0.00000000E+00  0.00000000E+00
  0.00000000E+00  0.00000000E+00  0.00000000E+00  0.00000000E+00  0.00000000E+00
  0.00000000E+00  0.00000000E+00  0.00000000E+00  0.00000000E+00  0.00000000E+00
  0.00000000E+00  0.00000000E+00  0.00000000E+00  0.00000000E+00  0.00000000E+00
  0.00000000E+00  0.00000000E+00  0.00000000E+00  0.00000000E+00  0.00000000E+00
  0.00000000E+00  0.00000000E+00  0.00000000E+00  0.00000000E+00  0.00000000E+00
  0.00000000E+00  0.00000000E+00  0.00000000E+00  0.00000000E+00  0.00000000E+00
  0.00000000E+00  0.00000000E+00  0.00000000E+00  0.00000000E+00  0.00000000E+00
  0.00000000E+00  0.00000000E+00  0.00000000E+00  0.00000000E+00  0.00000000E+00
  0.00000000E+00  0.00000000E+00  0.00000000E+00  0.00000000E+00  0.00000000E+00
  0.00000000E+00  0.00000000E+00  0.00000000E+00  0.00000000E+00  0.00000000E+00
  0.00000000E+00  0.00000000E+00  0.00000000E+00  0.00000000E+00  0.00000000E+00
  0.00000000E+00  0.00000000E+00  0.00000000E+00  0.00000000E+00  0.00000000E+00
  0.00000000E+00  0.00000000E+00  0.00000000E+00  0.00000000E+00  0.00000000E+00
  0.00000000E+00  0.00000000E+00  0.00000000E+00  0.00000000E+00  0.00000000E+00
  0.00000000E+00  0.00000000E+00  0.00000000E+00  0.00000000E+00  0.00000000E+00
  0.00000000E+00  0.00000000E+00  0.00000000E+00  0.00000000E+00  0.00000000E+00
  0.00000000E+00  0.00000000E+00  0.00000000E+00  0.00000000E+00  0.00000000E+00
  0.00000000E+00  0.00000000E+00  0.00000000E+00  0.00000000E+00  0.00000000E+00
  0.00000000E+00  0.00000000E+00  0.00000000E+00  0.00000000E+00  0.00000000E+00
  0.00000000E+00  0.00000000E+00  0.00000000E+00  0.00000000E+00  0.00000000E+00
  0.00000000E+00  0.00000000E+00  0.00000000E+00  0.00000000E+00  0.00000000E+00
  0.00000000E+00  0.00000000E+00  0.00000000E+00  0.00000000E+00  0.00000000E+00
  0.00000000E+00  0.00000000E+00  0.00000000E+00  0.00000000E+00  0.00000000E+00
  0.00000000E+00  0.00000000E+00  0.00000000E+00  0.00000000E+00  0.00000000E+00
  0.00000000E+00  0.00000000E+00  0.00000000E+00  0.00000000E+00  0.00000000E+00
  0.00000000E+00  0.00000000E+00  0.00000000E+00  0.00000000E+00  0.00000000E+00
  0.00000000E+00  0.00000000E+00  0.00000000E+00  0.00000000E+00  0.00000000E+00
  0.00000000E+00  0.00000000E+00  0.00000000E+00  0.00000000E+00  0.00000000E+00
  0.00000000E+00  0.00000000E+00  0.00000000E+00  0.00000000E+00  0.00000000E+00
  0.00000000E+00  0.00000000E+00  0.00000000E+00  0.00000000E+00  0.00000000E+00
  0.00000000E+00  0.00000000E+00  0.00000000E+00  0.00000000E+00  0.00000000E+00
  0.00000000E+00  0.00000000E+00  0.00000000E+00  0.00000000E+00  0.00000000E+00
  0.00000000E+00  0.00000000E+00  0.00000000E+00  0.00000000E+00  0.00000000E+00
  0.00000000E+00  0.00000000E+00  0.00000000E+00  0.00000000E+00  0.00000000E+00
  0.00000000E+00  0.00000000E+00  0.00000000E+00  0.00000000E+00  0.00000000E+00
  0.00000000E+00  0.00000000E+00  0.00000000E+00  0.00000000E+00  0.00000000E+00
  0.00000000E+00  0.00000000E+00  0.00000000E+00  0.00000000E+00  0.00000000E+00
  0.00000000E+00  0.00000000E+00  0.00000000E+00  0.00000000E+00  0.00000000E+00
  0.00000000E+00  0.00000000E+00  0.00000000E+00  0.00000000E+00  0.00000000E+00
  0.00000000E+00  0.00000000E+00  0.00000000E+00  0.00000000E+00  0.00000000E+00
  0.00000000E+00  0.00000000E+00  0.00000000E+00  0.00000000E+00  0.00000000E+00
  0.00000000E+00  0.00000000E+00  0.00000000E+00  0.00000000E+00  0.00000000E+00
  0.00000000E+00  0.00000000E+00  0.00000000E+00  0.00000000E+00  0.00000000E+00
  0.00000000E+00  0.00000000E+00  0.00000000E+00  0.00000000E+00  0.00000000E+00
  0.00000000E+00  0.00000000E+00  0.00000000E+00  0.00000000E+00  0.00000000E+00
  0.00000000E+00  0.00000000E+00  0.00000000E+00  0.00000000E+00  0.00000000E+00
  0.00000000E+00  0.00000000E+00  0.00000000E+00  0.00000000E+00  0.00000000E+00
  0.00000000E+00  0.00000000E+00  0.00000000E+00  0.00000000E+00  0.00000000E+00
  0.00000000E+00  0.00000000E+00  0.00000000E+00  0.00000000E+00  0.00000000E+00
  0.00000000E+00  0.00000000E+00  0.00000000E+00  0.00000000E+00  0.00000000E+00
  0.00000000E+00  0.00000000E+00  0.00000000E+00  0.00000000E+00  0.00000000E+00
  0.00000000E+00  0.00000000E+00  0.00000000E+00  0.00000000E+00  0.00000000E+00
  0.00000000E+00  0.00000000E+00  0.00000000E+00  0.00000000E+00  0.00000000E+00
  0.00000000E+00  0.00000000E+00  0.00000000E+00  0.00000000E+00  0.00000000E+00
  0.00000000E+00  0.00000000E+00  0.00000000E+00  0.00000000E+00  0.00000000E+00
  0.00000000E+00  0.00000000E+00  0.00000000E+00  0.00000000E+00  0.00000000E+00
  0.00000000E+00  0.00000000E+00  0.00000000E+00  0.00000000E+00  0.00000000E+00
  0.00000000E+00  0.00000000E+00  0.00000000E+00  0.00000000E+00  0.00000000E+00
  0.00000000E+00  0.00000000E+00  0.00000000E+00  0.00000000E+00  0.00000000E+00
  0.00000000E+00  0.00000000E+00  0.00000000E+00  0.00000000E+00  0.00000000E+00
  0.00000000E+00  0.00000000E+00  0.00000000E+00  0.00000000E+00  0.00000000E+00
  0.00000000E+00  0.00000000E+00  0.00000000E+00  0.00000000E+00  0.00000000E+00
  0.00000000E+00  0.00000000E+00  0.00000000E+00  0.00000000E+00  0.00000000E+00
  0.00000000E+00  0.00000000E+00  0.00000000E+00  0.00000000E+00  0.00000000E+00
  0.00000000E+00  0.00000000E+00  0.00000000E+00  0.00000000E+00  0.00000000E+00
  0.00000000E+00  0.00000000E+00  0.00000000E+00  0.00000000E+00  0.00000000E+00
  0.00000000E+00  0.00000000E+00  0.00000000E+00  0.00000000E+00  0.00000000E+00
  0.00000000E+00  0.00000000E+00  0.00000000E+00  0.00000000E+00  0.00000000E+00
  0.00000000E+00  0.00000000E+00  0.00000000E+00  0.00000000E+00  0.00000000E+00
  0.00000000E+00  0.00000000E+00  0.00000000E+00  0.00000000E+00  0.00000000E+00
  0.00000000E+00  0.00000000E+00  0.00000000E+00  0.00000000E+00  0.00000000E+00
  0.00000000E+00  0.00000000E+00  0.00000000E+00  0.00000000E+00  0.00000000E+00
  0.00000000E+00  0.00000000E+00  0.00000000E+00  0.00000000E+00  0.00000000E+00
  0.00000000E+00  0.00000000E+00  0.00000000E+00  0.00000000E+00  0.00000000E+00
  0.00000000E+00  0.00000000E+00  0.00000000E+00  0.00000000E+00  0.00000000E+00
  0.00000000E+00  0.00000000E+00  0.00000000E+00  0.00000000E+00  0.00000000E+00
  0.00000000E+00  0.00000000E+00  0.00000000E+00  0.00000000E+00  0.00000000E+00
  0.00000000E+00  0.00000000E+00  0.00000000E+00  0.00000000E+00  0.00000000E+00
  0.00000000E+00  0.00000000E+00  0.00000000E+00  0.00000000E+00  0.00000000E+00
  0.00000000E+00  0.00000000E+00  0.00000000E+00  0.00000000E+00  0.00000000E+00
  0.00000000E+00  0.00000000E+00  0.00000000E+00  0.00000000E+00  0.00000000E+00
  0.00000000E+00  0.00000000E+00  0.00000000E+00  0.00000000E+00  0.00000000E+00
  0.00000000E+00  0.00000000E+00  0.00000000E+00  0.00000000E+00  0.00000000E+00
  0.00000000E+00  0.00000000E+00  0.00000000E+00  0.00000000E+00  0.00000000E+00
  0.00000000E+00  0.00000000E+00  0.00000000E+00  0.00000000E+00  0.00000000E+00
  0.00000000E+00  0.00000000E+00  0.00000000E+00  0.00000000E+00  0.00000000E+00
  0.00000000E+00  0.00000000E+00  0.00000000E+00  0.00000000E+00  0.00000000E+00
  0.00000000E+00  0.00000000E+00  0.00000000E+00  0.00000000E+00  0.00000000E+00
  0.00000000E+00  0.00000000E+00  0.00000000E+00  0.00000000E+00  0.00000000E+00
  0.00000000E+00  0.00000000E+00  0.00000000E+00  0.00000000E+00  0.00000000E+00
  0.00000000E+00  0.00000000E+00  0.00000000E+00  0.00000000E+00  0.00000000E+00
  0.00000000E+00  0.00000000E+00  0.00000000E+00  0.00000000E+00  0.00000000E+00
  0.00000000E+00  0.00000000E+00  0.00000000E+00  0.00000000E+00  0.00000000E+00
  0.00000000E+00  0.00000000E+00  0.00000000E+00  0.00000000E+00  0.00000000E+00
  0.00000000E+00  0.00000000E+00  0.00000000E+00  0.00000000E+00  0.00000000E+00
  0.00000000E+00  0.00000000E+00  0.00000000E+00  0.00000000E+00  0.00000000E+00
  0.00000000E+00  0.00000000E+00  0.00000000E+00  0.00000000E+00  0.00000000E+00
  0.00000000E+00  0.00000000E+00  0.00000000E+00  0.00000000E+00  0.00000000E+00
  0.00000000E+00  0.00000000E+00  0.00000000E+00  0.00000000E+00  0.00000000E+00
  0.00000000E+00  0.00000000E+00  0.00000000E+00  0.00000000E+00  0.00000000E+00
  0.00000000E+00  0.00000000E+00  0.00000000E+00  0.00000000E+00  0.00000000E+00
  0.00000000E+00  0.00000000E+00  0.00000000E+00  0.00000000E+00  0.00000000E+00
  0.00000000E+00  0.00000000E+00  0.00000000E+00  0.00000000E+00  0.00000000E+00
  0.00000000E+00  0.00000000E+00  0.00000000E+00  0.00000000E+00  0.00000000E+00
  0.00000000E+00  0.00000000E+00  0.00000000E+00  0.00000000E+00  0.00000000E+00
  0.00000000E+00  0.00000000E+00  0.00000000E+00  0.00000000E+00  0.00000000E+00
  0.00000000E+00  0.00000000E+00  0.00000000E+00  0.00000000E+00  0.00000000E+00
  0.00000000E+00  0.00000000E+00  0.00000000E+00  0.00000000E+00  0.00000000E+00
  0.00000000E+00  0.00000000E+00  0.00000000E+00  0.00000000E+00  0.00000000E+00
  0.00000000E+00  0.00000000E+00  0.00000000E+00  0.00000000E+00  0.00000000E+00
  0.00000000E+00  0.00000000E+00  0.00000000E+00  0.00000000E+00  0.00000000E+00
  0.00000000E+00  0.00000000E+00  0.00000000E+00  0.00000000E+00  0.00000000E+00
  0.00000000E+00  0.00000000E+00  0.00000000E+00  0.00000000E+00  0.00000000E+00
  0.00000000E+00  0.00000000E+00  0.00000000E+00  0.00000000E+00  0.00000000E+00
  0.00000000E+00  0.00000000E+00  0.00000000E+00  0.00000000E+00  0.00000000E+00
  0.00000000E+00  0.00000000E+00  0.00000000E+00  0.00000000E+00  0.00000000E+00
  0.00000000E+00  0.00000000E+00  0.00000000E+00  0.00000000E+00  0.00000000E+00
  0.00000000E+00  0.00000000E+00  0.00000000E+00  0.00000000E+00  0.00000000E+00
  0.00000000E+00  0.00000000E+00  0.00000000E+00  0.00000000E+00  0.00000000E+00
  0.00000000E+00  0.00000000E+00  0.00000000E+00  0.00000000E+00  0.00000000E+00
  0.00000000E+00  0.00000000E+00  0.00000000E+00  0.00000000E+00  0.00000000E+00
  0.00000000E+00  0.00000000E+00  0.00000000E+00  0.00000000E+00  0.00000000E+00
  0.00000000E+00  0.00000000E+00  0.00000000E+00  0.00000000E+00  0.00000000E+00
  0.00000000E+00  0.00000000E+00  0.00000000E+00  0.00000000E+00  0.00000000E+00
  0.00000000E+00  0.00000000E+00  0.00000000E+00  0.00000000E+00  0.00000000E+00
  0.00000000E+00  0.00000000E+00  0.00000000E+00  0.00000000E+00  0.00000000E+00
  0.00000000E+00  0.00000000E+00  0.00000000E+00  0.00000000E+00  0.00000000E+00
  0.00000000E+00  0.00000000E+00  0.00000000E+00  0.00000000E+00  0.00000000E+00
  0.00000000E+00  0.00000000E+00  0.00000000E+00  0.00000000E+00  0.00000000E+00
  0.00000000E+00  0.00000000E+00  0.00000000E+00  0.00000000E+00  0.00000000E+00
  0.00000000E+00  0.00000000E+00  0.00000000E+00  0.00000000E+00  0.00000000E+00
  0.00000000E+00  0.00000000E+00  0.00000000E+00  0.00000000E+00  0.00000000E+00
  0.00000000E+00  0.00000000E+00  0.00000000E+00  0.00000000E+00  0.00000000E+00
  0.00000000E+00  0.00000000E+00  0.00000000E+00  0.00000000E+00  0.00000000E+00
  0.00000000E+00  0.00000000E+00  0.00000000E+00  0.00000000E+00  0.00000000E+00
  0.00000000E+00  0.00000000E+00  0.00000000E+00  0.00000000E+00  0.00000000E+00
  0.00000000E+00  0.00000000E+00  0.00000000E+00  0.00000000E+00  0.00000000E+00
  0.00000000E+00  0.00000000E+00  0.00000000E+00  0.00000000E+00  0.00000000E+00
  0.00000000E+00  0.00000000E+00  0.00000000E+00  0.00000000E+00  0.00000000E+00
  0.00000000E+00  0.00000000E+00  0.00000000E+00  0.00000000E+00  0.00000000E+00
  0.00000000E+00  0.00000000E+00  0.00000000E+00  0.00000000E+00  0.00000000E+00
  0.00000000E+00  0.00000000E+00  0.00000000E+00  0.00000000E+00  0.00000000E+00
  0.00000000E+00  0.00000000E+00  0.00000000E+00  0.00000000E+00  0.00000000E+00
  0.00000000E+00  0.00000000E+00  0.00000000E+00  0.00000000E+00  0.00000000E+00
  0.00000000E+00  0.00000000E+00  0.00000000E+00  0.00000000E+00  0.00000000E+00
  0.00000000E+00  0.00000000E+00  0.00000000E+00  0.00000000E+00  0.00000000E+00
  0.00000000E+00  0.00000000E+00  0.00000000E+00  0.00000000E+00  0.00000000E+00
  0.00000000E+00  0.00000000E+00  0.00000000E+00  0.00000000E+00  0.00000000E+00
  0.00000000E+00  0.00000000E+00  0.00000000E+00  0.00000000E+00  0.00000000E+00
  0.00000000E+00  0.00000000E+00  0.00000000E+00  0.00000000E+00  0.00000000E+00
  0.00000000E+00  0.00000000E+00  0.00000000E+00  0.00000000E+00  0.00000000E+00
  0.00000000E+00  0.00000000E+00  0.00000000E+00  0.00000000E+00  0.00000000E+00
  0.00000000E+00  0.00000000E+00  0.00000000E+00  0.00000000E+00  0.00000000E+00
  0.00000000E+00  0.00000000E+00  0.00000000E+00  0.00000000E+00  0.00000000E+00
  0.00000000E+00  0.00000000E+00  0.00000000E+00  0.00000000E+00  0.00000000E+00
  0.00000000E+00  0.00000000E+00  0.00000000E+00  0.00000000E+00  0.00000000E+00
  0.00000000E+00  0.00000000E+00  0.00000000E+00  0.00000000E+00  0.00000000E+00
  0.00000000E+00  0.00000000E+00  0.00000000E+00  0.00000000E+00  0.00000000E+00
  0.00000000E+00  0.00000000E+00  0.00000000E+00  0.00000000E+00  0.00000000E+00
  0.00000000E+00  0.00000000E+00  0.00000000E+00  0.00000000E+00  0.00000000E+00
  0.00000000E+00  0.00000000E+00  0.00000000E+00  0.00000000E+00  0.00000000E+00
  0.00000000E+00  0.00000000E+00  0.00000000E+00  0.00000000E+00  0.00000000E+00
  0.00000000E+00  0.00000000E+00  0.00000000E+00  0.00000000E+00  0.00000000E+00
  0.00000000E+00  0.00000000E+00  0.00000000E+00  0.00000000E+00  0.00000000E+00
  0.00000000E+00  0.00000000E+00  0.00000000E+00  0.00000000E+00  0.00000000E+00
  0.00000000E+00  0.00000000E+00  0.00000000E+00  0.00000000E+00  0.00000000E+00
  0.00000000E+00  0.00000000E+00  0.00000000E+00  0.00000000E+00  0.00000000E+00
  0.00000000E+00  0.00000000E+00  0.00000000E+00  0.00000000E+00  0.00000000E+00
  0.00000000E+00  0.00000000E+00  0.00000000E+00  0.00000000E+00  0.00000000E+00
  0.00000000E+00  0.00000000E+00  0.00000000E+00  0.00000000E+00  0.00000000E+00
  0.00000000E+00  0.00000000E+00  0.00000000E+00  0.00000000E+00  0.00000000E+00
  0.00000000E+00  0.00000000E+00  0.00000000E+00  0.00000000E+00  0.00000000E+00
  0.00000000E+00  0.00000000E+00  0.00000000E+00  0.00000000E+00  0.00000000E+00
  0.00000000E+00  0.00000000E+00  0.00000000E+00  0.00000000E+00  0.00000000E+00
  0.00000000E+00  0.00000000E+00  0.00000000E+00  0.00000000E+00  0.00000000E+00
  0.00000000E+00  0.00000000E+00  0.00000000E+00  0.00000000E+00  0.00000000E+00
  0.00000000E+00  0.00000000E+00  0.00000000E+00  0.00000000E+00  0.00000000E+00
  0.00000000E+00  0.00000000E+00  0.00000000E+00  0.00000000E+00  0.00000000E+00
  0.00000000E+00  0.00000000E+00  0.00000000E+00  0.00000000E+00  0.00000000E+00
  0.00000000E+00  0.00000000E+00  0.00000000E+00  0.00000000E+00  0.00000000E+00
  0.00000000E+00  0.00000000E+00  0.00000000E+00  0.00000000E+00  0.00000000E+00
  0.00000000E+00  0.00000000E+00  0.00000000E+00  0.00000000E+00  0.00000000E+00
  0.00000000E+00  0.00000000E+00  0.00000000E+00  0.00000000E+00  0.00000000E+00
  0.00000000E+00  0.00000000E+00  0.00000000E+00  0.00000000E+00  0.00000000E+00
  0.00000000E+00  0.00000000E+00  0.00000000E+00  0.00000000E+00  0.00000000E+00
  0.00000000E+00  0.00000000E+00  0.00000000E+00  0.00000000E+00  0.00000000E+00
  0.00000000E+00  0.00000000E+00  0.00000000E+00  0.00000000E+00  0.00000000E+00
  0.00000000E+00  0.00000000E+00  0.00000000E+00  0.00000000E+00  0.00000000E+00
  0.00000000E+00  0.00000000E+00  0.00000000E+00  0.00000000E+00  0.00000000E+00
  0.00000000E+00  0.00000000E+00  0.00000000E+00  0.00000000E+00  0.00000000E+00
  0.00000000E+00  0.00000000E+00  0.00000000E+00  0.00000000E+00  0.00000000E+00
  0.00000000E+00  0.00000000E+00  0.00000000E+00  0.00000000E+00  0.00000000E+00
  0.00000000E+00  0.00000000E+00  0.00000000E+00  0.00000000E+00  0.00000000E+00
  0.00000000E+00  0.00000000E+00  0.00000000E+00  0.00000000E+00  0.00000000E+00
  0.00000000E+00  0.00000000E+00  0.00000000E+00  0.00000000E+00  0.00000000E+00
  0.00000000E+00  0.00000000E+00  0.00000000E+00  0.00000000E+00  0.00000000E+00
  0.00000000E+00  0.00000000E+00  0.00000000E+00  0.00000000E+00  0.00000000E+00
  0.00000000E+00  0.00000000E+00  0.00000000E+00  0.00000000E+00  0.00000000E+00
  0.00000000E+00  0.00000000E+00  0.00000000E+00  0.00000000E+00  0.00000000E+00
  0.00000000E+00  0.00000000E+00  0.00000000E+00  0.00000000E+00  0.00000000E+00
  0.00000000E+00  0.00000000E+00  0.00000000E+00  0.00000000E+00  0.00000000E+00
  0.00000000E+00  0.00000000E+00  0.00000000E+00  0.00000000E+00  0.00000000E+00
  0.00000000E+00  0.00000000E+00  0.00000000E+00  0.00000000E+00  0.00000000E+00
  0.00000000E+00  0.00000000E+00  0.00000000E+00  0.00000000E+00  0.00000000E+00
  0.00000000E+00  0.00000000E+00  0.00000000E+00  0.00000000E+00  0.00000000E+00
  0.00000000E+00  0.00000000E+00  0.00000000E+00  0.00000000E+00  0.00000000E+00
  0.00000000E+00  0.00000000E+00  0.00000000E+00  0.00000000E+00  0.00000000E+00
  0.00000000E+00  0.00000000E+00  0.00000000E+00  0.00000000E+00  0.00000000E+00
  0.00000000E+00  0.00000000E+00  0.00000000E+00  0.00000000E+00  0.00000000E+00
  0.00000000E+00  0.00000000E+00  0.00000000E+00  0.00000000E+00  0.00000000E+00
  0.00000000E+00  0.00000000E+00  0.00000000E+00  0.00000000E+00  0.00000000E+00
  0.00000000E+00  0.00000000E+00  0.00000000E+00  0.00000000E+00  0.00000000E+00
  0.00000000E+00  0.00000000E+00  0.00000000E+00  0.00000000E+00  0.00000000E+00
  0.00000000E+00  0.00000000E+00  0.00000000E+00  0.00000000E+00  0.00000000E+00
  0.00000000E+00  0.00000000E+00  0.00000000E+00  0.00000000E+00  0.00000000E+00
  0.00000000E+00  0.00000000E+00  0.00000000E+00  0.00000000E+00  0.00000000E+00
  0.00000000E+00  0.00000000E+00  0.00000000E+00  0.00000000E+00  0.00000000E+00
  0.00000000E+00  0.00000000E+00  0.00000000E+00  0.00000000E+00  0.00000000E+00
  0.00000000E+00  0.00000000E+00  0.00000000E+00  0.00000000E+00  0.00000000E+00
  0.00000000E+00  0.00000000E+00  0.00000000E+00  0.00000000E+00  0.00000000E+00
  0.00000000E+00  0.00000000E+00  0.00000000E+00  0.00000000E+00  0.00000000E+00
  0.00000000E+00  0.00000000E+00  0.00000000E+00  0.00000000E+00  0.00000000E+00
  0.00000000E+00  0.00000000E+00  0.00000000E+00  0.00000000E+00  0.00000000E+00
  0.00000000E+00  0.00000000E+00  0.00000000E+00  0.00000000E+00  0.00000000E+00
  0.00000000E+00  0.00000000E+00  0.00000000E+00  0.00000000E+00  0.00000000E+00
  0.00000000E+00  0.00000000E+00  0.00000000E+00  0.00000000E+00  0.00000000E+00
  0.00000000E+00  0.00000000E+00  0.00000000E+00  0.00000000E+00  0.00000000E+00
  0.00000000E+00  0.00000000E+00  0.00000000E+00  0.00000000E+00  0.00000000E+00
  0.00000000E+00  0.00000000E+00  0.00000000E+00  0.00000000E+00  0.00000000E+00
  0.00000000E+00  0.00000000E+00  0.00000000E+00  0.00000000E+00  0.00000000E+00
  0.00000000E+00  0.00000000E+00  0.00000000E+00  0.00000000E+00  0.00000000E+00
  0.00000000E+00  0.00000000E+00  0.00000000E+00  0.00000000E+00  0.00000000E+00
  0.00000000E+00  0.00000000E+00  0.00000000E+00  0.00000000E+00  0.00000000E+00
  0.00000000E+00  0.00000000E+00  0.00000000E+00  0.00000000E+00  0.00000000E+00
  0.00000000E+00  0.00000000E+00  0.00000000E+00  0.00000000E+00  0.00000000E+00
  0.00000000E+00  0.00000000E+00  0.00000000E+00  0.00000000E+00  0.00000000E+00
  0.00000000E+00  0.00000000E+00  0.00000000E+00  0.00000000E+00  0.00000000E+00
  0.00000000E+00  0.00000000E+00  0.00000000E+00  0.00000000E+00  0.00000000E+00
  0.00000000E+00  0.00000000E+00  0.00000000E+00  0.00000000E+00  0.00000000E+00
  0.00000000E+00  0.00000000E+00  0.00000000E+00  0.00000000E+00  0.00000000E+00
  0.00000000E+00  0.00000000E+00  0.00000000E+00  0.00000000E+00  0.00000000E+00
  0.00000000E+00  0.00000000E+00  0.00000000E+00  0.00000000E+00  0.00000000E+00
  0.00000000E+00  0.00000000E+00  0.00000000E+00  0.00000000E+00  0.00000000E+00
  0.00000000E+00  0.00000000E+00  0.00000000E+00  0.00000000E+00  0.00000000E+00
  0.00000000E+00  0.00000000E+00  0.00000000E+00  0.00000000E+00  0.00000000E+00
  0.00000000E+00  0.00000000E+00  0.00000000E+00  0.00000000E+00  0.00000000E+00
  0.00000000E+00  0.00000000E+00  0.00000000E+00  0.00000000E+00  0.00000000E+00
  0.00000000E+00  0.00000000E+00  0.00000000E+00  0.00000000E+00  0.00000000E+00
  0.00000000E+00  0.00000000E+00  0.00000000E+00  0.00000000E+00  0.00000000E+00
  0.00000000E+00  0.00000000E+00  0.00000000E+00  0.00000000E+00  0.00000000E+00
  0.00000000E+00  0.00000000E+00  0.00000000E+00  0.00000000E+00  0.00000000E+00
  0.00000000E+00  0.00000000E+00  0.00000000E+00  0.00000000E+00  0.00000000E+00
  0.00000000E+00  0.00000000E+00  0.00000000E+00  0.00000000E+00  0.00000000E+00
  0.00000000E+00  0.00000000E+00  0.00000000E+00  0.00000000E+00  0.00000000E+00
  0.00000000E+00  0.00000000E+00  0.00000000E+00  0.00000000E+00  0.00000000E+00
  0.00000000E+00  0.00000000E+00  0.00000000E+00  0.00000000E+00  0.00000000E+00
  0.00000000E+00  0.00000000E+00  0.00000000E+00  0.00000000E+00  0.00000000E+00
  0.00000000E+00  0.00000000E+00  0.00000000E+00  0.00000000E+00  0.00000000E+00
  0.00000000E+00  0.00000000E+00  0.00000000E+00  0.00000000E+00  0.00000000E+00
  0.00000000E+00  0.00000000E+00  0.00000000E+00  0.00000000E+00  0.00000000E+00
  0.00000000E+00  0.00000000E+00  0.00000000E+00  0.00000000E+00  0.00000000E+00
  0.00000000E+00  0.00000000E+00  0.00000000E+00  0.00000000E+00  0.00000000E+00
  0.00000000E+00  0.00000000E+00  0.00000000E+00  0.00000000E+00  0.00000000E+00
  0.00000000E+00  0.00000000E+00  0.00000000E+00  0.00000000E+00  0.00000000E+00
  0.00000000E+00  0.00000000E+00  0.00000000E+00  0.00000000E+00  0.00000000E+00
  0.00000000E+00  0.00000000E+00  0.00000000E+00  0.00000000E+00  0.00000000E+00
  0.00000000E+00  0.00000000E+00  0.00000000E+00  0.00000000E+00  0.00000000E+00
  0.00000000E+00  0.00000000E+00  0.00000000E+00  0.00000000E+00  0.00000000E+00
  0.00000000E+00  0.00000000E+00  0.00000000E+00  0.00000000E+00  0.00000000E+00
  0.00000000E+00  0.00000000E+00  0.00000000E+00  0.00000000E+00  0.00000000E+00
  0.00000000E+00  0.00000000E+00  0.00000000E+00  0.00000000E+00  0.00000000E+00
  0.00000000E+00  0.00000000E+00  0.00000000E+00  0.00000000E+00  0.00000000E+00
  0.00000000E+00  0.00000000E+00  0.00000000E+00  0.00000000E+00  0.00000000E+00
  0.00000000E+00  0.00000000E+00  0.00000000E+00  0.00000000E+00  0.00000000E+00
  0.00000000E+00  0.00000000E+00  0.00000000E+00  0.00000000E+00  0.00000000E+00
  0.00000000E+00  0.00000000E+00  0.00000000E+00  0.00000000E+00  0.00000000E+00
  0.00000000E+00  0.00000000E+00  0.00000000E+00  0.00000000E+00  0.00000000E+00
  0.00000000E+00  0.00000000E+00  0.00000000E+00  0.00000000E+00  0.00000000E+00
  0.00000000E+00  0.00000000E+00  0.00000000E+00  0.00000000E+00  0.00000000E+00
  0.00000000E+00  0.00000000E+00  0.00000000E+00  0.00000000E+00  0.00000000E+00
  0.00000000E+00  0.00000000E+00  0.00000000E+00  0.00000000E+00  0.00000000E+00
  0.00000000E+00  0.00000000E+00  0.00000000E+00  0.00000000E+00  0.00000000E+00
  0.00000000E+00  0.00000000E+00  0.00000000E+00  0.00000000E+00  0.00000000E+00
  0.00000000E+00  0.00000000E+00  0.00000000E+00  0.00000000E+00  0.00000000E+00
  0.00000000E+00  0.00000000E+00  0.00000000E+00  0.00000000E+00  0.00000000E+00
  0.00000000E+00  0.00000000E+00  0.00000000E+00  0.00000000E+00  0.00000000E+00
  0.00000000E+00  0.00000000E+00  0.00000000E+00  0.00000000E+00  0.00000000E+00
  0.00000000E+00  0.00000000E+00  0.00000000E+00  0.00000000E+00  0.00000000E+00
  0.00000000E+00  0.00000000E+00  0.00000000E+00  0.00000000E+00  0.00000000E+00
  0.00000000E+00  0.00000000E+00  0.00000000E+00  0.00000000E+00  0.00000000E+00
  0.00000000E+00  0.00000000E+00  0.00000000E+00  0.00000000E+00  0.00000000E+00
  0.00000000E+00  0.00000000E+00  0.00000000E+00  0.00000000E+00  0.00000000E+00
  0.00000000E+00  0.00000000E+00  0.00000000E+00  0.00000000E+00  0.00000000E+00
  0.00000000E+00  0.00000000E+00  0.00000000E+00  0.00000000E+00  0.00000000E+00
  0.00000000E+00  0.00000000E+00  0.00000000E+00  0.00000000E+00  0.00000000E+00
  0.00000000E+00  0.00000000E+00  0.00000000E+00  0.00000000E+00  0.00000000E+00
  0.00000000E+00  0.00000000E+00  0.00000000E+00  0.00000000E+00  0.00000000E+00
  0.00000000E+00  0.00000000E+00  0.00000000E+00  0.00000000E+00  0.00000000E+00
  0.00000000E+00  0.00000000E+00  0.00000000E+00  0.00000000E+00  0.00000000E+00
  0.00000000E+00  0.00000000E+00  0.00000000E+00  0.00000000E+00  0.00000000E+00
  0.00000000E+00  0.00000000E+00  0.00000000E+00  0.00000000E+00  0.00000000E+00
  0.00000000E+00  0.00000000E+00  0.00000000E+00  0.00000000E+00  0.00000000E+00
  0.00000000E+00  0.00000000E+00  0.00000000E+00  0.00000000E+00  0.00000000E+00
  0.00000000E+00  0.00000000E+00  0.00000000E+00  0.00000000E+00  0.00000000E+00
  0.00000000E+00  0.00000000E+00  0.00000000E+00  0.00000000E+00  0.00000000E+00
  0.00000000E+00  0.00000000E+00  0.00000000E+00  0.00000000E+00  0.00000000E+00
  0.00000000E+00  0.00000000E+00  0.00000000E+00  0.00000000E+00  0.00000000E+00
  0.00000000E+00  0.00000000E+00  0.00000000E+00  0.00000000E+00  0.00000000E+00
  0.00000000E+00  0.00000000E+00  0.00000000E+00  0.00000000E+00  0.00000000E+00
  0.00000000E+00  0.00000000E+00  0.00000000E+00  0.00000000E+00  0.00000000E+00
  0.00000000E+00  0.00000000E+00  0.00000000E+00  0.00000000E+00  0.00000000E+00
  0.00000000E+00  0.00000000E+00  0.00000000E+00  0.00000000E+00  0.00000000E+00
  0.00000000E+00  0.00000000E+00  0.00000000E+00  0.00000000E+00  0.00000000E+00
  0.00000000E+00  0.00000000E+00  0.00000000E+00  0.00000000E+00  0.00000000E+00
  0.00000000E+00  0.00000000E+00  0.00000000E+00  0.00000000E+00  0.00000000E+00
  0.00000000E+00  0.00000000E+00  0.00000000E+00  0.00000000E+00  0.00000000E+00
  0.00000000E+00  0.00000000E+00  0.00000000E+00  0.00000000E+00  0.00000000E+00
  0.00000000E+00  0.00000000E+00  0.00000000E+00  0.00000000E+00  0.00000000E+00
  0.00000000E+00  0.00000000E+00  0.00000000E+00  0.00000000E+00  0.00000000E+00
  0.00000000E+00  0.00000000E+00  0.00000000E+00  0.00000000E+00  0.00000000E+00
  0.00000000E+00  0.00000000E+00  0.00000000E+00  0.00000000E+00  0.00000000E+00
  0.00000000E+00  0.00000000E+00  0.00000000E+00  0.00000000E+00  0.00000000E+00
  0.00000000E+00  0.00000000E+00  0.00000000E+00  0.00000000E+00  0.00000000E+00
  0.00000000E+00  0.00000000E+00  0.00000000E+00  0.00000000E+00  0.00000000E+00
  0.00000000E+00  0.00000000E+00  0.00000000E+00  0.00000000E+00  0.00000000E+00
  0.00000000E+00  0.00000000E+00  0.00000000E+00  0.00000000E+00  0.00000000E+00
  0.00000000E+00  0.00000000E+00  0.00000000E+00  0.00000000E+00  0.00000000E+00
  0.00000000E+00  0.00000000E+00  0.00000000E+00  0.00000000E+00  0.00000000E+00
  0.00000000E+00  0.00000000E+00  0.00000000E+00  0.00000000E+00  0.00000000E+00
  0.00000000E+00  0.00000000E+00  0.00000000E+00  0.00000000E+00  0.00000000E+00
  0.00000000E+00  0.00000000E+00  0.00000000E+00  0.00000000E+00  0.00000000E+00
  0.00000000E+00  0.00000000E+00  0.00000000E+00  0.00000000E+00  0.00000000E+00
  0.00000000E+00  0.00000000E+00  0.00000000E+00  0.00000000E+00  0.00000000E+00
  0.00000000E+00  0.00000000E+00  0.00000000E+00  0.00000000E+00  0.00000000E+00
  0.00000000E+00  0.00000000E+00  0.00000000E+00  0.00000000E+00  0.00000000E+00
  0.00000000E+00  0.00000000E+00  0.00000000E+00  0.00000000E+00  0.00000000E+00
  0.00000000E+00  0.00000000E+00  0.00000000E+00  0.00000000E+00  0.00000000E+00
  0.00000000E+00  0.00000000E+00  0.00000000E+00  0.00000000E+00  0.00000000E+00
  0.00000000E+00  0.00000000E+00  0.00000000E+00  0.00000000E+00  0.00000000E+00
  0.00000000E+00  0.00000000E+00  0.00000000E+00  0.00000000E+00  0.00000000E+00
  0.00000000E+00  0.00000000E+00  0.00000000E+00  0.00000000E+00  0.00000000E+00
  0.00000000E+00  0.00000000E+00  0.00000000E+00  0.00000000E+00  0.00000000E+00
  0.00000000E+00  0.00000000E+00  0.00000000E+00  0.00000000E+00  0.00000000E+00
  0.00000000E+00  0.00000000E+00  0.00000000E+00  0.00000000E+00  0.00000000E+00
  0.00000000E+00  0.00000000E+00  0.00000000E+00  0.00000000E+00  0.00000000E+00
  0.00000000E+00  0.00000000E+00  0.00000000E+00  0.00000000E+00  0.00000000E+00
  0.00000000E+00  0.00000000E+00  0.00000000E+00  0.00000000E+00  0.00000000E+00
  0.00000000E+00  0.00000000E+00  0.00000000E+00  0.00000000E+00  0.00000000E+00
  0.00000000E+00  0.00000000E+00  0.00000000E+00  0.00000000E+00  0.00000000E+00
  0.00000000E+00  0.00000000E+00  0.00000000E+00  0.00000000E+00  0.00000000E+00
  0.00000000E+00  0.00000000E+00  0.00000000E+00  0.00000000E+00  0.00000000E+00
  0.00000000E+00  0.00000000E+00  0.00000000E+00  0.00000000E+00  0.00000000E+00
  0.00000000E+00  0.00000000E+00  0.00000000E+00  0.00000000E+00  0.00000000E+00
  0.00000000E+00  0.00000000E+00  0.00000000E+00  0.00000000E+00  0.00000000E+00
  0.00000000E+00  0.00000000E+00  0.00000000E+00  0.00000000E+00  0.00000000E+00
  0.00000000E+00  0.00000000E+00  0.00000000E+00  0.00000000E+00  0.00000000E+00
  0.00000000E+00  0.00000000E+00  0.00000000E+00  0.00000000E+00  0.00000000E+00
  0.00000000E+00  0.00000000E+00  0.00000000E+00  0.00000000E+00  0.00000000E+00
  0.00000000E+00  0.00000000E+00  0.00000000E+00  0.00000000E+00  0.00000000E+00
  0.00000000E+00  0.00000000E+00  0.00000000E+00  0.00000000E+00  0.00000000E+00
  0.00000000E+00  0.00000000E+00  0.00000000E+00  0.00000000E+00  0.00000000E+00
Gaussian Version                           C   N=           2
AppleM1-GDVRevJ.32+     
