 Entering Gaussian System, Link 0=gdv
 Input=f2co.gjf
 Output=f2co.log
 Initial command:
 "/Users/vincenzobarone/gdv_j32p/gdv/l1.exe" -scrdir="/Users/vincenzobarone/Documents/GAUSSIAN_SCRATCH/" "/Users/vincenzobarone/Documents/GAUSSIAN_SCRATCH/Gau-28868.inp" "f2co.log" 
 Entering Link 1 = /Users/vincenzobarone/gdv_j32p/gdv/l1.exe PID=     28869.
  
 Copyright (c) 1988-2025, Gaussian, Inc.  All Rights Reserved.
  
 This is the private, development version of
 the Gaussian(R) DV system of programs. It is based on
 the Gaussian(R) 16 system (copyright 2016, Gaussian, Inc.),
 the Gaussian(R) 09 system (copyright 2009, Gaussian, Inc.),
 the Gaussian(R) 03 system (copyright 2003, Gaussian, Inc.),
 the Gaussian(R) 98 system (copyright 1998, Gaussian, Inc.),
 the Gaussian(R) 94 system (copyright 1995, Gaussian, Inc.),
 the Gaussian 92(TM) system (copyright 1992, Gaussian, Inc.),
 the Gaussian 90(TM) system (copyright 1990, Gaussian, Inc.),
 the Gaussian 88(TM) system (copyright 1988, Gaussian, Inc.),
 the Gaussian 86(TM) system (copyright 1986, Carnegie Mellon
 University), and the Gaussian 82(TM) system (copyright 1983,
 Carnegie Mellon University). Gaussian is a federally registered
 trademark of Gaussian, Inc.
  
 This software contains proprietary and confidential information,
 including trade secrets, belonging to Gaussian, Inc.
  
 This software is provided under written license and may be
 used, copied, transmitted, or stored only in accord with that
 written license.
  
 The following legend is applicable only to US Government
 contracts under FAR:
  
                    RESTRICTED RIGHTS LEGEND
  
 Use, reproduction and disclosure by the US Government is
 subject to restrictions as set forth in subparagraphs (a)
 and (c) of the Commercial Computer Software - Restricted
 Rights clause in FAR 52.227-19.
  
 Gaussian, Inc.
 340 Quinnipiac St., Bldg. 40, Wallingford CT 06492
  
  
 ---------------------------------------------------------------
 Warning -- This program may not be used in any manner that
 competes with the business of Gaussian, Inc. or will provide
 assistance to any competitor of Gaussian, Inc.  The licensee
 of this program is prohibited from giving any competitor of
 Gaussian, Inc. access to this program.  By using this program,
 the user acknowledges that Gaussian, Inc. is engaged in the
 business of creating and licensing software in the field of
 computational chemistry and represents and warrants to the
 licensee that it is not a competitor of Gaussian, Inc. and that
 it will not use this program in any manner prohibited above.
 ---------------------------------------------------------------
  

 Cite this work as:
 Gaussian Development Version, Revision J.32+,
 M. J. Frisch, G. W. Trucks, G. Scalmani, J. R. Cheeseman, X. Li, 
 J. Bloino, B. G. Janesko, A. V. Marenich, J. Zheng, F. Lipparini, 
 A. Jenkins, A. Liu, H. Liu, H. B. Schlegel, G. E. Scuseria, 
 M. A. Robb, V. Barone, G. A. Petersson, H. Nakatsuji, B. Mennucci, 
 C. Adamo, N. Rega, M. Caricato, H. P. Hratchian, J. V. Ortiz, 
 F. Pawlowski, A. F. Izmaylov, H. Hu, C. Liao, J. L. Sonnenberg, 
 D. Williams-Young, F. Ding, R. Gomperts, F. Egidi, J. Goings, 
 B. Peng, A. Petrone, T. Henderson, D. Ranasinghe, V. G. Zakrzewski, 
 J. Gao, G. Zheng, M. Mendolicchio, W. Liang, M. Hada, M. Ehara, 
 K. Toyota, R. Fukuda, J. Hasegawa, M. Ishida, T. Nakajima, Y. Honda, 
 O. Kitao, H. Nakai, T. Vreven, K. Throssell, J. A. Montgomery, Jr., 
 J. E. Peralta, F. Ogliaro, M. J. Bearpark, J. J. Heyd, 
 E. N. Brothers, K. N. Kudin, V. N. Staroverov, T. A. Keith, 
 R. Kobayashi, J. Normand, K. Raghavachari, A. P. Rendell, 
 J. C. Burant, S. S. Iyengar, M. Cossi, J. M. Millam, M. Klene, 
 R. Cammi, R. L. Martin, O. Farkas, J. B. Foresman, and D. J. Fox, 
 Gaussian, Inc., Wallingford CT, 2024.
 
 *********************************************
 Gaussian DV:  AppleM1-GDVRevJ.32+ 19-Oct-2025
                  12-Mar-2026 
 *********************************************
 %nproc=8
 Will use up to    8 processors via shared memory.
 %mem=32GB
 %chk=f2co
 ----------------------------------------------------
 #B3LYP 6-31G* freq=anharm output=pickett iop(7/8=10)
 ----------------------------------------------------
 1/10=4,30=1,37=210000000,38=21,80=1/1,6,3;
 2/12=2/2;
 3/5=1,6=6,7=1,11=2,25=1,30=1,71=2,74=-5/1,2,3;
 4/69=2/1;
 5/5=2,8=3,13=1,38=5,98=1/2,8;
 8/6=4,10=90,11=11/1;
 11/6=1,8=1,9=11,15=111,16=1/1,2,10;
 10/6=1,60=-2/2;
 6/7=2,8=2,9=2,10=2,28=1/1;
 7/8=10,10=1,25=1,71=2/1,2,3,16;
 1/38=20,80=1/6(3);
 7/8=10,25=202,44=-1,71=1,92=10/16,17;
 1/10=4,30=1,38=20,80=1/3;
 99/10=1024/99;
 3/5=1,6=6,7=1,11=2,25=1,30=1,71=2,74=-5/1,2,3;
 4/5=5,16=3,69=2/1;
 5/5=2,8=3,13=1,38=5,98=1/2,8;
 8/6=4,10=90,11=11/1;
 11/6=1,8=1,9=11,15=111,16=1/1,2,10;
 10/6=1,60=-2/2;
 6/7=2,8=2,9=2,10=2,28=1/1;
 7/7=1,8=10,10=1,25=1,71=1/1,2,3,16;
 1/38=20,80=1/6(-8);
 7/8=10,25=202,44=-1,71=1,92=10/16,17;
 1/10=4,30=1,38=20,80=1/3;
 99/10=1024/99;
 ----
 f2co
 ----
 Symbolic Z-matrix:
 Charge =     0 Multiplicity =     1
 8                    -1.34263   0.        0. 
 6                    -0.16236   0.        0. 
 9                     0.61646   1.06862   0. 
 9                     0.61646  -1.06862   0. 
 
 Numerical evaluation of third derivatives.
 Nuclear step= 0.010000 Angstroms, electric field step= 0.003333 atomic units, NStep=1.

 GradGradGradGradGradGradGradGradGradGradGradGradGradGradGradGradGradGrad
 Berny optimization.
 Initialization pass.
 Trust Radius=3.00D-01 FncErr=1.00D-07 GrdErr=1.00D-07 EigMax=2.50D+02 EigMin=1.00D-04
 Number of steps in this run=      2 maximum allowed number of steps=      2.
 GradGradGradGradGradGradGradGradGradGradGradGradGradGradGradGradGradGrad

                          Input orientation:                          
 ---------------------------------------------------------------------
 Center     Atomic      Atomic             Coordinates (Angstroms)
 Number     Number       Type             X           Y           Z
 ---------------------------------------------------------------------
      1          8           0       -1.342628    0.000000    0.000000
      2          6           0       -0.162362    0.000000    0.000000
      3          9           0        0.616462    1.068616    0.000000
      4          9           0        0.616462   -1.068616    0.000000
 ---------------------------------------------------------------------
                    Distance matrix (angstroms):
                    1          2          3          4
     1  O    0.000000
     2  C    1.180266   0.000000
     3  F    2.231585   1.322311   0.000000
     4  F    2.231585   1.322311   2.137232   0.000000
 Stoichiometry    CF2O
 Framework group  C2V[C2(CO),SGV(F2)]
 Deg. of freedom     3
 Full point group                 C2V     NOp   4
 Largest Abelian subgroup         C2V     NOp   4
 Largest concise Abelian subgroup C2      NOp   2
                         Standard orientation:                         
 ---------------------------------------------------------------------
 Center     Atomic      Atomic             Coordinates (Angstroms)
 Number     Number       Type             X           Y           Z
 ---------------------------------------------------------------------
      1          8           0        0.000000    0.000000    1.323288
      2          6           0        0.000000    0.000000    0.143022
      3          9           0        0.000000    1.068616   -0.635802
      4          9           0        0.000000   -1.068616   -0.635802
 ---------------------------------------------------------------------
 Rotational constants (GHZ):          11.6473401          11.5941016           5.8103299
 Standard basis: 6-31G(d) (6D, 7F)
 There are    27 symmetry adapted cartesian basis functions of A1  symmetry.
 There are     6 symmetry adapted cartesian basis functions of A2  symmetry.
 There are    10 symmetry adapted cartesian basis functions of B1  symmetry.
 There are    17 symmetry adapted cartesian basis functions of B2  symmetry.
 There are    27 symmetry adapted basis functions of A1  symmetry.
 There are     6 symmetry adapted basis functions of A2  symmetry.
 There are    10 symmetry adapted basis functions of B1  symmetry.
 There are    17 symmetry adapted basis functions of B2  symmetry.
    60 basis functions,   112 primitive gaussians,    60 cartesian basis functions
    16 alpha electrons       16 beta electrons
       nuclear repulsion energy       118.9439947712 Hartrees.
 NAtoms=    4 NActive=    4 NUniq=    3 SFac= 1.78D+00 NAtFMM=   60 NAOKFM=F Big=F
 Integral buffers will be    131072 words long.
 Raffenetti 2 integral format.
 Two-electron integral symmetry is turned on.
 One-electron integrals computed using PRISM.
 NBasis=    60 RedAO= T EigKep=  4.38D-03  NBF=    27     6    10    17
 NBsUse=    60 1.00D-06 EigRej= -1.00D+00 NBFU=    27     6    10    17
 ExpMin= 1.69D-01 ExpMax= 7.00D+03 ExpMxC= 1.05D+03 IAcc=3 Grid=UltraFine AccDes= 0.00D+00
 Harris functional with IExCor= 4002 and Grid=UltraFine diagonalized for initial guess.
 HarFok:  IExCor=    4002 AccDes= 0.00D+00 Grid=UltraFine IDoV= 1 UseB2=F ITyADJ=14 ICtDFT=  3500011
 FoFCou: FMM=F IPFlag=           0 FMFlag=      100000 FMFlg1=           0
         NFxFlg=           0 DoJE=T BraDBF=F KetDBF=T FulRan=T
         wScrn=  0.000000 ICntrl=       500 IOpCl=  0 I1Cent=   200000004 NGrid=           0
         NMat0=    1 NMatS0=      1 NMatT0=    0 NMatD0=    1 NMtDS0=    0 NMtDT0=    0
 Petite list used in FoFCou.
 Initial guess orbital symmetries:
       Occupied  (A1) (B2) (A1) (A1) (A1) (B2) (A1) (A1) (B2) (A1)
                 (B1) (A1) (A2) (B2) (B1) (B2)
       Virtual   (B1) (A1) (B2) (A1) (B2) (B1) (A1) (A1) (A1) (B1)
                 (B2) (A1) (B2) (A2) (A1) (B1) (B2) (A1) (A2) (B1)
                 (A1) (B2) (A1) (A2) (B1) (A1) (A2) (B2) (B2) (A1)
                 (B2) (B1) (A1) (A2) (B1) (B2) (A1) (A1) (A1) (B2)
                 (A1) (A1) (A1) (B2)
 The electronic state of the initial guess is 1-A1.
 Keep R1 ints in memory in symmetry-blocked form, NReq=8771471.
 Requested convergence on RMS density matrix=1.00D-08 within  48 cycles.
 Requested convergence on MAX density matrix=1.00D-06.
 Requested convergence on             energy=1.00D-06.
 No special actions if energy rises.
 Integral accuracy reduced to 1.0D-05 until final iterations.
 Initial convergence to 1.0D-05 achieved.  Increase integral accuracy.
 SCF Done:  E(RB3LYP) =  -313.007950993     A.U. after   12 cycles
            NFock= 12  Conv=0.90D-08     -V/T= 2.0074
 QCSCF skips out because SCF is already converged.
 DoSCS=F DFT=T ScalE2(SS,OS)=  1.000000  1.000000
 Range of M.O.s used for correlation:     1    60
 NBasis=    60 NAE=    16 NBE=    16 NFC=     0 NFV=     0
 NROrb=     60 NOA=    16 NOB=    16 NVA=    44 NVB=    44
 Symmetrizing basis deriv contribution to polar:
 IMax=3 JMax=2 DiffMx= 0.00D+00
 G2DrvN: will do     5 centers at a time, making    1 passes.
 Calling FoFCou, ICntrl=  3107 FMM=F I1Cent=   0 AccDes= 0.00D+00.
 End of G2Drv FD prop file    721 does not exist.
 End of G2Drv FD prop file    722 does not exist.
 End of G2Drv FD prop file    788 does not exist.
 End of G2Drv FD prop file    804 does not exist.
          IDoAtm=1111
          Differentiating once with respect to electric field.
                with respect to dipole field.
          Differentiating once with respect to nuclear coordinates.
 Keep R1 ints in memory in symmetry-blocked form, NReq=8756411.
          There are    12 degrees of freedom in the 1st order CPHF.  IDoFFX=4 NUNeed=    12.
     12 vectors produced by pass  0 Test12= 5.87D-15 8.33D-09 XBig12= 1.45D+01 3.12D+00.
 AX will form    12 AO Fock derivatives at one time.
     12 vectors produced by pass  1 Test12= 5.87D-15 8.33D-09 XBig12= 4.77D+00 7.17D-01.
     12 vectors produced by pass  2 Test12= 5.87D-15 8.33D-09 XBig12= 2.41D-01 1.51D-01.
     12 vectors produced by pass  3 Test12= 5.87D-15 8.33D-09 XBig12= 4.61D-03 2.00D-02.
     12 vectors produced by pass  4 Test12= 5.87D-15 8.33D-09 XBig12= 3.14D-05 2.46D-03.
     11 vectors produced by pass  5 Test12= 5.87D-15 8.33D-09 XBig12= 7.57D-08 7.95D-05.
      5 vectors produced by pass  6 Test12= 5.87D-15 8.33D-09 XBig12= 8.80D-11 3.81D-06.
      1 vectors produced by pass  7 Test12= 5.87D-15 8.33D-09 XBig12= 1.05D-13 1.10D-07.
 InvSVY:  IOpt=1 It=  1 EMax= 4.44D-16
 Solved reduced A of dimension    77 with    12 vectors.
 Isotropic polarizability for W=    0.000000       13.35 Bohr**3.
 End of Minotr FD prop file    721 does not exist.
 End of Minotr FD prop file    722 does not exist.
 End of Minotr FD prop file    788 does not exist.
 End of Minotr FD prop file    804 does not exist.
 
 **********************************************************************
 
               Population analysis using the SCF Density.
 
 **********************************************************************
 
 Orbital symmetries:
       Occupied  (B2) (A1) (A1) (A1) (A1) (B2) (A1) (A1) (B2) (B1)
                 (A1) (A2) (A1) (B2) (B1) (B2)
       Virtual   (B1) (A1) (B2) (A1) (A1) (B1) (B2) (A1) (A1) (B1)
                 (B2) (A1) (B2) (A2) (A1) (B1) (B2) (A2) (A1) (B1)
                 (A1) (B2) (A1) (B1) (A2) (A2) (A1) (B2) (B2) (A1)
                 (B2) (B1) (A1) (A2) (B1) (B2) (A1) (A1) (A1) (B2)
                 (A1) (A1) (A1) (B2)
 The electronic state is 1-A1.
 Alpha  occ. eigenvalues --      -24.77333     -24.77333     -19.20079     -10.45147      -1.33079
 Alpha  occ. eigenvalues --       -1.26086      -1.10985      -0.68888      -0.61809      -0.57040
 Alpha  occ. eigenvalues --       -0.54173      -0.47365      -0.46978      -0.45424      -0.39677
 Alpha  occ. eigenvalues --       -0.35365
 Alpha virt. eigenvalues --       -0.01792       0.09021       0.24548       0.34538       0.46693
 Alpha virt. eigenvalues --        0.46852       0.47446       0.63386       0.82141       0.93997
 Alpha virt. eigenvalues --        0.95772       1.05153       1.10771       1.12356       1.18956
 Alpha virt. eigenvalues --        1.26619       1.31832       1.35966       1.37884       1.38287
 Alpha virt. eigenvalues --        1.59579       1.67707       1.68208       1.76496       1.76794
 Alpha virt. eigenvalues --        1.81096       1.84340       1.85776       1.88852       1.94674
 Alpha virt. eigenvalues --        2.04029       2.11466       2.15859       2.51889       2.69455
 Alpha virt. eigenvalues --        2.76147       2.81742       2.98944       3.06904       3.14361
 Alpha virt. eigenvalues --        3.83181       4.24697       4.42942       4.54335
          Condensed to atoms (all electrons):
               1          2          3          4
     1  O    7.898365   0.575552  -0.055810  -0.055810
     2  C    0.575552   4.024262   0.318269   0.318269
     3  F   -0.055810   0.318269   8.993559  -0.055343
     4  F   -0.055810   0.318269  -0.055343   8.993559
 Mulliken charges:
               1
     1  O   -0.362298
     2  C    0.763649
     3  F   -0.200675
     4  F   -0.200675
 Sum of Mulliken charges=   0.00000
 Mulliken charges with hydrogens summed into heavy atoms:
               1
     1  O   -0.362298
     2  C    0.763649
     3  F   -0.200675
     4  F   -0.200675
 APT charges:
               1
     1  O   -0.609830
     2  C    1.552682
     3  F   -0.471426
     4  F   -0.471426
 Sum of APT charges=   0.00000
 APT charges with hydrogens summed into heavy atoms:
               1
     1  O   -0.609830
     2  C    1.552682
     3  F   -0.471426
     4  F   -0.471426
 Electronic spatial extent (au):  <R**2>=            195.3300
 Charge=              0.0000 electrons
 Dipole moment (field-independent basis, Debye):
    X=              0.0000    Y=              0.0000    Z=             -1.1550  Tot=              1.1550
 Quadrupole moment (field-independent basis, Debye-Ang):
   XX=            -18.2928   YY=            -20.3635   ZZ=            -22.5135
   XY=              0.0000   XZ=              0.0000   YZ=              0.0000
 Traceless Quadrupole moment (field-independent basis, Debye-Ang):
   XX=              2.0971   YY=              0.0264   ZZ=             -2.1236
   XY=              0.0000   XZ=              0.0000   YZ=              0.0000
 Octapole moment (field-independent basis, Debye-Ang**2):
  XXX=              0.0000  YYY=              0.0000  ZZZ=             -9.0265  XYY=              0.0000
  XXY=              0.0000  XXZ=             -1.6767  XZZ=              0.0000  YZZ=              0.0000
  YYZ=             -1.6347  XYZ=              0.0000
 Hexadecapole moment (field-independent basis, Debye-Ang**3):
 XXXX=            -11.5257 YYYY=            -75.0587 ZZZZ=            -95.4587 XXXY=              0.0000
 XXXZ=              0.0000 YYYX=              0.0000 YYYZ=              0.0000 ZZZX=              0.0000
 ZZZY=              0.0000 XXYY=            -14.4963 XXZZ=            -16.9667 YYZZ=            -27.8121
 XXYZ=              0.0000 YYXZ=              0.0000 ZZXY=              0.0000
 N-N=         118.943995 E-N=        -979.429921  KE=         310.706387
 Symmetry A1   KE=         194.398562
 Symmetry A2   KE=           6.627504
 Symmetry B1   KE=           9.804238
 Symmetry B2   KE=          99.876084
 Calling FoFJK, ICntrl=    100127 FMM=F ISym2X=1 I1Cent= 0 IOpClX= 0 NMat=1 NMatS=1 NMatT=0.
 Full mass-weighted force constant matrix:
 Low frequencies ---   -0.0019   -0.0014   -0.0008    2.1597    2.8698    4.3625
 Low frequencies ---  571.1784  613.2928  764.4605
 Diagonal vibrational polarizability:
        1.5266410       7.0143586       4.5105534
 Harmonic frequencies (cm**-1), IR intensities (KM/Mole), Raman scattering
 activities (A**4/AMU), depolarization ratios for plane and unpolarized
 incident light, reduced masses (AMU), force constants (mDyne/A),
 and normal coordinates:
                           1         2         3         4         5
                          A1        B2        B1        A1        B2
       Frequencies ---   571.1784  613.2928  764.4605  977.0014 1282.9892
    Reduced masses ---    17.6835   17.0502   12.7423   17.2456   13.1861
   Force constants ---     3.3991    3.7785    4.3874    9.6988   12.7883
    IR Intensities ---     4.6615    7.6290   33.1523   47.5710  395.6559
 Coord Atom Element:
   1     1     8          0.00000   0.00000  -0.27676   0.00000   0.00000
   2     1     8          0.00000   0.66648   0.00000   0.00000  -0.08816
   3     1     8         -0.39120   0.00000   0.00000   0.54838   0.00000
   1     2     6          0.00000   0.00000   0.92793   0.00000   0.00000
   2     2     6          0.00000  -0.29622   0.00000   0.00000   0.90949
   3     2     6         -0.34958   0.00000   0.00000   0.34842   0.00000
   1     3     9          0.00000   0.00000  -0.17655   0.00000   0.00000
   2     3     9          0.53545  -0.18701   0.00000   0.41562  -0.25012
   3     3     9          0.27508   0.44616   0.00000  -0.34088   0.14130
   1     4     9          0.00000   0.00000  -0.17655   0.00000   0.00000
   2     4     9         -0.53545  -0.18701   0.00000  -0.41562  -0.25012
   3     4     9          0.27508  -0.44616   0.00000  -0.34088  -0.14130
                           6
                          A1
       Frequencies ---  1995.3469
    Reduced masses ---    13.1621
   Force constants ---    30.8753
    IR Intensities ---   412.0097
 Coord Atom Element:
   1     1     8          0.00000
   2     1     8          0.00000
   3     1     8         -0.52916
   1     2     6          0.00000
   2     2     6          0.00000
   3     2     6          0.84485
   1     3     9          0.00000
   2     3     9          0.03409
   3     3     9         -0.04407
   1     4     9          0.00000
   2     4     9         -0.03409
   3     4     9         -0.04407
 Harmonic frequencies (cm**-1), IR intensities (KM/Mole), Raman scattering
 activities (A**4/AMU), depolarization ratios for plane and unpolarized
 incident light, reduced masses (AMU), force constants (mDyne/A),
 and normal coordinates:
                      1                      2                      3
                     A1                     B2                     B1
 Frequencies --    571.1784               613.2928               764.4605
 Red. masses --     17.6835                17.0502                12.7423
 Frc consts  --      3.3991                 3.7785                 4.3874
 IR Inten    --      4.6615                 7.6290                33.1523
  Atom  AN      X      Y      Z        X      Y      Z        X      Y      Z
     1   8     0.00   0.00  -0.39     0.00   0.67   0.00    -0.28   0.00   0.00
     2   6     0.00   0.00  -0.35     0.00  -0.30   0.00     0.93   0.00   0.00
     3   9     0.00   0.54   0.28     0.00  -0.19   0.45    -0.18   0.00   0.00
     4   9     0.00  -0.54   0.28     0.00  -0.19  -0.45    -0.18   0.00   0.00
                      4                      5                      6
                     A1                     B2                     A1
 Frequencies --    977.0014              1282.9892              1995.3469
 Red. masses --     17.2456                13.1861                13.1621
 Frc consts  --      9.6988                12.7883                30.8753
 IR Inten    --     47.5710               395.6559               412.0097
  Atom  AN      X      Y      Z        X      Y      Z        X      Y      Z
     1   8     0.00   0.00   0.55     0.00  -0.09   0.00     0.00   0.00  -0.53
     2   6     0.00   0.00   0.35     0.00   0.91   0.00     0.00   0.00   0.84
     3   9     0.00   0.42  -0.34     0.00  -0.25   0.14     0.00   0.03  -0.04
     4   9     0.00  -0.42  -0.34     0.00  -0.25  -0.14     0.00  -0.03  -0.04

 -------------------
 - Thermochemistry -
 -------------------
 Temperature 298.150 Kelvin.  Pressure 1.00000 Atm.
 Atom     1 has atomic number  8 and mass  15.99491
 Atom     2 has atomic number  6 and mass  12.00000
 Atom     3 has atomic number  9 and mass  18.99840
 Atom     4 has atomic number  9 and mass  18.99840
 Molecular mass:    65.99172 amu.
 Principal axes and moments of inertia in atomic units:
                                 1                 2                 3
     Eigenvalues --          154.948785        155.660289        310.609075
           X                   0.000000          0.000000          1.000000
           Y                   0.000000          1.000000          0.000000
           Z                   1.000000          0.000000          0.000000
 This molecule is an asymmetric top.
 Rotational symmetry number  2.
 Rotational temperatures (Kelvin)      0.55898     0.55643     0.27885
 Rotational constants (GHZ):          11.64734    11.59410     5.81033
 Zero-point vibrational energy      37109.8 (Joules/Mol)
                                    8.86945 (Kcal/Mol)
 Warning -- explicit consideration of   2 degrees of freedom as
           vibrations may cause significant error
 Vibrational temperatures:    821.80   882.39  1099.89  1405.69  1845.94
          (Kelvin)           2870.86
 
 Zero-point correction=                           0.014134 (Hartree/Particle)
 Thermal correction to Energy=                    0.017438
 Thermal correction to Enthalpy=                  0.018383
 Thermal correction to Gibbs Free Energy=        -0.011044
 Sum of electronic and zero-point Energies=           -312.993817
 Sum of electronic and thermal Energies=              -312.990513
 Sum of electronic and thermal Enthalpies=            -312.989568
 Sum of electronic and thermal Free Energies=         -313.018995
 
                     E (Thermal)             CV                S
                      KCal/Mol        Cal/Mol-Kelvin    Cal/Mol-Kelvin
 Total                   10.943              9.342             61.933
 Electronic               0.000              0.000              0.000
 Translational            0.889              2.981             38.479
 Rotational               0.889              2.981             22.154
 Vibrational              9.165              3.380              1.301
 Vibration     1          0.927              1.094              0.502
 Vibration     2          0.973              1.004              0.427
                       Q            Log10(Q)             Ln(Q)
 Total Bot       0.120195D+06          5.079888         11.696874
 Total V=0       0.381275D+12         11.581239         26.666788
 Vib (Bot)       0.368209D-06         -6.433906        -14.814616
 Vib (Bot)    1  0.269138D+00         -0.570025         -1.312530
 Vib (Bot)    2  0.240137D+00         -0.619540         -1.426544
 Vib (V=0)       0.116801D+01          0.067445          0.155298
 Vib (V=0)    1  0.106783D+01          0.028504          0.065632
 Vib (V=0)    2  0.105468D+01          0.023119          0.053234
 Electronic      0.100000D+01          0.000000          0.000000
 Translational   0.210711D+08          7.323688         16.863415
 Rotational      0.154919D+05          4.190106          9.648075

     ==================================================
      Anharmonic Data: Displacement Vectors Definition
     ==================================================

 Framework definition based on atomic masses: C2V 
 ***** Axes restored to original set *****
 -------------------------------------------------------------------
 Center     Atomic                   Forces (Hartrees/Bohr)
 Number     Number              X              Y              Z
 -------------------------------------------------------------------
      1        8          -0.000002045    0.000000000    0.000000000
      2        6           0.000002541    0.000000000    0.000000000
      3        9          -0.000000248    0.000000392    0.000000000
      4        9          -0.000000248   -0.000000392    0.000000000
 -------------------------------------------------------------------
 Cartesian Forces:  Max     0.000002541 RMS     0.000000960
 NDeriv=      6 NFrqRd=  0 NDerD0=      0 MskFDP=       0 MskDFD=       0 MskDF0=       0
 At 1st pt FD prop file    721 does not exist.
 At 1st pt FD prop file    722 does not exist.
 D2Numr ... symmetry will not be used.
 Standard basis: 6-31G(d) (6D, 7F)
    60 basis functions,   112 primitive gaussians,    60 cartesian basis functions
    16 alpha electrons       16 beta electrons
       nuclear repulsion energy       118.9287938631 Hartrees.
 NAtoms=    4 NActive=    4 NUniq=    4 SFac= 1.00D+00 NAtFMM=   60 NAOKFM=F Big=F
 Integral buffers will be    131072 words long.
 Raffenetti 2 integral format.
 Two-electron integral symmetry is turned off.
 One-electron integrals computed using PRISM.
 NBasis=    60 RedAO= T EigKep=  4.39D-03  NBF=    60
 NBsUse=    60 1.00D-06 EigRej= -1.00D+00 NBFU=    60
 Initial guess from the checkpoint file:  "f2co.chk"
 B after Tr=     0.000000    0.000000   -0.000039
         Rot=    1.000000    0.000000    0.000000    0.000000 Ang=   0.00 deg.
 Keep R1 ints in memory in canonical form, NReq=8765647.
 Requested convergence on RMS density matrix=1.00D-08 within  48 cycles.
 Requested convergence on MAX density matrix=1.00D-06.
 Requested convergence on             energy=1.00D-06.
 No special actions if energy rises.
 SCF Done:  E(RB3LYP) =  -313.007948795     A.U. after    7 cycles
            NFock=  7  Conv=0.19D-08     -V/T= 2.0074
 QCSCF skips out because SCF is already converged.
 DoSCS=F DFT=T ScalE2(SS,OS)=  1.000000  1.000000
 Range of M.O.s used for correlation:     1    60
 NBasis=    60 NAE=    16 NBE=    16 NFC=     0 NFV=     0
 NROrb=     60 NOA=    16 NOB=    16 NVA=    44 NVB=    44
 Symmetrizing basis deriv contribution to polar:
 IMax=3 JMax=2 DiffMx= 0.00D+00
 G2DrvN: will do     5 centers at a time, making    1 passes.
 Calling FoFCou, ICntrl=  3107 FMM=F I1Cent=   0 AccDes= 0.00D+00.
 End of G2Drv FD prop file    721 does not exist.
 End of G2Drv FD prop file    722 does not exist.
 End of G2Drv FD prop file    788 does not exist.
 End of G2Drv FD prop file    804 does not exist.
          IDoAtm=1111
          Differentiating once with respect to electric field.
                with respect to dipole field.
          Differentiating once with respect to nuclear coordinates.
 Keep R1 ints in memory in canonical form, NReq=8750575.
          There are    15 degrees of freedom in the 1st order CPHF.  IDoFFX=6 NUNeed=     3.
     12 vectors produced by pass  0 Test12= 4.69D-15 6.67D-09 XBig12= 1.45D+01 3.12D+00.
 AX will form    12 AO Fock derivatives at one time.
     12 vectors produced by pass  1 Test12= 4.69D-15 6.67D-09 XBig12= 4.76D+00 7.17D-01.
     12 vectors produced by pass  2 Test12= 4.69D-15 6.67D-09 XBig12= 2.40D-01 1.50D-01.
     12 vectors produced by pass  3 Test12= 4.69D-15 6.67D-09 XBig12= 4.59D-03 1.97D-02.
     12 vectors produced by pass  4 Test12= 4.69D-15 6.67D-09 XBig12= 3.09D-05 2.43D-03.
     11 vectors produced by pass  5 Test12= 4.69D-15 6.67D-09 XBig12= 7.36D-08 7.80D-05.
      5 vectors produced by pass  6 Test12= 4.69D-15 6.67D-09 XBig12= 8.57D-11 3.67D-06.
      1 vectors produced by pass  7 Test12= 4.69D-15 6.67D-09 XBig12= 1.03D-13 1.09D-07.
 InvSVY:  IOpt=1 It=  1 EMax= 4.44D-16
 Solved reduced A of dimension    77 with    12 vectors.
 Isotropic polarizability for W=    0.000000       13.35 Bohr**3.
 End of Minotr FD prop file    721 does not exist.
 End of Minotr FD prop file    722 does not exist.
 End of Minotr FD prop file    788 does not exist.
 End of Minotr FD prop file    804 does not exist.
 
 **********************************************************************
 
               Population analysis using the SCF Density.
 
 **********************************************************************
 
 Alpha  occ. eigenvalues --      -24.77343     -24.77343     -19.20063     -10.45144      -1.33063
 Alpha  occ. eigenvalues --       -1.26102      -1.10977      -0.68884      -0.61820      -0.57036
 Alpha  occ. eigenvalues --       -0.54162      -0.47376      -0.46964      -0.45455      -0.39670
 Alpha  occ. eigenvalues --       -0.35349
 Alpha virt. eigenvalues --       -0.01792       0.08989       0.24594       0.34500       0.46693
 Alpha virt. eigenvalues --        0.46853       0.47443       0.63399       0.82145       0.94005
 Alpha virt. eigenvalues --        0.95768       1.05138       1.10788       1.12322       1.19012
 Alpha virt. eigenvalues --        1.26665       1.31769       1.35954       1.37835       1.38289
 Alpha virt. eigenvalues --        1.59725       1.67659       1.68287       1.76528       1.76803
 Alpha virt. eigenvalues --        1.81034       1.84419       1.85804       1.88943       1.94576
 Alpha virt. eigenvalues --        2.03706       2.11467       2.15852       2.51947       2.69380
 Alpha virt. eigenvalues --        2.76110       2.81777       2.98955       3.06936       3.14305
 Alpha virt. eigenvalues --        3.83104       4.24580       4.42982       4.54431
          Condensed to atoms (all electrons):
               1          2          3          4
     1  O    7.898430   0.575618  -0.055997  -0.055997
     2  C    0.575618   4.024559   0.318166   0.318166
     3  F   -0.055997   0.318166   8.993432  -0.054881
     4  F   -0.055997   0.318166  -0.054881   8.993432
 Mulliken charges:
               1
     1  O   -0.362054
     2  C    0.763492
     3  F   -0.200719
     4  F   -0.200719
 Sum of Mulliken charges=   0.00000
 Mulliken charges with hydrogens summed into heavy atoms:
               1
     1  O   -0.362054
     2  C    0.763492
     3  F   -0.200719
     4  F   -0.200719
 APT charges:
               1
     1  O   -0.609877
     2  C    1.552401
     3  F   -0.471262
     4  F   -0.471262
 Sum of APT charges=   0.00000
 APT charges with hydrogens summed into heavy atoms:
               1
     1  O   -0.609877
     2  C    1.552401
     3  F   -0.471262
     4  F   -0.471262
 Electronic spatial extent (au):  <R**2>=            195.3754
 Charge=              0.0000 electrons
 Dipole moment (field-independent basis, Debye):
    X=              0.0000    Y=              0.0000    Z=             -1.1583  Tot=              1.1583
 Quadrupole moment (field-independent basis, Debye-Ang):
   XX=            -18.2929   YY=            -20.3639   ZZ=            -22.5118
   XY=              0.0000   XZ=              0.0000   YZ=              0.0000
 Traceless Quadrupole moment (field-independent basis, Debye-Ang):
   XX=              2.0966   YY=              0.0256   ZZ=             -2.1222
   XY=              0.0000   XZ=              0.0000   YZ=              0.0000
 Octapole moment (field-independent basis, Debye-Ang**2):
  XXX=              0.0000  YYY=              0.0000  ZZZ=             -9.0118  XYY=              0.0000
  XXY=              0.0000  XXZ=             -1.6742  XZZ=              0.0000  YZZ=              0.0000
  YYZ=             -1.6324  XYZ=              0.0000
 Hexadecapole moment (field-independent basis, Debye-Ang**3):
 XXXX=            -11.5260 YYYY=            -75.1949 ZZZZ=            -95.3269 XXXY=              0.0000
 XXXZ=              0.0000 YYYX=              0.0000 YYYZ=              0.0000 ZZZX=              0.0000
 ZZZY=              0.0000 XXYY=            -14.5211 XXZZ=            -16.9453 YYZZ=            -27.8175
 XXYZ=              0.0000 YYXZ=              0.0000 ZZXY=              0.0000
 N-N=         118.928794 E-N=        -979.399096  KE=         310.705693
 Calling FoFJK, ICntrl=    100127 FMM=F ISym2X=0 I1Cent= 0 IOpClX= 0 NMat=1 NMatS=1 NMatT=0.
 -------------------------------------------------------------------
 Center     Atomic                   Forces (Hartrees/Bohr)
 Number     Number              X              Y              Z
 -------------------------------------------------------------------
      1        8           0.000000000    0.000000000    0.000349108
      2        6           0.000000000    0.000000000    0.000229797
      3        9           0.000000000   -0.000562169   -0.000289452
      4        9           0.000000000    0.000562169   -0.000289452
 -------------------------------------------------------------------
 Cartesian Forces:  Max     0.000562169 RMS     0.000284944
 NDeriv=      6 NFrqRd=  0 NDerD0=      0 MskFDP=       0 MskDFD=       0 MskDF0=       0
 Re-enter D2Numr:  normal mode      1 step-up   number 1
 Standard basis: 6-31G(d) (6D, 7F)
    60 basis functions,   112 primitive gaussians,    60 cartesian basis functions
    16 alpha electrons       16 beta electrons
       nuclear repulsion energy       118.9591442955 Hartrees.
 NAtoms=    4 NActive=    4 NUniq=    4 SFac= 1.00D+00 NAtFMM=   60 NAOKFM=F Big=F
 Integral buffers will be    131072 words long.
 Raffenetti 2 integral format.
 Two-electron integral symmetry is turned off.
 One-electron integrals computed using PRISM.
 NBasis=    60 RedAO= T EigKep=  4.38D-03  NBF=    60
 NBsUse=    60 1.00D-06 EigRej= -1.00D+00 NBFU=    60
 Initial guess from the checkpoint file:  "f2co.chk"
 B after Tr=     0.000000    0.000000    0.000039
         Rot=    1.000000    0.000000    0.000000    0.000000 Ang=   0.00 deg.
 Keep R1 ints in memory in canonical form, NReq=8765647.
 Requested convergence on RMS density matrix=1.00D-08 within  48 cycles.
 Requested convergence on MAX density matrix=1.00D-06.
 Requested convergence on             energy=1.00D-06.
 No special actions if energy rises.
 SCF Done:  E(RB3LYP) =  -313.007948783     A.U. after    7 cycles
            NFock=  7  Conv=0.16D-08     -V/T= 2.0074
 QCSCF skips out because SCF is already converged.
 DoSCS=F DFT=T ScalE2(SS,OS)=  1.000000  1.000000
 Range of M.O.s used for correlation:     1    60
 NBasis=    60 NAE=    16 NBE=    16 NFC=     0 NFV=     0
 NROrb=     60 NOA=    16 NOB=    16 NVA=    44 NVB=    44
 Symmetrizing basis deriv contribution to polar:
 IMax=3 JMax=2 DiffMx= 0.00D+00
 G2DrvN: will do     5 centers at a time, making    1 passes.
 Calling FoFCou, ICntrl=  3107 FMM=F I1Cent=   0 AccDes= 0.00D+00.
 End of G2Drv FD prop file    721 does not exist.
 End of G2Drv FD prop file    722 does not exist.
 End of G2Drv FD prop file    788 does not exist.
 End of G2Drv FD prop file    804 does not exist.
          IDoAtm=1111
          Differentiating once with respect to electric field.
                with respect to dipole field.
          Differentiating once with respect to nuclear coordinates.
 Keep R1 ints in memory in canonical form, NReq=8750575.
          There are    15 degrees of freedom in the 1st order CPHF.  IDoFFX=6 NUNeed=     3.
     12 vectors produced by pass  0 Test12= 4.69D-15 6.67D-09 XBig12= 1.46D+01 3.12D+00.
 AX will form    12 AO Fock derivatives at one time.
     12 vectors produced by pass  1 Test12= 4.69D-15 6.67D-09 XBig12= 4.77D+00 7.17D-01.
     12 vectors produced by pass  2 Test12= 4.69D-15 6.67D-09 XBig12= 2.42D-01 1.51D-01.
     12 vectors produced by pass  3 Test12= 4.69D-15 6.67D-09 XBig12= 4.63D-03 2.03D-02.
     12 vectors produced by pass  4 Test12= 4.69D-15 6.67D-09 XBig12= 3.19D-05 2.48D-03.
     11 vectors produced by pass  5 Test12= 4.69D-15 6.67D-09 XBig12= 7.77D-08 8.15D-05.
      5 vectors produced by pass  6 Test12= 4.69D-15 6.67D-09 XBig12= 9.02D-11 3.94D-06.
      1 vectors produced by pass  7 Test12= 4.69D-15 6.67D-09 XBig12= 1.07D-13 1.12D-07.
 InvSVY:  IOpt=1 It=  1 EMax= 5.55D-16
 Solved reduced A of dimension    77 with    12 vectors.
 Isotropic polarizability for W=    0.000000       13.35 Bohr**3.
 End of Minotr FD prop file    721 does not exist.
 End of Minotr FD prop file    722 does not exist.
 End of Minotr FD prop file    788 does not exist.
 End of Minotr FD prop file    804 does not exist.
 
 **********************************************************************
 
               Population analysis using the SCF Density.
 
 **********************************************************************
 
 Alpha  occ. eigenvalues --      -24.77323     -24.77323     -19.20094     -10.45149      -1.33095
 Alpha  occ. eigenvalues --       -1.26068      -1.10993      -0.68892      -0.61798      -0.57045
 Alpha  occ. eigenvalues --       -0.54184      -0.47353      -0.46991      -0.45394      -0.39684
 Alpha  occ. eigenvalues --       -0.35380
 Alpha virt. eigenvalues --       -0.01793       0.09051       0.24501       0.34575       0.46693
 Alpha virt. eigenvalues --        0.46851       0.47448       0.63373       0.82137       0.93988
 Alpha virt. eigenvalues --        0.95776       1.05169       1.10753       1.12389       1.18900
 Alpha virt. eigenvalues --        1.26573       1.31896       1.35978       1.37933       1.38286
 Alpha virt. eigenvalues --        1.59431       1.67755       1.68131       1.76464       1.76784
 Alpha virt. eigenvalues --        1.81160       1.84261       1.85748       1.88759       1.94773
 Alpha virt. eigenvalues --        2.04355       2.11464       2.15866       2.51832       2.69529
 Alpha virt. eigenvalues --        2.76184       2.81707       2.98934       3.06870       3.14418
 Alpha virt. eigenvalues --        3.83258       4.24813       4.42902       4.54239
          Condensed to atoms (all electrons):
               1          2          3          4
     1  O    7.898299   0.575485  -0.055622  -0.055622
     2  C    0.575485   4.023968   0.318370   0.318370
     3  F   -0.055622   0.318370   8.993694  -0.055809
     4  F   -0.055622   0.318370  -0.055809   8.993694
 Mulliken charges:
               1
     1  O   -0.362541
     2  C    0.763808
     3  F   -0.200633
     4  F   -0.200633
 Sum of Mulliken charges=   0.00000
 Mulliken charges with hydrogens summed into heavy atoms:
               1
     1  O   -0.362541
     2  C    0.763808
     3  F   -0.200633
     4  F   -0.200633
 APT charges:
               1
     1  O   -0.609782
     2  C    1.552958
     3  F   -0.471588
     4  F   -0.471588
 Sum of APT charges=   0.00000
 APT charges with hydrogens summed into heavy atoms:
               1
     1  O   -0.609782
     2  C    1.552958
     3  F   -0.471588
     4  F   -0.471588
 Electronic spatial extent (au):  <R**2>=            195.2849
 Charge=              0.0000 electrons
 Dipole moment (field-independent basis, Debye):
    X=              0.0000    Y=              0.0000    Z=             -1.1517  Tot=              1.1517
 Quadrupole moment (field-independent basis, Debye-Ang):
   XX=            -18.2926   YY=            -20.3630   ZZ=            -22.5151
   XY=              0.0000   XZ=              0.0000   YZ=              0.0000
 Traceless Quadrupole moment (field-independent basis, Debye-Ang):
   XX=              2.0976   YY=              0.0272   ZZ=             -2.1249
   XY=              0.0000   XZ=              0.0000   YZ=              0.0000
 Octapole moment (field-independent basis, Debye-Ang**2):
  XXX=              0.0000  YYY=              0.0000  ZZZ=             -9.0412  XYY=              0.0000
  XXY=              0.0000  XXZ=             -1.6791  XZZ=              0.0000  YZZ=              0.0000
  YYZ=             -1.6370  XYZ=              0.0000
 Hexadecapole moment (field-independent basis, Debye-Ang**3):
 XXXX=            -11.5255 YYYY=            -74.9228 ZZZZ=            -95.5905 XXXY=              0.0000
 XXXZ=              0.0000 YYYX=              0.0000 YYYZ=              0.0000 ZZZX=              0.0000
 ZZZY=              0.0000 XXYY=            -14.4715 XXZZ=            -16.9881 YYZZ=            -27.8067
 XXYZ=              0.0000 YYXZ=              0.0000 ZZXY=              0.0000
 N-N=         118.959144 E-N=        -979.460660  KE=         310.707083
 Calling FoFJK, ICntrl=    100127 FMM=F ISym2X=0 I1Cent= 0 IOpClX= 0 NMat=1 NMatS=1 NMatT=0.
 -------------------------------------------------------------------
 Center     Atomic                   Forces (Hartrees/Bohr)
 Number     Number              X              Y              Z
 -------------------------------------------------------------------
      1        8           0.000000000    0.000000000   -0.000345173
      2        6           0.000000000    0.000000000   -0.000235729
      3        9           0.000000000    0.000566655    0.000290451
      4        9           0.000000000   -0.000566655    0.000290451
 -------------------------------------------------------------------
 Cartesian Forces:  Max     0.000566655 RMS     0.000286594
 NDeriv=      6 NFrqRd=  0 NDerD0=      0 MskFDP=       0 MskDFD=       0 MskDF0=       0
 Re-enter D2Numr:  normal mode      1 step-down number 1
 Standard basis: 6-31G(d) (6D, 7F)
    60 basis functions,   112 primitive gaussians,    60 cartesian basis functions
    16 alpha electrons       16 beta electrons
       nuclear repulsion energy       118.9439538555 Hartrees.
 NAtoms=    4 NActive=    4 NUniq=    4 SFac= 1.00D+00 NAtFMM=   60 NAOKFM=F Big=F
 Integral buffers will be    131072 words long.
 Raffenetti 2 integral format.
 Two-electron integral symmetry is turned off.
 One-electron integrals computed using PRISM.
 NBasis=    60 RedAO= T EigKep=  4.38D-03  NBF=    60
 NBsUse=    60 1.00D-06 EigRej= -1.00D+00 NBFU=    60
 Initial guess from the checkpoint file:  "f2co.chk"
 B after Tr=     0.000000    0.000027    0.000000
         Rot=    1.000000    0.000010    0.000000    0.000000 Ang=   0.00 deg.
 Keep R1 ints in memory in canonical form, NReq=8765647.
 Requested convergence on RMS density matrix=1.00D-08 within  48 cycles.
 Requested convergence on MAX density matrix=1.00D-06.
 Requested convergence on             energy=1.00D-06.
 No special actions if energy rises.
 SCF Done:  E(RB3LYP) =  -313.007948452     A.U. after    7 cycles
            NFock=  7  Conv=0.42D-08     -V/T= 2.0074
 QCSCF skips out because SCF is already converged.
 DoSCS=F DFT=T ScalE2(SS,OS)=  1.000000  1.000000
 Range of M.O.s used for correlation:     1    60
 NBasis=    60 NAE=    16 NBE=    16 NFC=     0 NFV=     0
 NROrb=     60 NOA=    16 NOB=    16 NVA=    44 NVB=    44
 Symmetrizing basis deriv contribution to polar:
 IMax=3 JMax=2 DiffMx= 0.00D+00
 G2DrvN: will do     5 centers at a time, making    1 passes.
 Calling FoFCou, ICntrl=  3107 FMM=F I1Cent=   0 AccDes= 0.00D+00.
 End of G2Drv FD prop file    721 does not exist.
 End of G2Drv FD prop file    722 does not exist.
 End of G2Drv FD prop file    788 does not exist.
 End of G2Drv FD prop file    804 does not exist.
          IDoAtm=1111
          Differentiating once with respect to electric field.
                with respect to dipole field.
          Differentiating once with respect to nuclear coordinates.
 Keep R1 ints in memory in canonical form, NReq=8750575.
          There are    15 degrees of freedom in the 1st order CPHF.  IDoFFX=6 NUNeed=     3.
     12 vectors produced by pass  0 Test12= 4.69D-15 6.67D-09 XBig12= 1.45D+01 3.12D+00.
 AX will form    12 AO Fock derivatives at one time.
     12 vectors produced by pass  1 Test12= 4.69D-15 6.67D-09 XBig12= 4.77D+00 7.17D-01.
     12 vectors produced by pass  2 Test12= 4.69D-15 6.67D-09 XBig12= 2.41D-01 1.51D-01.
     12 vectors produced by pass  3 Test12= 4.69D-15 6.67D-09 XBig12= 4.61D-03 2.00D-02.
     12 vectors produced by pass  4 Test12= 4.69D-15 6.67D-09 XBig12= 3.14D-05 2.45D-03.
     11 vectors produced by pass  5 Test12= 4.69D-15 6.67D-09 XBig12= 7.52D-08 7.90D-05.
      5 vectors produced by pass  6 Test12= 4.69D-15 6.67D-09 XBig12= 8.73D-11 3.78D-06.
      1 vectors produced by pass  7 Test12= 4.69D-15 6.67D-09 XBig12= 1.04D-13 1.10D-07.
 InvSVY:  IOpt=1 It=  1 EMax= 6.66D-16
 Solved reduced A of dimension    77 with    12 vectors.
 Isotropic polarizability for W=    0.000000       13.35 Bohr**3.
 End of Minotr FD prop file    721 does not exist.
 End of Minotr FD prop file    722 does not exist.
 End of Minotr FD prop file    788 does not exist.
 End of Minotr FD prop file    804 does not exist.
 
 **********************************************************************
 
               Population analysis using the SCF Density.
 
 **********************************************************************
 
 Alpha  occ. eigenvalues --      -24.77346     -24.77321     -19.20079     -10.45147      -1.33079
 Alpha  occ. eigenvalues --       -1.26086      -1.10985      -0.68888      -0.61809      -0.57040
 Alpha  occ. eigenvalues --       -0.54173      -0.47365      -0.46978      -0.45424      -0.39677
 Alpha  occ. eigenvalues --       -0.35365
 Alpha virt. eigenvalues --       -0.01793       0.09020       0.24548       0.34538       0.46693
 Alpha virt. eigenvalues --        0.46852       0.47446       0.63386       0.82141       0.93996
 Alpha virt. eigenvalues --        0.95772       1.05153       1.10771       1.12356       1.18956
 Alpha virt. eigenvalues --        1.26619       1.31832       1.35966       1.37884       1.38287
 Alpha virt. eigenvalues --        1.59577       1.67699       1.68217       1.76492       1.76798
 Alpha virt. eigenvalues --        1.81096       1.84329       1.85782       1.88858       1.94674
 Alpha virt. eigenvalues --        2.04029       2.11466       2.15859       2.51889       2.69455
 Alpha virt. eigenvalues --        2.76145       2.81742       2.98944       3.06903       3.14361
 Alpha virt. eigenvalues --        3.83181       4.24697       4.42940       4.54337
          Condensed to atoms (all electrons):
               1          2          3          4
     1  O    7.898370   0.575549  -0.056192  -0.055429
     2  C    0.575549   4.024266   0.318463   0.318075
     3  F   -0.056192   0.318463   8.993512  -0.055343
     4  F   -0.055429   0.318075  -0.055343   8.993608
 Mulliken charges:
               1
     1  O   -0.362298
     2  C    0.763647
     3  F   -0.200439
     4  F   -0.200910
 Sum of Mulliken charges=   0.00000
 Mulliken charges with hydrogens summed into heavy atoms:
               1
     1  O   -0.362298
     2  C    0.763647
     3  F   -0.200439
     4  F   -0.200910
 APT charges:
               1
     1  O   -0.609827
     2  C    1.552678
     3  F   -0.471510
     4  F   -0.471340
 Sum of APT charges=   0.00000
 APT charges with hydrogens summed into heavy atoms:
               1
     1  O   -0.609827
     2  C    1.552678
     3  F   -0.471510
     4  F   -0.471340
 Electronic spatial extent (au):  <R**2>=            195.3302
 Charge=              0.0000 electrons
 Dipole moment (field-independent basis, Debye):
    X=              0.0000    Y=             -0.0042    Z=             -1.1550  Tot=              1.1550
 Quadrupole moment (field-independent basis, Debye-Ang):
   XX=            -18.2928   YY=            -20.3635   ZZ=            -22.5135
   XY=              0.0000   XZ=              0.0000   YZ=             -0.0027
 Traceless Quadrupole moment (field-independent basis, Debye-Ang):
   XX=              2.0971   YY=              0.0264   ZZ=             -2.1236
   XY=              0.0000   XZ=              0.0000   YZ=             -0.0027
 Octapole moment (field-independent basis, Debye-Ang**2):
  XXX=              0.0000  YYY=              0.0002  ZZZ=             -9.0266  XYY=              0.0000
  XXY=             -0.0004  XXZ=             -1.6767  XZZ=              0.0000  YZZ=             -0.0019
  YYZ=             -1.6347  XYZ=              0.0000
 Hexadecapole moment (field-independent basis, Debye-Ang**3):
 XXXX=            -11.5258 YYYY=            -75.0588 ZZZZ=            -95.4588 XXXY=              0.0000
 XXXZ=              0.0000 YYYX=              0.0000 YYYZ=             -0.0720 ZZZX=              0.0000
 ZZZY=             -0.0663 XXYY=            -14.4963 XXZZ=            -16.9667 YYZZ=            -27.8121
 XXYZ=             -0.0235 YYXZ=              0.0000 ZZXY=              0.0000
 N-N=         118.943954 E-N=        -979.429838  KE=         310.706382
 Calling FoFJK, ICntrl=    100127 FMM=F ISym2X=0 I1Cent= 0 IOpClX= 0 NMat=1 NMatS=1 NMatT=0.
 -------------------------------------------------------------------
 Center     Atomic                   Forces (Hartrees/Bohr)
 Number     Number              X              Y              Z
 -------------------------------------------------------------------
      1        8           0.000000000   -0.000694438    0.000000912
      2        6           0.000000000    0.000231562    0.000000828
      3        9           0.000000000    0.000232246   -0.000553036
      4        9           0.000000000    0.000230630    0.000551297
 -------------------------------------------------------------------
 Cartesian Forces:  Max     0.000694438 RMS     0.000323106
 NDeriv=      6 NFrqRd=  0 NDerD0=      0 MskFDP=       0 MskDFD=       0 MskDF0=       0
 Re-enter D2Numr:  normal mode      2 step-up   number 1
 Standard basis: 6-31G(d) (6D, 7F)
    60 basis functions,   112 primitive gaussians,    60 cartesian basis functions
    16 alpha electrons       16 beta electrons
       nuclear repulsion energy       118.9439538555 Hartrees.
 NAtoms=    4 NActive=    4 NUniq=    4 SFac= 1.00D+00 NAtFMM=   60 NAOKFM=F Big=F
 Integral buffers will be    131072 words long.
 Raffenetti 2 integral format.
 Two-electron integral symmetry is turned off.
 One-electron integrals computed using PRISM.
 NBasis=    60 RedAO= T EigKep=  4.38D-03  NBF=    60
 NBsUse=    60 1.00D-06 EigRej= -1.00D+00 NBFU=    60
 Initial guess from the checkpoint file:  "f2co.chk"
 B after Tr=     0.000000   -0.000027    0.000000
         Rot=    1.000000   -0.000010    0.000000    0.000000 Ang=   0.00 deg.
 Keep R1 ints in memory in canonical form, NReq=8765647.
 Requested convergence on RMS density matrix=1.00D-08 within  48 cycles.
 Requested convergence on MAX density matrix=1.00D-06.
 Requested convergence on             energy=1.00D-06.
 No special actions if energy rises.
 SCF Done:  E(RB3LYP) =  -313.007948452     A.U. after    7 cycles
            NFock=  7  Conv=0.42D-08     -V/T= 2.0074
 QCSCF skips out because SCF is already converged.
 DoSCS=F DFT=T ScalE2(SS,OS)=  1.000000  1.000000
 Range of M.O.s used for correlation:     1    60
 NBasis=    60 NAE=    16 NBE=    16 NFC=     0 NFV=     0
 NROrb=     60 NOA=    16 NOB=    16 NVA=    44 NVB=    44
 Symmetrizing basis deriv contribution to polar:
 IMax=3 JMax=2 DiffMx= 0.00D+00
 G2DrvN: will do     5 centers at a time, making    1 passes.
 Calling FoFCou, ICntrl=  3107 FMM=F I1Cent=   0 AccDes= 0.00D+00.
 End of G2Drv FD prop file    721 does not exist.
 End of G2Drv FD prop file    722 does not exist.
 End of G2Drv FD prop file    788 does not exist.
 End of G2Drv FD prop file    804 does not exist.
          IDoAtm=1111
          Differentiating once with respect to electric field.
                with respect to dipole field.
          Differentiating once with respect to nuclear coordinates.
 Keep R1 ints in memory in canonical form, NReq=8750575.
          There are    15 degrees of freedom in the 1st order CPHF.  IDoFFX=6 NUNeed=     3.
     12 vectors produced by pass  0 Test12= 4.69D-15 6.67D-09 XBig12= 1.45D+01 3.12D+00.
 AX will form    12 AO Fock derivatives at one time.
     12 vectors produced by pass  1 Test12= 4.69D-15 6.67D-09 XBig12= 4.77D+00 7.17D-01.
     12 vectors produced by pass  2 Test12= 4.69D-15 6.67D-09 XBig12= 2.41D-01 1.51D-01.
     12 vectors produced by pass  3 Test12= 4.69D-15 6.67D-09 XBig12= 4.61D-03 2.00D-02.
     12 vectors produced by pass  4 Test12= 4.69D-15 6.67D-09 XBig12= 3.14D-05 2.45D-03.
     11 vectors produced by pass  5 Test12= 4.69D-15 6.67D-09 XBig12= 7.52D-08 7.90D-05.
      5 vectors produced by pass  6 Test12= 4.69D-15 6.67D-09 XBig12= 8.73D-11 3.78D-06.
      1 vectors produced by pass  7 Test12= 4.69D-15 6.67D-09 XBig12= 1.04D-13 1.10D-07.
 InvSVY:  IOpt=1 It=  1 EMax= 4.44D-16
 Solved reduced A of dimension    77 with    12 vectors.
 Isotropic polarizability for W=    0.000000       13.35 Bohr**3.
 End of Minotr FD prop file    721 does not exist.
 End of Minotr FD prop file    722 does not exist.
 End of Minotr FD prop file    788 does not exist.
 End of Minotr FD prop file    804 does not exist.
 
 **********************************************************************
 
               Population analysis using the SCF Density.
 
 **********************************************************************
 
 Alpha  occ. eigenvalues --      -24.77346     -24.77321     -19.20079     -10.45147      -1.33079
 Alpha  occ. eigenvalues --       -1.26086      -1.10985      -0.68888      -0.61809      -0.57040
 Alpha  occ. eigenvalues --       -0.54173      -0.47365      -0.46978      -0.45424      -0.39677
 Alpha  occ. eigenvalues --       -0.35365
 Alpha virt. eigenvalues --       -0.01793       0.09020       0.24548       0.34538       0.46693
 Alpha virt. eigenvalues --        0.46852       0.47446       0.63386       0.82141       0.93996
 Alpha virt. eigenvalues --        0.95772       1.05153       1.10771       1.12356       1.18956
 Alpha virt. eigenvalues --        1.26619       1.31832       1.35966       1.37884       1.38287
 Alpha virt. eigenvalues --        1.59577       1.67699       1.68217       1.76492       1.76798
 Alpha virt. eigenvalues --        1.81096       1.84329       1.85782       1.88858       1.94674
 Alpha virt. eigenvalues --        2.04029       2.11466       2.15859       2.51889       2.69455
 Alpha virt. eigenvalues --        2.76145       2.81742       2.98944       3.06903       3.14361
 Alpha virt. eigenvalues --        3.83181       4.24697       4.42940       4.54337
          Condensed to atoms (all electrons):
               1          2          3          4
     1  O    7.898370   0.575549  -0.055429  -0.056192
     2  C    0.575549   4.024266   0.318075   0.318463
     3  F   -0.055429   0.318075   8.993608  -0.055343
     4  F   -0.056192   0.318463  -0.055343   8.993512
 Mulliken charges:
               1
     1  O   -0.362298
     2  C    0.763647
     3  F   -0.200910
     4  F   -0.200439
 Sum of Mulliken charges=   0.00000
 Mulliken charges with hydrogens summed into heavy atoms:
               1
     1  O   -0.362298
     2  C    0.763647
     3  F   -0.200910
     4  F   -0.200439
 APT charges:
               1
     1  O   -0.609827
     2  C    1.552678
     3  F   -0.471340
     4  F   -0.471510
 Sum of APT charges=   0.00000
 APT charges with hydrogens summed into heavy atoms:
               1
     1  O   -0.609827
     2  C    1.552678
     3  F   -0.471340
     4  F   -0.471510
 Electronic spatial extent (au):  <R**2>=            195.3302
 Charge=              0.0000 electrons
 Dipole moment (field-independent basis, Debye):
    X=              0.0000    Y=              0.0042    Z=             -1.1550  Tot=              1.1550
 Quadrupole moment (field-independent basis, Debye-Ang):
   XX=            -18.2928   YY=            -20.3635   ZZ=            -22.5135
   XY=              0.0000   XZ=              0.0000   YZ=              0.0027
 Traceless Quadrupole moment (field-independent basis, Debye-Ang):
   XX=              2.0971   YY=              0.0264   ZZ=             -2.1236
   XY=              0.0000   XZ=              0.0000   YZ=              0.0027
 Octapole moment (field-independent basis, Debye-Ang**2):
  XXX=              0.0000  YYY=             -0.0002  ZZZ=             -9.0266  XYY=              0.0000
  XXY=              0.0004  XXZ=             -1.6767  XZZ=              0.0000  YZZ=              0.0019
  YYZ=             -1.6347  XYZ=              0.0000
 Hexadecapole moment (field-independent basis, Debye-Ang**3):
 XXXX=            -11.5258 YYYY=            -75.0588 ZZZZ=            -95.4588 XXXY=              0.0000
 XXXZ=              0.0000 YYYX=              0.0000 YYYZ=              0.0720 ZZZX=              0.0000
 ZZZY=              0.0663 XXYY=            -14.4963 XXZZ=            -16.9667 YYZZ=            -27.8121
 XXYZ=              0.0235 YYXZ=              0.0000 ZZXY=              0.0000
 N-N=         118.943954 E-N=        -979.429838  KE=         310.706382
 Calling FoFJK, ICntrl=    100127 FMM=F ISym2X=0 I1Cent= 0 IOpClX= 0 NMat=1 NMatS=1 NMatT=0.
 -------------------------------------------------------------------
 Center     Atomic                   Forces (Hartrees/Bohr)
 Number     Number              X              Y              Z
 -------------------------------------------------------------------
      1        8           0.000000000    0.000694438    0.000000912
      2        6           0.000000000   -0.000231562    0.000000828
      3        9           0.000000000   -0.000230630    0.000551297
      4        9           0.000000000   -0.000232246   -0.000553036
 -------------------------------------------------------------------
 Cartesian Forces:  Max     0.000694438 RMS     0.000323106
 NDeriv=      6 NFrqRd=  0 NDerD0=      0 MskFDP=       0 MskDFD=       0 MskDF0=       0
 Re-enter D2Numr:  normal mode      2 step-down number 1
 Standard basis: 6-31G(d) (6D, 7F)
    60 basis functions,   112 primitive gaussians,    60 cartesian basis functions
    16 alpha electrons       16 beta electrons
       nuclear repulsion energy       118.9437882005 Hartrees.
 NAtoms=    4 NActive=    4 NUniq=    4 SFac= 1.00D+00 NAtFMM=   60 NAOKFM=F Big=F
 Integral buffers will be    131072 words long.
 Raffenetti 2 integral format.
 Two-electron integral symmetry is turned off.
 One-electron integrals computed using PRISM.
 NBasis=    60 RedAO= T EigKep=  4.38D-03  NBF=    60
 NBsUse=    60 1.00D-06 EigRej= -1.00D+00 NBFU=    60
 Initial guess from the checkpoint file:  "f2co.chk"
 B after Tr=     0.000029    0.000000    0.000000
         Rot=    1.000000    0.000000    0.000007    0.000000 Ang=   0.00 deg.
 Keep R1 ints in memory in canonical form, NReq=8765647.
 Requested convergence on RMS density matrix=1.00D-08 within  48 cycles.
 Requested convergence on MAX density matrix=1.00D-06.
 Requested convergence on             energy=1.00D-06.
 No special actions if energy rises.
 SCF Done:  E(RB3LYP) =  -313.007947045     A.U. after    7 cycles
            NFock=  7  Conv=0.95D-08     -V/T= 2.0074
 QCSCF skips out because SCF is already converged.
 DoSCS=F DFT=T ScalE2(SS,OS)=  1.000000  1.000000
 Range of M.O.s used for correlation:     1    60
 NBasis=    60 NAE=    16 NBE=    16 NFC=     0 NFV=     0
 NROrb=     60 NOA=    16 NOB=    16 NVA=    44 NVB=    44
 Symmetrizing basis deriv contribution to polar:
 IMax=3 JMax=2 DiffMx= 0.00D+00
 G2DrvN: will do     5 centers at a time, making    1 passes.
 Calling FoFCou, ICntrl=  3107 FMM=F I1Cent=   0 AccDes= 0.00D+00.
 End of G2Drv FD prop file    721 does not exist.
 End of G2Drv FD prop file    722 does not exist.
 End of G2Drv FD prop file    788 does not exist.
 End of G2Drv FD prop file    804 does not exist.
          IDoAtm=1111
          Differentiating once with respect to electric field.
                with respect to dipole field.
          Differentiating once with respect to nuclear coordinates.
 Keep R1 ints in memory in canonical form, NReq=8750575.
          There are    15 degrees of freedom in the 1st order CPHF.  IDoFFX=6 NUNeed=     3.
     12 vectors produced by pass  0 Test12= 4.69D-15 6.67D-09 XBig12= 1.45D+01 3.12D+00.
 AX will form    12 AO Fock derivatives at one time.
     12 vectors produced by pass  1 Test12= 4.69D-15 6.67D-09 XBig12= 4.76D+00 7.16D-01.
     12 vectors produced by pass  2 Test12= 4.69D-15 6.67D-09 XBig12= 2.08D-01 1.29D-01.
     12 vectors produced by pass  3 Test12= 4.69D-15 6.67D-09 XBig12= 3.65D-03 1.67D-02.
     12 vectors produced by pass  4 Test12= 4.69D-15 6.67D-09 XBig12= 1.95D-05 1.52D-03.
     12 vectors produced by pass  5 Test12= 4.69D-15 6.67D-09 XBig12= 3.46D-08 4.05D-05.
      4 vectors produced by pass  6 Test12= 4.69D-15 6.67D-09 XBig12= 1.65D-11 9.33D-07.
      1 vectors produced by pass  7 Test12= 4.69D-15 6.67D-09 XBig12= 1.72D-14 3.52D-08.
 InvSVY:  IOpt=1 It=  1 EMax= 4.44D-16
 Solved reduced A of dimension    77 with    12 vectors.
 Isotropic polarizability for W=    0.000000       13.35 Bohr**3.
 End of Minotr FD prop file    721 does not exist.
 End of Minotr FD prop file    722 does not exist.
 End of Minotr FD prop file    788 does not exist.
 End of Minotr FD prop file    804 does not exist.
 
 **********************************************************************
 
               Population analysis using the SCF Density.
 
 **********************************************************************
 
 Alpha  occ. eigenvalues --      -24.77333     -24.77333     -19.20079     -10.45147      -1.33079
 Alpha  occ. eigenvalues --       -1.26085      -1.10985      -0.68888      -0.61809      -0.57040
 Alpha  occ. eigenvalues --       -0.54173      -0.47364      -0.46977      -0.45424      -0.39677
 Alpha  occ. eigenvalues --       -0.35365
 Alpha virt. eigenvalues --       -0.01795       0.09023       0.24547       0.34537       0.46693
 Alpha virt. eigenvalues --        0.46853       0.47446       0.63385       0.82141       0.93996
 Alpha virt. eigenvalues --        0.95772       1.05153       1.10768       1.12359       1.18956
 Alpha virt. eigenvalues --        1.26617       1.31832       1.35966       1.37886       1.38287
 Alpha virt. eigenvalues --        1.59580       1.67707       1.68207       1.76496       1.76794
 Alpha virt. eigenvalues --        1.81096       1.84341       1.85776       1.88851       1.94674
 Alpha virt. eigenvalues --        2.04029       2.11446       2.15880       2.51887       2.69453
 Alpha virt. eigenvalues --        2.76147       2.81740       2.98944       3.06902       3.14361
 Alpha virt. eigenvalues --        3.83181       4.24694       4.42937       4.54327
          Condensed to atoms (all electrons):
               1          2          3          4
     1  O    7.898372   0.575542  -0.055810  -0.055810
     2  C    0.575542   4.024277   0.318266   0.318266
     3  F   -0.055810   0.318266   8.993563  -0.055342
     4  F   -0.055810   0.318266  -0.055342   8.993563
 Mulliken charges:
               1
     1  O   -0.362295
     2  C    0.763649
     3  F   -0.200677
     4  F   -0.200677
 Sum of Mulliken charges=   0.00000
 Mulliken charges with hydrogens summed into heavy atoms:
               1
     1  O   -0.362295
     2  C    0.763649
     3  F   -0.200677
     4  F   -0.200677
 APT charges:
               1
     1  O   -0.609821
     2  C    1.552665
     3  F   -0.471422
     4  F   -0.471422
 Sum of APT charges=   0.00000
 APT charges with hydrogens summed into heavy atoms:
               1
     1  O   -0.609821
     2  C    1.552665
     3  F   -0.471422
     4  F   -0.471422
 Electronic spatial extent (au):  <R**2>=            195.3302
 Charge=              0.0000 electrons
 Dipole moment (field-independent basis, Debye):
    X=              0.0089    Y=              0.0000    Z=             -1.1550  Tot=              1.1550
 Quadrupole moment (field-independent basis, Debye-Ang):
   XX=            -18.2927   YY=            -20.3635   ZZ=            -22.5135
   XY=              0.0000   XZ=              0.0012   YZ=              0.0000
 Traceless Quadrupole moment (field-independent basis, Debye-Ang):
   XX=              2.0972   YY=              0.0264   ZZ=             -2.1236
   XY=              0.0000   XZ=              0.0012   YZ=              0.0000
 Octapole moment (field-independent basis, Debye-Ang**2):
  XXX=             -0.0079  YYY=              0.0000  ZZZ=             -9.0265  XYY=             -0.0069
  XXY=              0.0000  XXZ=             -1.6767  XZZ=             -0.0068  YZZ=              0.0000
  YYZ=             -1.6347  XYZ=              0.0000
 Hexadecapole moment (field-independent basis, Debye-Ang**3):
 XXXX=            -11.5260 YYYY=            -75.0588 ZZZZ=            -95.4587 XXXY=              0.0000
 XXXZ=              0.0005 YYYX=              0.0000 YYYZ=              0.0000 ZZZX=              0.0000
 ZZZY=              0.0000 XXYY=            -14.4963 XXZZ=            -16.9667 YYZZ=            -27.8121
 XXYZ=              0.0000 YYXZ=              0.0050 ZZXY=              0.0000
 N-N=         118.943788 E-N=        -979.429504  KE=         310.706358
 Calling FoFJK, ICntrl=    100127 FMM=F ISym2X=0 I1Cent= 0 IOpClX= 0 NMat=1 NMatS=1 NMatT=0.
 -------------------------------------------------------------------
 Center     Atomic                   Forces (Hartrees/Bohr)
 Number     Number              X              Y              Z
 -------------------------------------------------------------------
      1        8           0.000518237    0.000000000   -0.000004045
      2        6          -0.001303711    0.000000000    0.000002156
      3        9           0.000392737   -0.000000483    0.000000945
      4        9           0.000392737    0.000000483    0.000000945
 -------------------------------------------------------------------
 Cartesian Forces:  Max     0.001303711 RMS     0.000435578
 NDeriv=      6 NFrqRd=  0 NDerD0=      0 MskFDP=       0 MskDFD=       0 MskDF0=       0
 Re-enter D2Numr:  normal mode      3 step-up   number 1
 Standard basis: 6-31G(d) (6D, 7F)
    60 basis functions,   112 primitive gaussians,    60 cartesian basis functions
    16 alpha electrons       16 beta electrons
       nuclear repulsion energy       118.9437882005 Hartrees.
 NAtoms=    4 NActive=    4 NUniq=    4 SFac= 1.00D+00 NAtFMM=   60 NAOKFM=F Big=F
 Integral buffers will be    131072 words long.
 Raffenetti 2 integral format.
 Two-electron integral symmetry is turned off.
 One-electron integrals computed using PRISM.
 NBasis=    60 RedAO= T EigKep=  4.38D-03  NBF=    60
 NBsUse=    60 1.00D-06 EigRej= -1.00D+00 NBFU=    60
 Initial guess from the checkpoint file:  "f2co.chk"
 B after Tr=    -0.000029    0.000000    0.000000
         Rot=    1.000000    0.000000   -0.000007    0.000000 Ang=   0.00 deg.
 Keep R1 ints in memory in canonical form, NReq=8765647.
 Requested convergence on RMS density matrix=1.00D-08 within  48 cycles.
 Requested convergence on MAX density matrix=1.00D-06.
 Requested convergence on             energy=1.00D-06.
 No special actions if energy rises.
 SCF Done:  E(RB3LYP) =  -313.007947045     A.U. after    7 cycles
            NFock=  7  Conv=0.95D-08     -V/T= 2.0074
 QCSCF skips out because SCF is already converged.
 DoSCS=F DFT=T ScalE2(SS,OS)=  1.000000  1.000000
 Range of M.O.s used for correlation:     1    60
 NBasis=    60 NAE=    16 NBE=    16 NFC=     0 NFV=     0
 NROrb=     60 NOA=    16 NOB=    16 NVA=    44 NVB=    44
 Symmetrizing basis deriv contribution to polar:
 IMax=3 JMax=2 DiffMx= 0.00D+00
 G2DrvN: will do     5 centers at a time, making    1 passes.
 Calling FoFCou, ICntrl=  3107 FMM=F I1Cent=   0 AccDes= 0.00D+00.
 End of G2Drv FD prop file    721 does not exist.
 End of G2Drv FD prop file    722 does not exist.
 End of G2Drv FD prop file    788 does not exist.
 End of G2Drv FD prop file    804 does not exist.
          IDoAtm=1111
          Differentiating once with respect to electric field.
                with respect to dipole field.
          Differentiating once with respect to nuclear coordinates.
 Keep R1 ints in memory in canonical form, NReq=8750575.
          There are    15 degrees of freedom in the 1st order CPHF.  IDoFFX=6 NUNeed=     3.
     12 vectors produced by pass  0 Test12= 4.69D-15 6.67D-09 XBig12= 1.45D+01 3.12D+00.
 AX will form    12 AO Fock derivatives at one time.
     12 vectors produced by pass  1 Test12= 4.69D-15 6.67D-09 XBig12= 4.76D+00 7.16D-01.
     12 vectors produced by pass  2 Test12= 4.69D-15 6.67D-09 XBig12= 2.08D-01 1.29D-01.
     12 vectors produced by pass  3 Test12= 4.69D-15 6.67D-09 XBig12= 3.65D-03 1.67D-02.
     12 vectors produced by pass  4 Test12= 4.69D-15 6.67D-09 XBig12= 1.95D-05 1.52D-03.
     12 vectors produced by pass  5 Test12= 4.69D-15 6.67D-09 XBig12= 3.46D-08 4.05D-05.
      4 vectors produced by pass  6 Test12= 4.69D-15 6.67D-09 XBig12= 1.65D-11 9.33D-07.
      1 vectors produced by pass  7 Test12= 4.69D-15 6.67D-09 XBig12= 1.72D-14 3.52D-08.
 InvSVY:  IOpt=1 It=  1 EMax= 6.66D-16
 Solved reduced A of dimension    77 with    12 vectors.
 Isotropic polarizability for W=    0.000000       13.35 Bohr**3.
 End of Minotr FD prop file    721 does not exist.
 End of Minotr FD prop file    722 does not exist.
 End of Minotr FD prop file    788 does not exist.
 End of Minotr FD prop file    804 does not exist.
 
 **********************************************************************
 
               Population analysis using the SCF Density.
 
 **********************************************************************
 
 Alpha  occ. eigenvalues --      -24.77333     -24.77333     -19.20079     -10.45147      -1.33079
 Alpha  occ. eigenvalues --       -1.26085      -1.10985      -0.68888      -0.61809      -0.57040
 Alpha  occ. eigenvalues --       -0.54173      -0.47364      -0.46977      -0.45424      -0.39677
 Alpha  occ. eigenvalues --       -0.35365
 Alpha virt. eigenvalues --       -0.01795       0.09023       0.24547       0.34537       0.46693
 Alpha virt. eigenvalues --        0.46853       0.47446       0.63385       0.82141       0.93996
 Alpha virt. eigenvalues --        0.95772       1.05153       1.10768       1.12359       1.18956
 Alpha virt. eigenvalues --        1.26617       1.31832       1.35966       1.37886       1.38287
 Alpha virt. eigenvalues --        1.59580       1.67707       1.68207       1.76496       1.76794
 Alpha virt. eigenvalues --        1.81096       1.84341       1.85776       1.88851       1.94674
 Alpha virt. eigenvalues --        2.04029       2.11446       2.15880       2.51887       2.69453
 Alpha virt. eigenvalues --        2.76147       2.81740       2.98944       3.06902       3.14361
 Alpha virt. eigenvalues --        3.83181       4.24694       4.42937       4.54327
          Condensed to atoms (all electrons):
               1          2          3          4
     1  O    7.898372   0.575542  -0.055810  -0.055810
     2  C    0.575542   4.024277   0.318266   0.318266
     3  F   -0.055810   0.318266   8.993563  -0.055342
     4  F   -0.055810   0.318266  -0.055342   8.993563
 Mulliken charges:
               1
     1  O   -0.362295
     2  C    0.763649
     3  F   -0.200677
     4  F   -0.200677
 Sum of Mulliken charges=   0.00000
 Mulliken charges with hydrogens summed into heavy atoms:
               1
     1  O   -0.362295
     2  C    0.763649
     3  F   -0.200677
     4  F   -0.200677
 APT charges:
               1
     1  O   -0.609821
     2  C    1.552665
     3  F   -0.471422
     4  F   -0.471422
 Sum of APT charges=   0.00000
 APT charges with hydrogens summed into heavy atoms:
               1
     1  O   -0.609821
     2  C    1.552665
     3  F   -0.471422
     4  F   -0.471422
 Electronic spatial extent (au):  <R**2>=            195.3302
 Charge=              0.0000 electrons
 Dipole moment (field-independent basis, Debye):
    X=             -0.0089    Y=              0.0000    Z=             -1.1550  Tot=              1.1550
 Quadrupole moment (field-independent basis, Debye-Ang):
   XX=            -18.2927   YY=            -20.3635   ZZ=            -22.5135
   XY=              0.0000   XZ=             -0.0012   YZ=              0.0000
 Traceless Quadrupole moment (field-independent basis, Debye-Ang):
   XX=              2.0972   YY=              0.0264   ZZ=             -2.1236
   XY=              0.0000   XZ=             -0.0012   YZ=              0.0000
 Octapole moment (field-independent basis, Debye-Ang**2):
  XXX=              0.0079  YYY=              0.0000  ZZZ=             -9.0265  XYY=              0.0069
  XXY=              0.0000  XXZ=             -1.6767  XZZ=              0.0068  YZZ=              0.0000
  YYZ=             -1.6347  XYZ=              0.0000
 Hexadecapole moment (field-independent basis, Debye-Ang**3):
 XXXX=            -11.5260 YYYY=            -75.0588 ZZZZ=            -95.4587 XXXY=              0.0000
 XXXZ=             -0.0005 YYYX=              0.0000 YYYZ=              0.0000 ZZZX=              0.0000
 ZZZY=              0.0000 XXYY=            -14.4963 XXZZ=            -16.9667 YYZZ=            -27.8121
 XXYZ=              0.0000 YYXZ=             -0.0050 ZZXY=              0.0000
 N-N=         118.943788 E-N=        -979.429504  KE=         310.706358
 Calling FoFJK, ICntrl=    100127 FMM=F ISym2X=0 I1Cent= 0 IOpClX= 0 NMat=1 NMatS=1 NMatT=0.
 -------------------------------------------------------------------
 Center     Atomic                   Forces (Hartrees/Bohr)
 Number     Number              X              Y              Z
 -------------------------------------------------------------------
      1        8          -0.000518237    0.000000000   -0.000004045
      2        6           0.001303711    0.000000000    0.000002156
      3        9          -0.000392737   -0.000000483    0.000000945
      4        9          -0.000392737    0.000000483    0.000000945
 -------------------------------------------------------------------
 Cartesian Forces:  Max     0.001303711 RMS     0.000435578
 NDeriv=      6 NFrqRd=  0 NDerD0=      0 MskFDP=       0 MskDFD=       0 MskDF0=       0
 Re-enter D2Numr:  normal mode      3 step-down number 1
 Standard basis: 6-31G(d) (6D, 7F)
    60 basis functions,   112 primitive gaussians,    60 cartesian basis functions
    16 alpha electrons       16 beta electrons
       nuclear repulsion energy       119.0661790142 Hartrees.
 NAtoms=    4 NActive=    4 NUniq=    4 SFac= 1.00D+00 NAtFMM=   60 NAOKFM=F Big=F
 Integral buffers will be    131072 words long.
 Raffenetti 2 integral format.
 Two-electron integral symmetry is turned off.
 One-electron integrals computed using PRISM.
 NBasis=    60 RedAO= T EigKep=  4.38D-03  NBF=    60
 NBsUse=    60 1.00D-06 EigRej= -1.00D+00 NBFU=    60
 Initial guess from the checkpoint file:  "f2co.chk"
 B after Tr=     0.000000    0.000000   -0.000049
         Rot=    1.000000    0.000000    0.000000    0.000000 Ang=   0.00 deg.
 Keep R1 ints in memory in canonical form, NReq=8765647.
 Requested convergence on RMS density matrix=1.00D-08 within  48 cycles.
 Requested convergence on MAX density matrix=1.00D-06.
 Requested convergence on             energy=1.00D-06.
 No special actions if energy rises.
 SCF Done:  E(RB3LYP) =  -313.007944520     A.U. after    8 cycles
            NFock=  8  Conv=0.14D-08     -V/T= 2.0074
 QCSCF skips out because SCF is already converged.
 DoSCS=F DFT=T ScalE2(SS,OS)=  1.000000  1.000000
 Range of M.O.s used for correlation:     1    60
 NBasis=    60 NAE=    16 NBE=    16 NFC=     0 NFV=     0
 NROrb=     60 NOA=    16 NOB=    16 NVA=    44 NVB=    44
 Symmetrizing basis deriv contribution to polar:
 IMax=3 JMax=2 DiffMx= 0.00D+00
 G2DrvN: will do     5 centers at a time, making    1 passes.
 Calling FoFCou, ICntrl=  3107 FMM=F I1Cent=   0 AccDes= 0.00D+00.
 End of G2Drv FD prop file    721 does not exist.
 End of G2Drv FD prop file    722 does not exist.
 End of G2Drv FD prop file    788 does not exist.
 End of G2Drv FD prop file    804 does not exist.
          IDoAtm=1111
          Differentiating once with respect to electric field.
                with respect to dipole field.
          Differentiating once with respect to nuclear coordinates.
 Keep R1 ints in memory in canonical form, NReq=8750575.
          There are    15 degrees of freedom in the 1st order CPHF.  IDoFFX=6 NUNeed=     3.
     12 vectors produced by pass  0 Test12= 4.69D-15 6.67D-09 XBig12= 1.45D+01 3.12D+00.
 AX will form    12 AO Fock derivatives at one time.
     12 vectors produced by pass  1 Test12= 4.69D-15 6.67D-09 XBig12= 4.74D+00 7.14D-01.
     12 vectors produced by pass  2 Test12= 4.69D-15 6.67D-09 XBig12= 2.39D-01 1.50D-01.
     12 vectors produced by pass  3 Test12= 4.69D-15 6.67D-09 XBig12= 4.59D-03 2.01D-02.
     12 vectors produced by pass  4 Test12= 4.69D-15 6.67D-09 XBig12= 3.14D-05 2.45D-03.
     11 vectors produced by pass  5 Test12= 4.69D-15 6.67D-09 XBig12= 7.57D-08 8.01D-05.
      5 vectors produced by pass  6 Test12= 4.69D-15 6.67D-09 XBig12= 8.76D-11 3.85D-06.
      1 vectors produced by pass  7 Test12= 4.69D-15 6.67D-09 XBig12= 1.05D-13 1.10D-07.
 InvSVY:  IOpt=1 It=  1 EMax= 6.66D-16
 Solved reduced A of dimension    77 with    12 vectors.
 Isotropic polarizability for W=    0.000000       13.33 Bohr**3.
 End of Minotr FD prop file    721 does not exist.
 End of Minotr FD prop file    722 does not exist.
 End of Minotr FD prop file    788 does not exist.
 End of Minotr FD prop file    804 does not exist.
 
 **********************************************************************
 
               Population analysis using the SCF Density.
 
 **********************************************************************
 
 Alpha  occ. eigenvalues --      -24.77348     -24.77347     -19.20015     -10.45110      -1.33183
 Alpha  occ. eigenvalues --       -1.26159      -1.10971      -0.68920      -0.61865      -0.57105
 Alpha  occ. eigenvalues --       -0.54190      -0.47400      -0.46967      -0.45455      -0.39649
 Alpha  occ. eigenvalues --       -0.35325
 Alpha virt. eigenvalues --       -0.01721       0.09154       0.24732       0.34593       0.46703
 Alpha virt. eigenvalues --        0.46834       0.47451       0.63458       0.82172       0.94029
 Alpha virt. eigenvalues --        0.95788       1.05122       1.10766       1.12379       1.18957
 Alpha virt. eigenvalues --        1.26661       1.31818       1.35947       1.37854       1.38293
 Alpha virt. eigenvalues --        1.59629       1.67787       1.68253       1.76479       1.76840
 Alpha virt. eigenvalues --        1.81091       1.84495       1.85871       1.89023       1.94679
 Alpha virt. eigenvalues --        2.04154       2.11593       2.16052       2.52150       2.69593
 Alpha virt. eigenvalues --        2.76503       2.81939       2.99095       3.07259       3.14453
 Alpha virt. eigenvalues --        3.83278       4.24680       4.43252       4.54869
          Condensed to atoms (all electrons):
               1          2          3          4
     1  O    7.898562   0.576542  -0.056113  -0.056113
     2  C    0.576542   4.022710   0.319198   0.319198
     3  F   -0.056113   0.319198   8.992242  -0.055590
     4  F   -0.056113   0.319198  -0.055590   8.992242
 Mulliken charges:
               1
     1  O   -0.362877
     2  C    0.762352
     3  F   -0.199737
     4  F   -0.199737
 Sum of Mulliken charges=   0.00000
 Mulliken charges with hydrogens summed into heavy atoms:
               1
     1  O   -0.362877
     2  C    0.762352
     3  F   -0.199737
     4  F   -0.199737
 APT charges:
               1
     1  O   -0.610766
     2  C    1.553853
     3  F   -0.471543
     4  F   -0.471543
 Sum of APT charges=   0.00000
 APT charges with hydrogens summed into heavy atoms:
               1
     1  O   -0.610766
     2  C    1.553853
     3  F   -0.471543
     4  F   -0.471543
 Electronic spatial extent (au):  <R**2>=            195.0120
 Charge=              0.0000 electrons
 Dipole moment (field-independent basis, Debye):
    X=              0.0000    Y=              0.0000    Z=             -1.1657  Tot=              1.1657
 Quadrupole moment (field-independent basis, Debye-Ang):
   XX=            -18.2884   YY=            -20.3553   ZZ=            -22.5145
   XY=              0.0000   XZ=              0.0000   YZ=              0.0000
 Traceless Quadrupole moment (field-independent basis, Debye-Ang):
   XX=              2.0976   YY=              0.0308   ZZ=             -2.1284
   XY=              0.0000   XZ=              0.0000   YZ=              0.0000
 Octapole moment (field-independent basis, Debye-Ang**2):
  XXX=              0.0000  YYY=              0.0000  ZZZ=             -9.0298  XYY=              0.0000
  XXY=              0.0000  XXZ=             -1.6776  XZZ=              0.0000  YZZ=              0.0000
  YYZ=             -1.6362  XYZ=              0.0000
 Hexadecapole moment (field-independent basis, Debye-Ang**3):
 XXXX=            -11.5204 YYYY=            -74.9214 ZZZZ=            -95.2969 XXXY=              0.0000
 XXXZ=              0.0000 YYYX=              0.0000 YYYZ=              0.0000 ZZZX=              0.0000
 ZZZY=              0.0000 XXYY=            -14.4724 XXZZ=            -16.9385 YYZZ=            -27.7649
 XXYZ=              0.0000 YYXZ=              0.0000 ZZXY=              0.0000
 N-N=         119.066179 E-N=        -979.679109  KE=         310.717638
 Calling FoFJK, ICntrl=    100127 FMM=F ISym2X=0 I1Cent= 0 IOpClX= 0 NMat=1 NMatS=1 NMatT=0.
 -------------------------------------------------------------------
 Center     Atomic                   Forces (Hartrees/Bohr)
 Number     Number              X              Y              Z
 -------------------------------------------------------------------
      1        8           0.000000000    0.000000000    0.001447200
      2        6           0.000000000    0.000000000    0.000692122
      3        9           0.000000000    0.001306300   -0.001069661
      4        9           0.000000000   -0.001306300   -0.001069661
 -------------------------------------------------------------------
 Cartesian Forces:  Max     0.001447200 RMS     0.000830392
 NDeriv=      6 NFrqRd=  0 NDerD0=      0 MskFDP=       0 MskDFD=       0 MskDF0=       0
 Re-enter D2Numr:  normal mode      4 step-up   number 1
 Standard basis: 6-31G(d) (6D, 7F)
    60 basis functions,   112 primitive gaussians,    60 cartesian basis functions
    16 alpha electrons       16 beta electrons
       nuclear repulsion energy       118.8220728486 Hartrees.
 NAtoms=    4 NActive=    4 NUniq=    4 SFac= 1.00D+00 NAtFMM=   60 NAOKFM=F Big=F
 Integral buffers will be    131072 words long.
 Raffenetti 2 integral format.
 Two-electron integral symmetry is turned off.
 One-electron integrals computed using PRISM.
 NBasis=    60 RedAO= T EigKep=  4.39D-03  NBF=    60
 NBsUse=    60 1.00D-06 EigRej= -1.00D+00 NBFU=    60
 Initial guess from the checkpoint file:  "f2co.chk"
 B after Tr=     0.000000    0.000000    0.000049
         Rot=    1.000000    0.000000    0.000000    0.000000 Ang=   0.00 deg.
 Keep R1 ints in memory in canonical form, NReq=8765647.
 Requested convergence on RMS density matrix=1.00D-08 within  48 cycles.
 Requested convergence on MAX density matrix=1.00D-06.
 Requested convergence on             energy=1.00D-06.
 No special actions if energy rises.
 SCF Done:  E(RB3LYP) =  -313.007944567     A.U. after    8 cycles
            NFock=  8  Conv=0.14D-08     -V/T= 2.0074
 QCSCF skips out because SCF is already converged.
 DoSCS=F DFT=T ScalE2(SS,OS)=  1.000000  1.000000
 Range of M.O.s used for correlation:     1    60
 NBasis=    60 NAE=    16 NBE=    16 NFC=     0 NFV=     0
 NROrb=     60 NOA=    16 NOB=    16 NVA=    44 NVB=    44
 Symmetrizing basis deriv contribution to polar:
 IMax=3 JMax=2 DiffMx= 0.00D+00
 G2DrvN: will do     5 centers at a time, making    1 passes.
 Calling FoFCou, ICntrl=  3107 FMM=F I1Cent=   0 AccDes= 0.00D+00.
 End of G2Drv FD prop file    721 does not exist.
 End of G2Drv FD prop file    722 does not exist.
 End of G2Drv FD prop file    788 does not exist.
 End of G2Drv FD prop file    804 does not exist.
          IDoAtm=1111
          Differentiating once with respect to electric field.
                with respect to dipole field.
          Differentiating once with respect to nuclear coordinates.
 Keep R1 ints in memory in canonical form, NReq=8750575.
          There are    15 degrees of freedom in the 1st order CPHF.  IDoFFX=6 NUNeed=     3.
     12 vectors produced by pass  0 Test12= 4.69D-15 6.67D-09 XBig12= 1.46D+01 3.13D+00.
 AX will form    12 AO Fock derivatives at one time.
     12 vectors produced by pass  1 Test12= 4.69D-15 6.67D-09 XBig12= 4.80D+00 7.19D-01.
     12 vectors produced by pass  2 Test12= 4.69D-15 6.67D-09 XBig12= 2.43D-01 1.51D-01.
     12 vectors produced by pass  3 Test12= 4.69D-15 6.67D-09 XBig12= 4.63D-03 1.99D-02.
     12 vectors produced by pass  4 Test12= 4.69D-15 6.67D-09 XBig12= 3.14D-05 2.46D-03.
     11 vectors produced by pass  5 Test12= 4.69D-15 6.67D-09 XBig12= 7.56D-08 7.88D-05.
      5 vectors produced by pass  6 Test12= 4.69D-15 6.67D-09 XBig12= 8.83D-11 3.76D-06.
      1 vectors produced by pass  7 Test12= 4.69D-15 6.67D-09 XBig12= 1.06D-13 1.10D-07.
 InvSVY:  IOpt=1 It=  1 EMax= 6.66D-16
 Solved reduced A of dimension    77 with    12 vectors.
 Isotropic polarizability for W=    0.000000       13.38 Bohr**3.
 End of Minotr FD prop file    721 does not exist.
 End of Minotr FD prop file    722 does not exist.
 End of Minotr FD prop file    788 does not exist.
 End of Minotr FD prop file    804 does not exist.
 
 **********************************************************************
 
               Population analysis using the SCF Density.
 
 **********************************************************************
 
 Alpha  occ. eigenvalues --      -24.77319     -24.77319     -19.20142     -10.45184      -1.32976
 Alpha  occ. eigenvalues --       -1.26013      -1.10998      -0.68855      -0.61753      -0.56976
 Alpha  occ. eigenvalues --       -0.54156      -0.47329      -0.46987      -0.45394      -0.39704
 Alpha  occ. eigenvalues --       -0.35405
 Alpha virt. eigenvalues --       -0.01864       0.08887       0.24365       0.34482       0.46685
 Alpha virt. eigenvalues --        0.46870       0.47441       0.63314       0.82110       0.93964
 Alpha virt. eigenvalues --        0.95756       1.05184       1.10775       1.12332       1.18955
 Alpha virt. eigenvalues --        1.26578       1.31846       1.35985       1.37915       1.38282
 Alpha virt. eigenvalues --        1.59528       1.67626       1.68165       1.76514       1.76747
 Alpha virt. eigenvalues --        1.81101       1.84187       1.85682       1.88681       1.94669
 Alpha virt. eigenvalues --        2.03904       2.11340       2.15666       2.51629       2.69316
 Alpha virt. eigenvalues --        2.75792       2.81545       2.98795       3.06549       3.14272
 Alpha virt. eigenvalues --        3.83083       4.24713       4.42633       4.53803
          Condensed to atoms (all electrons):
               1          2          3          4
     1  O    7.898171   0.574562  -0.055507  -0.055507
     2  C    0.574562   4.025825   0.317344   0.317344
     3  F   -0.055507   0.317344   8.994863  -0.055096
     4  F   -0.055507   0.317344  -0.055096   8.994863
 Mulliken charges:
               1
     1  O   -0.361719
     2  C    0.764925
     3  F   -0.201603
     4  F   -0.201603
 Sum of Mulliken charges=   0.00000
 Mulliken charges with hydrogens summed into heavy atoms:
               1
     1  O   -0.361719
     2  C    0.764925
     3  F   -0.201603
     4  F   -0.201603
 APT charges:
               1
     1  O   -0.608896
     2  C    1.551508
     3  F   -0.471306
     4  F   -0.471306
 Sum of APT charges=   0.00000
 APT charges with hydrogens summed into heavy atoms:
               1
     1  O   -0.608896
     2  C    1.551508
     3  F   -0.471306
     4  F   -0.471306
 Electronic spatial extent (au):  <R**2>=            195.6482
 Charge=              0.0000 electrons
 Dipole moment (field-independent basis, Debye):
    X=              0.0000    Y=              0.0000    Z=             -1.1444  Tot=              1.1444
 Quadrupole moment (field-independent basis, Debye-Ang):
   XX=            -18.2971   YY=            -20.3716   ZZ=            -22.5124
   XY=              0.0000   XZ=              0.0000   YZ=              0.0000
 Traceless Quadrupole moment (field-independent basis, Debye-Ang):
   XX=              2.0966   YY=              0.0221   ZZ=             -2.1187
   XY=              0.0000   XZ=              0.0000   YZ=              0.0000
 Octapole moment (field-independent basis, Debye-Ang**2):
  XXX=              0.0000  YYY=              0.0000  ZZZ=             -9.0233  XYY=              0.0000
  XXY=              0.0000  XXZ=             -1.6758  XZZ=              0.0000  YZZ=              0.0000
  YYZ=             -1.6333  XYZ=              0.0000
 Hexadecapole moment (field-independent basis, Debye-Ang**3):
 XXXX=            -11.5311 YYYY=            -75.1961 ZZZZ=            -95.6206 XXXY=              0.0000
 XXXZ=              0.0000 YYYX=              0.0000 YYYZ=              0.0000 ZZZX=              0.0000
 ZZZY=              0.0000 XXYY=            -14.5202 XXZZ=            -16.9949 YYZZ=            -27.8593
 XXYZ=              0.0000 YYXZ=              0.0000 ZZXY=              0.0000
 N-N=         118.822073 E-N=        -979.181284  KE=         310.695205
 Calling FoFJK, ICntrl=    100127 FMM=F ISym2X=0 I1Cent= 0 IOpClX= 0 NMat=1 NMatS=1 NMatT=0.
 -------------------------------------------------------------------
 Center     Atomic                   Forces (Hartrees/Bohr)
 Number     Number              X              Y              Z
 -------------------------------------------------------------------
      1        8           0.000000000    0.000000000   -0.001436408
      2        6           0.000000000    0.000000000   -0.000682505
      3        9           0.000000000   -0.001289656    0.001059456
      4        9           0.000000000    0.001289656    0.001059456
 -------------------------------------------------------------------
 Cartesian Forces:  Max     0.001436408 RMS     0.000821604
 NDeriv=      6 NFrqRd=  0 NDerD0=      0 MskFDP=       0 MskDFD=       0 MskDF0=       0
 Re-enter D2Numr:  normal mode      4 step-down number 1
 Standard basis: 6-31G(d) (6D, 7F)
    60 basis functions,   112 primitive gaussians,    60 cartesian basis functions
    16 alpha electrons       16 beta electrons
       nuclear repulsion energy       118.9441019480 Hartrees.
 NAtoms=    4 NActive=    4 NUniq=    4 SFac= 1.00D+00 NAtFMM=   60 NAOKFM=F Big=F
 Integral buffers will be    131072 words long.
 Raffenetti 2 integral format.
 Two-electron integral symmetry is turned off.
 One-electron integrals computed using PRISM.
 NBasis=    60 RedAO= T EigKep=  4.38D-03  NBF=    60
 NBsUse=    60 1.00D-06 EigRej= -1.00D+00 NBFU=    60
 Initial guess from the checkpoint file:  "f2co.chk"
 B after Tr=     0.000000    0.000041    0.000000
         Rot=    1.000000    0.000000    0.000000    0.000000 Ang=   0.00 deg.
 Keep R1 ints in memory in canonical form, NReq=8765647.
 Requested convergence on RMS density matrix=1.00D-08 within  48 cycles.
 Requested convergence on MAX density matrix=1.00D-06.
 Requested convergence on             energy=1.00D-06.
 No special actions if energy rises.
 SCF Done:  E(RB3LYP) =  -313.007939871     A.U. after    8 cycles
            NFock=  8  Conv=0.48D-08     -V/T= 2.0074
 QCSCF skips out because SCF is already converged.
 DoSCS=F DFT=T ScalE2(SS,OS)=  1.000000  1.000000
 Range of M.O.s used for correlation:     1    60
 NBasis=    60 NAE=    16 NBE=    16 NFC=     0 NFV=     0
 NROrb=     60 NOA=    16 NOB=    16 NVA=    44 NVB=    44
 Symmetrizing basis deriv contribution to polar:
 IMax=3 JMax=2 DiffMx= 0.00D+00
 G2DrvN: will do     5 centers at a time, making    1 passes.
 Calling FoFCou, ICntrl=  3107 FMM=F I1Cent=   0 AccDes= 0.00D+00.
 End of G2Drv FD prop file    721 does not exist.
 End of G2Drv FD prop file    722 does not exist.
 End of G2Drv FD prop file    788 does not exist.
 End of G2Drv FD prop file    804 does not exist.
          IDoAtm=1111
          Differentiating once with respect to electric field.
                with respect to dipole field.
          Differentiating once with respect to nuclear coordinates.
 Keep R1 ints in memory in canonical form, NReq=8750575.
          There are    15 degrees of freedom in the 1st order CPHF.  IDoFFX=6 NUNeed=     3.
     12 vectors produced by pass  0 Test12= 4.69D-15 6.67D-09 XBig12= 1.45D+01 3.12D+00.
 AX will form    12 AO Fock derivatives at one time.
     12 vectors produced by pass  1 Test12= 4.69D-15 6.67D-09 XBig12= 4.77D+00 7.17D-01.
     12 vectors produced by pass  2 Test12= 4.69D-15 6.67D-09 XBig12= 2.41D-01 1.51D-01.
     12 vectors produced by pass  3 Test12= 4.69D-15 6.67D-09 XBig12= 4.61D-03 2.00D-02.
     12 vectors produced by pass  4 Test12= 4.69D-15 6.67D-09 XBig12= 3.14D-05 2.45D-03.
     11 vectors produced by pass  5 Test12= 4.69D-15 6.67D-09 XBig12= 7.51D-08 7.85D-05.
      5 vectors produced by pass  6 Test12= 4.69D-15 6.67D-09 XBig12= 8.58D-11 3.69D-06.
      1 vectors produced by pass  7 Test12= 4.69D-15 6.67D-09 XBig12= 1.01D-13 1.08D-07.
 InvSVY:  IOpt=1 It=  1 EMax= 1.33D-15
 Solved reduced A of dimension    77 with    12 vectors.
 Isotropic polarizability for W=    0.000000       13.35 Bohr**3.
 End of Minotr FD prop file    721 does not exist.
 End of Minotr FD prop file    722 does not exist.
 End of Minotr FD prop file    788 does not exist.
 End of Minotr FD prop file    804 does not exist.
 
 **********************************************************************
 
               Population analysis using the SCF Density.
 
 **********************************************************************
 
 Alpha  occ. eigenvalues --      -24.77457     -24.77209     -19.20079     -10.45147      -1.33086
 Alpha  occ. eigenvalues --       -1.26080      -1.10985      -0.68890      -0.61808      -0.57043
 Alpha  occ. eigenvalues --       -0.54174      -0.47363      -0.46978      -0.45422      -0.39676
 Alpha  occ. eigenvalues --       -0.35364
 Alpha virt. eigenvalues --       -0.01792       0.09020       0.24546       0.34540       0.46694
 Alpha virt. eigenvalues --        0.46852       0.47447       0.63386       0.82141       0.93996
 Alpha virt. eigenvalues --        0.95772       1.05153       1.10770       1.12356       1.18956
 Alpha virt. eigenvalues --        1.26619       1.31833       1.35967       1.37884       1.38288
 Alpha virt. eigenvalues --        1.59578       1.67664       1.68253       1.76490       1.76798
 Alpha virt. eigenvalues --        1.81098       1.84337       1.85776       1.88853       1.94676
 Alpha virt. eigenvalues --        2.04030       2.11466       2.15859       2.51885       2.69459
 Alpha virt. eigenvalues --        2.76132       2.81756       2.98946       3.06900       3.14367
 Alpha virt. eigenvalues --        3.83181       4.24696       4.42889       4.54395
          Condensed to atoms (all electrons):
               1          2          3          4
     1  O    7.898373   0.575545  -0.055546  -0.056071
     2  C    0.575545   4.024278   0.319247   0.317298
     3  F   -0.055546   0.319247   8.989831  -0.055343
     4  F   -0.056071   0.317298  -0.055343   8.997258
 Mulliken charges:
               1
     1  O   -0.362300
     2  C    0.763631
     3  F   -0.198189
     4  F   -0.203142
 Sum of Mulliken charges=   0.00000
 Mulliken charges with hydrogens summed into heavy atoms:
               1
     1  O   -0.362300
     2  C    0.763631
     3  F   -0.198189
     4  F   -0.203142
 APT charges:
               1
     1  O   -0.609832
     2  C    1.552699
     3  F   -0.470731
     4  F   -0.472135
 Sum of APT charges=   0.00000
 APT charges with hydrogens summed into heavy atoms:
               1
     1  O   -0.609832
     2  C    1.552699
     3  F   -0.470731
     4  F   -0.472135
 Electronic spatial extent (au):  <R**2>=            195.3301
 Charge=              0.0000 electrons
 Dipole moment (field-independent basis, Debye):
    X=              0.0000    Y=              0.0306    Z=             -1.1550  Tot=              1.1554
 Quadrupole moment (field-independent basis, Debye-Ang):
   XX=            -18.2928   YY=            -20.3634   ZZ=            -22.5135
   XY=              0.0000   XZ=              0.0000   YZ=             -0.0132
 Traceless Quadrupole moment (field-independent basis, Debye-Ang):
   XX=              2.0971   YY=              0.0264   ZZ=             -2.1236
   XY=              0.0000   XZ=              0.0000   YZ=             -0.0132
 Octapole moment (field-independent basis, Debye-Ang**2):
  XXX=              0.0000  YYY=              0.0333  ZZZ=             -9.0265  XYY=              0.0000
  XXY=              0.0076  XXZ=             -1.6767  XZZ=              0.0000  YZZ=              0.0105
  YYZ=             -1.6347  XYZ=              0.0000
 Hexadecapole moment (field-independent basis, Debye-Ang**3):
 XXXX=            -11.5257 YYYY=            -75.0589 ZZZZ=            -95.4587 XXXY=              0.0000
 XXXZ=              0.0000 YYYX=              0.0000 YYYZ=             -0.0446 ZZZX=              0.0000
 ZZZY=             -0.0507 XXYY=            -14.4963 XXZZ=            -16.9667 YYZZ=            -27.8121
 XXYZ=             -0.0133 YYXZ=              0.0000 ZZXY=              0.0000
 N-N=         118.944102 E-N=        -979.430139  KE=         310.706438
 Calling FoFJK, ICntrl=    100127 FMM=F ISym2X=0 I1Cent= 0 IOpClX= 0 NMat=1 NMatS=1 NMatT=0.
 -------------------------------------------------------------------
 Center     Atomic                   Forces (Hartrees/Bohr)
 Number     Number              X              Y              Z
 -------------------------------------------------------------------
      1        8           0.000000000    0.000457093   -0.000002953
      2        6           0.000000000   -0.003538105    0.000026948
      3        9           0.000000000    0.001555812   -0.000882269
      4        9           0.000000000    0.001525200    0.000858274
 -------------------------------------------------------------------
 Cartesian Forces:  Max     0.003538105 RMS     0.001257964
 NDeriv=      6 NFrqRd=  0 NDerD0=      0 MskFDP=       0 MskDFD=       0 MskDF0=       0
 Re-enter D2Numr:  normal mode      5 step-up   number 1
 Standard basis: 6-31G(d) (6D, 7F)
    60 basis functions,   112 primitive gaussians,    60 cartesian basis functions
    16 alpha electrons       16 beta electrons
       nuclear repulsion energy       118.9441019480 Hartrees.
 NAtoms=    4 NActive=    4 NUniq=    4 SFac= 1.00D+00 NAtFMM=   60 NAOKFM=F Big=F
 Integral buffers will be    131072 words long.
 Raffenetti 2 integral format.
 Two-electron integral symmetry is turned off.
 One-electron integrals computed using PRISM.
 NBasis=    60 RedAO= T EigKep=  4.38D-03  NBF=    60
 NBsUse=    60 1.00D-06 EigRej= -1.00D+00 NBFU=    60
 Initial guess from the checkpoint file:  "f2co.chk"
 B after Tr=     0.000000   -0.000041    0.000000
         Rot=    1.000000    0.000000    0.000000    0.000000 Ang=   0.00 deg.
 Keep R1 ints in memory in canonical form, NReq=8765647.
 Requested convergence on RMS density matrix=1.00D-08 within  48 cycles.
 Requested convergence on MAX density matrix=1.00D-06.
 Requested convergence on             energy=1.00D-06.
 No special actions if energy rises.
 SCF Done:  E(RB3LYP) =  -313.007939871     A.U. after    8 cycles
            NFock=  8  Conv=0.48D-08     -V/T= 2.0074
 QCSCF skips out because SCF is already converged.
 DoSCS=F DFT=T ScalE2(SS,OS)=  1.000000  1.000000
 Range of M.O.s used for correlation:     1    60
 NBasis=    60 NAE=    16 NBE=    16 NFC=     0 NFV=     0
 NROrb=     60 NOA=    16 NOB=    16 NVA=    44 NVB=    44
 Symmetrizing basis deriv contribution to polar:
 IMax=3 JMax=2 DiffMx= 0.00D+00
 G2DrvN: will do     5 centers at a time, making    1 passes.
 Calling FoFCou, ICntrl=  3107 FMM=F I1Cent=   0 AccDes= 0.00D+00.
 End of G2Drv FD prop file    721 does not exist.
 End of G2Drv FD prop file    722 does not exist.
 End of G2Drv FD prop file    788 does not exist.
 End of G2Drv FD prop file    804 does not exist.
          IDoAtm=1111
          Differentiating once with respect to electric field.
                with respect to dipole field.
          Differentiating once with respect to nuclear coordinates.
 Keep R1 ints in memory in canonical form, NReq=8750575.
          There are    15 degrees of freedom in the 1st order CPHF.  IDoFFX=6 NUNeed=     3.
     12 vectors produced by pass  0 Test12= 4.69D-15 6.67D-09 XBig12= 1.45D+01 3.12D+00.
 AX will form    12 AO Fock derivatives at one time.
     12 vectors produced by pass  1 Test12= 4.69D-15 6.67D-09 XBig12= 4.77D+00 7.17D-01.
     12 vectors produced by pass  2 Test12= 4.69D-15 6.67D-09 XBig12= 2.41D-01 1.51D-01.
     12 vectors produced by pass  3 Test12= 4.69D-15 6.67D-09 XBig12= 4.61D-03 2.00D-02.
     12 vectors produced by pass  4 Test12= 4.69D-15 6.67D-09 XBig12= 3.14D-05 2.45D-03.
     11 vectors produced by pass  5 Test12= 4.69D-15 6.67D-09 XBig12= 7.51D-08 7.85D-05.
      5 vectors produced by pass  6 Test12= 4.69D-15 6.67D-09 XBig12= 8.58D-11 3.69D-06.
      1 vectors produced by pass  7 Test12= 4.69D-15 6.67D-09 XBig12= 1.01D-13 1.08D-07.
 InvSVY:  IOpt=1 It=  1 EMax= 8.88D-16
 Solved reduced A of dimension    77 with    12 vectors.
 Isotropic polarizability for W=    0.000000       13.35 Bohr**3.
 End of Minotr FD prop file    721 does not exist.
 End of Minotr FD prop file    722 does not exist.
 End of Minotr FD prop file    788 does not exist.
 End of Minotr FD prop file    804 does not exist.
 
 **********************************************************************
 
               Population analysis using the SCF Density.
 
 **********************************************************************
 
 Alpha  occ. eigenvalues --      -24.77457     -24.77209     -19.20079     -10.45147      -1.33086
 Alpha  occ. eigenvalues --       -1.26080      -1.10985      -0.68890      -0.61808      -0.57043
 Alpha  occ. eigenvalues --       -0.54174      -0.47363      -0.46978      -0.45422      -0.39676
 Alpha  occ. eigenvalues --       -0.35364
 Alpha virt. eigenvalues --       -0.01792       0.09020       0.24546       0.34540       0.46694
 Alpha virt. eigenvalues --        0.46852       0.47447       0.63386       0.82141       0.93996
 Alpha virt. eigenvalues --        0.95772       1.05153       1.10770       1.12356       1.18956
 Alpha virt. eigenvalues --        1.26619       1.31833       1.35967       1.37884       1.38288
 Alpha virt. eigenvalues --        1.59578       1.67664       1.68253       1.76490       1.76798
 Alpha virt. eigenvalues --        1.81098       1.84337       1.85776       1.88853       1.94676
 Alpha virt. eigenvalues --        2.04030       2.11466       2.15859       2.51885       2.69459
 Alpha virt. eigenvalues --        2.76132       2.81756       2.98946       3.06900       3.14367
 Alpha virt. eigenvalues --        3.83181       4.24696       4.42889       4.54395
          Condensed to atoms (all electrons):
               1          2          3          4
     1  O    7.898373   0.575545  -0.056071  -0.055546
     2  C    0.575545   4.024278   0.317298   0.319247
     3  F   -0.056071   0.317298   8.997258  -0.055343
     4  F   -0.055546   0.319247  -0.055343   8.989831
 Mulliken charges:
               1
     1  O   -0.362300
     2  C    0.763631
     3  F   -0.203142
     4  F   -0.198189
 Sum of Mulliken charges=   0.00000
 Mulliken charges with hydrogens summed into heavy atoms:
               1
     1  O   -0.362300
     2  C    0.763631
     3  F   -0.203142
     4  F   -0.198189
 APT charges:
               1
     1  O   -0.609832
     2  C    1.552699
     3  F   -0.472135
     4  F   -0.470731
 Sum of APT charges=   0.00000
 APT charges with hydrogens summed into heavy atoms:
               1
     1  O   -0.609832
     2  C    1.552699
     3  F   -0.472135
     4  F   -0.470731
 Electronic spatial extent (au):  <R**2>=            195.3301
 Charge=              0.0000 electrons
 Dipole moment (field-independent basis, Debye):
    X=              0.0000    Y=             -0.0306    Z=             -1.1550  Tot=              1.1554
 Quadrupole moment (field-independent basis, Debye-Ang):
   XX=            -18.2928   YY=            -20.3634   ZZ=            -22.5135
   XY=              0.0000   XZ=              0.0000   YZ=              0.0132
 Traceless Quadrupole moment (field-independent basis, Debye-Ang):
   XX=              2.0971   YY=              0.0264   ZZ=             -2.1236
   XY=              0.0000   XZ=              0.0000   YZ=              0.0132
 Octapole moment (field-independent basis, Debye-Ang**2):
  XXX=              0.0000  YYY=             -0.0333  ZZZ=             -9.0265  XYY=              0.0000
  XXY=             -0.0076  XXZ=             -1.6767  XZZ=              0.0000  YZZ=             -0.0105
  YYZ=             -1.6347  XYZ=              0.0000
 Hexadecapole moment (field-independent basis, Debye-Ang**3):
 XXXX=            -11.5257 YYYY=            -75.0589 ZZZZ=            -95.4587 XXXY=              0.0000
 XXXZ=              0.0000 YYYX=              0.0000 YYYZ=              0.0446 ZZZX=              0.0000
 ZZZY=              0.0507 XXYY=            -14.4963 XXZZ=            -16.9667 YYZZ=            -27.8121
 XXYZ=              0.0133 YYXZ=              0.0000 ZZXY=              0.0000
 N-N=         118.944102 E-N=        -979.430139  KE=         310.706438
 Calling FoFJK, ICntrl=    100127 FMM=F ISym2X=0 I1Cent= 0 IOpClX= 0 NMat=1 NMatS=1 NMatT=0.
 -------------------------------------------------------------------
 Center     Atomic                   Forces (Hartrees/Bohr)
 Number     Number              X              Y              Z
 -------------------------------------------------------------------
      1        8           0.000000000   -0.000457093   -0.000002953
      2        6           0.000000000    0.003538105    0.000026948
      3        9           0.000000000   -0.001525200    0.000858274
      4        9           0.000000000   -0.001555812   -0.000882269
 -------------------------------------------------------------------
 Cartesian Forces:  Max     0.003538105 RMS     0.001257964
 NDeriv=      6 NFrqRd=  0 NDerD0=      0 MskFDP=       0 MskDFD=       0 MskDF0=       0
 Re-enter D2Numr:  normal mode      5 step-down number 1
 Standard basis: 6-31G(d) (6D, 7F)
    60 basis functions,   112 primitive gaussians,    60 cartesian basis functions
    16 alpha electrons       16 beta electrons
       nuclear repulsion energy       118.9093187001 Hartrees.
 NAtoms=    4 NActive=    4 NUniq=    4 SFac= 1.00D+00 NAtFMM=   60 NAOKFM=F Big=F
 Integral buffers will be    131072 words long.
 Raffenetti 2 integral format.
 Two-electron integral symmetry is turned off.
 One-electron integrals computed using PRISM.
 NBasis=    60 RedAO= T EigKep=  4.39D-03  NBF=    60
 NBsUse=    60 1.00D-06 EigRej= -1.00D+00 NBFU=    60
 Initial guess from the checkpoint file:  "f2co.chk"
 B after Tr=     0.000000    0.000000   -0.000007
         Rot=    1.000000    0.000000    0.000000    0.000000 Ang=   0.00 deg.
 Keep R1 ints in memory in canonical form, NReq=8765647.
 Requested convergence on RMS density matrix=1.00D-08 within  48 cycles.
 Requested convergence on MAX density matrix=1.00D-06.
 Requested convergence on             energy=1.00D-06.
 No special actions if energy rises.
 SCF Done:  E(RB3LYP) =  -313.007924315     A.U. after    8 cycles
            NFock=  8  Conv=0.66D-08     -V/T= 2.0074
 QCSCF skips out because SCF is already converged.
 DoSCS=F DFT=T ScalE2(SS,OS)=  1.000000  1.000000
 Range of M.O.s used for correlation:     1    60
 NBasis=    60 NAE=    16 NBE=    16 NFC=     0 NFV=     0
 NROrb=     60 NOA=    16 NOB=    16 NVA=    44 NVB=    44
 Symmetrizing basis deriv contribution to polar:
 IMax=3 JMax=2 DiffMx= 0.00D+00
 G2DrvN: will do     5 centers at a time, making    1 passes.
 Calling FoFCou, ICntrl=  3107 FMM=F I1Cent=   0 AccDes= 0.00D+00.
 End of G2Drv FD prop file    721 does not exist.
 End of G2Drv FD prop file    722 does not exist.
 End of G2Drv FD prop file    788 does not exist.
 End of G2Drv FD prop file    804 does not exist.
          IDoAtm=1111
          Differentiating once with respect to electric field.
                with respect to dipole field.
          Differentiating once with respect to nuclear coordinates.
 Keep R1 ints in memory in canonical form, NReq=8750575.
          There are    15 degrees of freedom in the 1st order CPHF.  IDoFFX=6 NUNeed=     3.
     12 vectors produced by pass  0 Test12= 4.69D-15 6.67D-09 XBig12= 1.47D+01 3.15D+00.
 AX will form    12 AO Fock derivatives at one time.
     12 vectors produced by pass  1 Test12= 4.69D-15 6.67D-09 XBig12= 4.84D+00 7.23D-01.
     12 vectors produced by pass  2 Test12= 4.69D-15 6.67D-09 XBig12= 2.47D-01 1.52D-01.
     12 vectors produced by pass  3 Test12= 4.69D-15 6.67D-09 XBig12= 4.75D-03 2.06D-02.
     12 vectors produced by pass  4 Test12= 4.69D-15 6.67D-09 XBig12= 3.38D-05 2.55D-03.
     11 vectors produced by pass  5 Test12= 4.69D-15 6.67D-09 XBig12= 8.19D-08 8.42D-05.
      5 vectors produced by pass  6 Test12= 4.69D-15 6.67D-09 XBig12= 9.33D-11 4.06D-06.
      1 vectors produced by pass  7 Test12= 4.69D-15 6.67D-09 XBig12= 1.10D-13 1.13D-07.
 InvSVY:  IOpt=1 It=  1 EMax= 8.88D-16
 Solved reduced A of dimension    77 with    12 vectors.
 Isotropic polarizability for W=    0.000000       13.37 Bohr**3.
 End of Minotr FD prop file    721 does not exist.
 End of Minotr FD prop file    722 does not exist.
 End of Minotr FD prop file    788 does not exist.
 End of Minotr FD prop file    804 does not exist.
 
 **********************************************************************
 
               Population analysis using the SCF Density.
 
 **********************************************************************
 
 Alpha  occ. eigenvalues --      -24.77416     -24.77415     -19.20014     -10.45187      -1.33197
 Alpha  occ. eigenvalues --       -1.26210      -1.10718      -0.68969      -0.61873      -0.57088
 Alpha  occ. eigenvalues --       -0.54208      -0.47450      -0.46934      -0.45511      -0.39549
 Alpha  occ. eigenvalues --       -0.35250
 Alpha virt. eigenvalues --       -0.01871       0.09058       0.24593       0.34539       0.46677
 Alpha virt. eigenvalues --        0.46867       0.47491       0.62904       0.82272       0.94031
 Alpha virt. eigenvalues --        0.95781       1.05086       1.10727       1.12338       1.18945
 Alpha virt. eigenvalues --        1.26579       1.31739       1.35960       1.37882       1.38182
 Alpha virt. eigenvalues --        1.59541       1.67632       1.68255       1.76435       1.76871
 Alpha virt. eigenvalues --        1.81011       1.84337       1.85759       1.88878       1.94579
 Alpha virt. eigenvalues --        2.03882       2.11390       2.15785       2.52008       2.69185
 Alpha virt. eigenvalues --        2.76240       2.81471       2.98827       3.06820       3.14069
 Alpha virt. eigenvalues --        3.82909       4.24446       4.43035       4.54695
          Condensed to atoms (all electrons):
               1          2          3          4
     1  O    7.904109   0.572901  -0.055769  -0.055769
     2  C    0.572901   4.026233   0.318586   0.318586
     3  F   -0.055769   0.318586   8.991443  -0.055150
     4  F   -0.055769   0.318586  -0.055150   8.991443
 Mulliken charges:
               1
     1  O   -0.365474
     2  C    0.763694
     3  F   -0.199110
     4  F   -0.199110
 Sum of Mulliken charges=   0.00000
 Mulliken charges with hydrogens summed into heavy atoms:
               1
     1  O   -0.365474
     2  C    0.763694
     3  F   -0.199110
     4  F   -0.199110
 APT charges:
               1
     1  O   -0.608498
     2  C    1.549815
     3  F   -0.470658
     4  F   -0.470658
 Sum of APT charges=   0.00000
 APT charges with hydrogens summed into heavy atoms:
               1
     1  O   -0.608498
     2  C    1.549815
     3  F   -0.470658
     4  F   -0.470658
 Electronic spatial extent (au):  <R**2>=            195.4177
 Charge=              0.0000 electrons
 Dipole moment (field-independent basis, Debye):
    X=              0.0000    Y=              0.0000    Z=             -1.1862  Tot=              1.1862
 Quadrupole moment (field-independent basis, Debye-Ang):
   XX=            -18.2999   YY=            -20.3552   ZZ=            -22.5340
   XY=              0.0000   XZ=              0.0000   YZ=              0.0000
 Traceless Quadrupole moment (field-independent basis, Debye-Ang):
   XX=              2.0965   YY=              0.0412   ZZ=             -2.1377
   XY=              0.0000   XZ=              0.0000   YZ=              0.0000
 Octapole moment (field-independent basis, Debye-Ang**2):
  XXX=              0.0000  YYY=              0.0000  ZZZ=             -9.0758  XYY=              0.0000
  XXY=              0.0000  XXZ=             -1.6918  XZZ=              0.0000  YZZ=              0.0000
  YYZ=             -1.6569  XYZ=              0.0000
 Hexadecapole moment (field-independent basis, Debye-Ang**3):
 XXXX=            -11.5384 YYYY=            -75.0056 ZZZZ=            -95.6185 XXXY=              0.0000
 XXXZ=              0.0000 YYYX=              0.0000 YYYZ=              0.0000 ZZZX=              0.0000
 ZZZY=              0.0000 XXYY=            -14.4921 XXZZ=            -16.9953 YYZZ=            -27.8375
 XXYZ=              0.0000 YYXZ=              0.0000 ZZXY=              0.0000
 N-N=         118.909319 E-N=        -979.347119  KE=         310.696474
 Calling FoFJK, ICntrl=    100127 FMM=F ISym2X=0 I1Cent= 0 IOpClX= 0 NMat=1 NMatS=1 NMatT=0.
 -------------------------------------------------------------------
 Center     Atomic                   Forces (Hartrees/Bohr)
 Number     Number              X              Y              Z
 -------------------------------------------------------------------
      1        8           0.000000000    0.000000000   -0.006549562
      2        6           0.000000000    0.000000000    0.007868978
      3        9           0.000000000    0.000513592   -0.000659708
      4        9           0.000000000   -0.000513592   -0.000659708
 -------------------------------------------------------------------
 Cartesian Forces:  Max     0.007868978 RMS     0.002975113
 NDeriv=      6 NFrqRd=  0 NDerD0=      0 MskFDP=       0 MskDFD=       0 MskDF0=       0
 Re-enter D2Numr:  normal mode      6 step-up   number 1
 Standard basis: 6-31G(d) (6D, 7F)
    60 basis functions,   112 primitive gaussians,    60 cartesian basis functions
    16 alpha electrons       16 beta electrons
       nuclear repulsion energy       118.9791507478 Hartrees.
 NAtoms=    4 NActive=    4 NUniq=    4 SFac= 1.00D+00 NAtFMM=   60 NAOKFM=F Big=F
 Integral buffers will be    131072 words long.
 Raffenetti 2 integral format.
 Two-electron integral symmetry is turned off.
 One-electron integrals computed using PRISM.
 NBasis=    60 RedAO= T EigKep=  4.37D-03  NBF=    60
 NBsUse=    60 1.00D-06 EigRej= -1.00D+00 NBFU=    60
 Initial guess from the checkpoint file:  "f2co.chk"
 B after Tr=     0.000000    0.000000    0.000007
         Rot=    1.000000    0.000000    0.000000    0.000000 Ang=   0.00 deg.
 Keep R1 ints in memory in canonical form, NReq=8765647.
 Requested convergence on RMS density matrix=1.00D-08 within  48 cycles.
 Requested convergence on MAX density matrix=1.00D-06.
 Requested convergence on             energy=1.00D-06.
 No special actions if energy rises.
 SCF Done:  E(RB3LYP) =  -313.007923864     A.U. after    8 cycles
            NFock=  8  Conv=0.65D-08     -V/T= 2.0074
 QCSCF skips out because SCF is already converged.
 DoSCS=F DFT=T ScalE2(SS,OS)=  1.000000  1.000000
 Range of M.O.s used for correlation:     1    60
 NBasis=    60 NAE=    16 NBE=    16 NFC=     0 NFV=     0
 NROrb=     60 NOA=    16 NOB=    16 NVA=    44 NVB=    44
 Symmetrizing basis deriv contribution to polar:
 IMax=3 JMax=2 DiffMx= 0.00D+00
 G2DrvN: will do     5 centers at a time, making    1 passes.
 Calling FoFCou, ICntrl=  3107 FMM=F I1Cent=   0 AccDes= 0.00D+00.
 End of G2Drv FD prop file    721 does not exist.
 End of G2Drv FD prop file    722 does not exist.
 End of G2Drv FD prop file    788 does not exist.
 End of G2Drv FD prop file    804 does not exist.
          IDoAtm=1111
          Differentiating once with respect to electric field.
                with respect to dipole field.
          Differentiating once with respect to nuclear coordinates.
 Keep R1 ints in memory in canonical form, NReq=8750575.
          There are    15 degrees of freedom in the 1st order CPHF.  IDoFFX=6 NUNeed=     3.
     12 vectors produced by pass  0 Test12= 4.69D-15 6.67D-09 XBig12= 1.44D+01 3.10D+00.
 AX will form    12 AO Fock derivatives at one time.
     12 vectors produced by pass  1 Test12= 4.69D-15 6.67D-09 XBig12= 4.69D+00 7.11D-01.
     12 vectors produced by pass  2 Test12= 4.69D-15 6.67D-09 XBig12= 2.35D-01 1.49D-01.
     12 vectors produced by pass  3 Test12= 4.69D-15 6.67D-09 XBig12= 4.47D-03 1.94D-02.
     12 vectors produced by pass  4 Test12= 4.69D-15 6.67D-09 XBig12= 2.92D-05 2.37D-03.
     11 vectors produced by pass  5 Test12= 4.69D-15 6.67D-09 XBig12= 6.95D-08 7.70D-05.
      5 vectors produced by pass  6 Test12= 4.69D-15 6.67D-09 XBig12= 8.21D-11 3.52D-06.
      1 vectors produced by pass  7 Test12= 4.69D-15 6.67D-09 XBig12= 9.91D-14 1.07D-07.
 InvSVY:  IOpt=1 It=  1 EMax= 6.66D-16
 Solved reduced A of dimension    77 with    12 vectors.
 Isotropic polarizability for W=    0.000000       13.34 Bohr**3.
 End of Minotr FD prop file    721 does not exist.
 End of Minotr FD prop file    722 does not exist.
 End of Minotr FD prop file    788 does not exist.
 End of Minotr FD prop file    804 does not exist.
 
 **********************************************************************
 
               Population analysis using the SCF Density.
 
 **********************************************************************
 
 Alpha  occ. eigenvalues --      -24.77251     -24.77251     -19.20143     -10.45106      -1.32962
 Alpha  occ. eigenvalues --       -1.25961      -1.11252      -0.68806      -0.61746      -0.56995
 Alpha  occ. eigenvalues --       -0.54140      -0.47279      -0.47018      -0.45338      -0.39804
 Alpha  occ. eigenvalues --       -0.35479
 Alpha virt. eigenvalues --       -0.01712       0.08982       0.24505       0.34533       0.46710
 Alpha virt. eigenvalues --        0.46838       0.47401       0.63875       0.82010       0.93962
 Alpha virt. eigenvalues --        0.95763       1.05221       1.10815       1.12374       1.18968
 Alpha virt. eigenvalues --        1.26661       1.31926       1.35972       1.37884       1.38395
 Alpha virt. eigenvalues --        1.59619       1.67784       1.68161       1.76558       1.76717
 Alpha virt. eigenvalues --        1.81181       1.84346       1.85792       1.88828       1.94769
 Alpha virt. eigenvalues --        2.04176       2.11543       2.15934       2.51773       2.69724
 Alpha virt. eigenvalues --        2.76055       2.82004       2.99068       3.07003       3.14656
 Alpha virt. eigenvalues --        3.83453       4.24948       4.42854       4.53977
          Condensed to atoms (all electrons):
               1          2          3          4
     1  O    7.892568   0.578209  -0.055849  -0.055849
     2  C    0.578209   4.022342   0.317947   0.317947
     3  F   -0.055849   0.317947   8.995674  -0.055534
     4  F   -0.055849   0.317947  -0.055534   8.995674
 Mulliken charges:
               1
     1  O   -0.359079
     2  C    0.763556
     3  F   -0.202238
     4  F   -0.202238
 Sum of Mulliken charges=   0.00000
 Mulliken charges with hydrogens summed into heavy atoms:
               1
     1  O   -0.359079
     2  C    0.763556
     3  F   -0.202238
     4  F   -0.202238
 APT charges:
               1
     1  O   -0.611160
     2  C    1.555552
     3  F   -0.472196
     4  F   -0.472196
 Sum of APT charges=   0.00000
 APT charges with hydrogens summed into heavy atoms:
               1
     1  O   -0.611160
     2  C    1.555552
     3  F   -0.472196
     4  F   -0.472196
 Electronic spatial extent (au):  <R**2>=            195.2424
 Charge=              0.0000 electrons
 Dipole moment (field-independent basis, Debye):
    X=              0.0000    Y=              0.0000    Z=             -1.1238  Tot=              1.1238
 Quadrupole moment (field-independent basis, Debye-Ang):
   XX=            -18.2856   YY=            -20.3717   ZZ=            -22.4927
   XY=              0.0000   XZ=              0.0000   YZ=              0.0000
 Traceless Quadrupole moment (field-independent basis, Debye-Ang):
   XX=              2.0977   YY=              0.0116   ZZ=             -2.1093
   XY=              0.0000   XZ=              0.0000   YZ=              0.0000
 Octapole moment (field-independent basis, Debye-Ang**2):
  XXX=              0.0000  YYY=              0.0000  ZZZ=             -8.9770  XYY=              0.0000
  XXY=              0.0000  XXZ=             -1.6615  XZZ=              0.0000  YZZ=              0.0000
  YYZ=             -1.6124  XYZ=              0.0000
 Hexadecapole moment (field-independent basis, Debye-Ang**3):
 XXXX=            -11.5131 YYYY=            -75.1119 ZZZZ=            -95.2986 XXXY=              0.0000
 XXXZ=              0.0000 YYYX=              0.0000 YYYZ=              0.0000 ZZZX=              0.0000
 ZZZY=              0.0000 XXYY=            -14.5004 XXZZ=            -16.9381 YYZZ=            -27.7867
 XXYZ=              0.0000 YYXZ=              0.0000 ZZXY=              0.0000
 N-N=         118.979151 E-N=        -979.513829  KE=         310.716591
 Calling FoFJK, ICntrl=    100127 FMM=F ISym2X=0 I1Cent= 0 IOpClX= 0 NMat=1 NMatS=1 NMatT=0.
 -------------------------------------------------------------------
 Center     Atomic                   Forces (Hartrees/Bohr)
 Number     Number              X              Y              Z
 -------------------------------------------------------------------
      1        8           0.000000000    0.000000000    0.006737036
      2        6           0.000000000    0.000000000   -0.008045798
      3        9           0.000000000   -0.000503109    0.000654381
      4        9           0.000000000    0.000503109    0.000654381
 -------------------------------------------------------------------
 Cartesian Forces:  Max     0.008045798 RMS     0.003048021
 NDeriv=      6 NFrqRd=  0 NDerD0=      0 MskFDP=       0 MskDFD=       0 MskDF0=       0
 Re-enter D2Numr:  normal mode      6 step-down number 1
 Max difference between Dipole analytic and numerical normal mode 1st derivatives:
 I=     2 ID=     5 Difference=    9.8414242652D-06
 Max difference between Dipole analytic and numerical normal mode 2nd derivatives:
 I=     3 ID=     3 Difference=    9.3569244410D-04
 Max difference between Energy analytic and numerical normal mode 1st derivatives:
 I=     1 ID=     6 Difference=    1.1052638123D-05
 Max difference between Energy analytic and numerical normal mode 2nd derivatives:
 I=     1 ID=     6 Difference=    7.6594011358D-06
 ***** Axes restored to original set *****
 -------------------------------------------------------------------
 Center     Atomic                   Forces (Hartrees/Bohr)
 Number     Number              X              Y              Z
 -------------------------------------------------------------------
      1        8          -0.000002045    0.000000000    0.000000000
      2        6           0.000002541    0.000000000    0.000000000
      3        9          -0.000000248    0.000000392    0.000000000
      4        9          -0.000000248   -0.000000392    0.000000000
 -------------------------------------------------------------------
 Cartesian Forces:  Max     0.000002541 RMS     0.000000960

 **********************************************************************

             Second-order Perturbative Anharmonic Analysis

 **********************************************************************

 Development version: 2025.08.12

     ==================================================
            Settings for Anharmonic Calculations
     ==================================================
 Default settings used.

     ==================================================
                      Reference System
     ==================================================

 NOTE: The system is set in Eckart orientation for the anharmonic
       treatment.
 
 Atom           X                  Y                  Z
 ----------------------------------------------------------------
  O       0.0000000000000    0.0000000000000    1.3426283496701
  C       0.0000000000000    0.0000000000000    0.1623623496701
  F       0.0000000000000    1.0686160000000   -0.6164616503299
  F       0.0000000000000   -1.0686160000000   -0.6164616503299
 ----------------------------------------------------------------

     ==================================================
               Analysis of the Rotor Symmetry
     ==================================================

 Quantities are given in atomic units.

 Framework Group : C2V 
 Rotor Type      : Asymmetric Top
 Asymm. param.   : Kappa =  0.981758
 Inertia moments : X=   310.60907 , Y=   155.66029 , Z=   154.94879
 Representation  : Il Representation, Iz < Iy < Ix

 Axes Definition for the Symmetric-Top Representation
 ----------------------------------------------------
 Axis Z set to be collinear with Z from Eckart orient.
 NOTE: In Vibro-rotational analysis, this will be referred to as the
       spectroscopic orientation.

     ==================================================
                   Data Source Definition
     ==================================================

 Main data sources
 -----------------
 Harmonic data taken from: current calculation
 Anharmonic data taken from: current calculation

     ==================================================
           Input Data Extraction and Preparation
     ==================================================

 Data for Harmonic Potential Energy Surface
 ------------------------------------------

 Definition of the model system: Active modes
 --------------------------------------------
 The 6 Active Modes are:
     1     2     3     4     5     6

 Data for Anharmonic Potential Energy Surface
 --------------------------------------------
 WARNING: The following force constants may be unreliable.
 NOTE: Cubic (F3) and quartic (F4) force constants in cm^-1
       Error calculated as ABS(Value1-Value2)/MAX(ABS(Value1),ABS(Value))

 ---+-----------------------------+-----------------+-----------------+--------
 F4 |      J      J      I      I |      Fiijj      |      Fjjii      |  Error
    |      4      4      3      3 |     -1.25369288 |     -0.92894411 |   25.9%
 ---+-----------------------------+-----------------+-----------------+--------
 F4 |      J      J      I      I |      Fiijj      |      Fjjii      |  Error
    |      4      4      6      6 |      1.55033595 |      1.84246041 |   15.9%
 ---+-----------------------------+-----------------+-----------------+--------

 Data for Electric Dipole
 ------------------------
 Property available.

     ==================================================
        Vibro-Rotational Analysis Based on Symmetry
     ==================================================

 Representation A1
 -----------------
    Z Translation
    3 Vibrations with frequencies:
   1995.35    977.00    571.18

 Representation A2
 -----------------
    X Rotation
 No Vibration

 Representation B1
 -----------------
    X Translation
    Y Rotation
    1 Vibrations with frequencies:
    764.46

 Representation B2
 -----------------
    Y Translation
    Z Rotation
    2 Vibrations with frequencies:
   1282.99    613.29

 Input/Output information
 ------------------------
 Normal modes will be PRINTED in DESCENDING order (imag. freq. first)
   and sorted by irreducible representation
 The connection between this new numbering (A) and the one used before
   (H) is reported in the present equivalency table:
 ----+------+------+------+------+------+------+
 (H) |     1|     2|     3|     4|     5|     6|
 (A) |     3|     6|     4|     2|     5|     1|
 ----+------+------+------+------+------+------+
 
 Normal modes will be READ in ASCENDING order (imag. freq. first)

 TIP: To use the same numbering as in the whole output, use the option
      "Print=NMOrder=AscNoIrrep" in the special option section

 TIP: To use the same numbering for reading and printing, use the option
      "DataSrc=NMOrder=Print" in the special option section"

 Analysis of symmetry-allowed terms
 ----------------------------------

                             Possible   Symmetry allowed
 Coriolis couplings:            63           11
 Third derivatives :            56           22
 Fourth derivatives: total     126           48
                     (ii|jj)    21           21
                     (ii|jk)    90           24

     ==================================================
                   Coriolis Couplings
     ==================================================

 Coriolis Couplings along the X axis
 -----------------------------------
                1             2             3             4             5 
      1   0.000000D+00
      2   0.000000D+00  0.000000D+00
      3   0.000000D+00  0.000000D+00  0.000000D+00
      4   0.000000D+00  0.000000D+00  0.000000D+00  0.000000D+00
      5   0.774444D+00 -0.267738D+00 -0.573195D+00  0.000000D+00  0.000000D+00
      6  -0.594702D+00  0.000000D+00 -0.803945D+00  0.000000D+00  0.000000D+00
                6 
      6   0.000000D+00

 Coriolis Couplings along the Y axis
 -----------------------------------
                1             2             3             4             5 
      1   0.000000D+00
      2   0.000000D+00  0.000000D+00
      3   0.000000D+00  0.000000D+00  0.000000D+00
      4  -0.930136D+00 -0.252223D+00  0.266892D+00  0.000000D+00
      5   0.000000D+00  0.000000D+00  0.000000D+00  0.000000D+00  0.000000D+00
      6   0.000000D+00  0.000000D+00  0.000000D+00  0.000000D+00  0.000000D+00
                6 
      6   0.000000D+00

 Coriolis Couplings along the Z axis
 -----------------------------------
                1             2             3             4             5 
      1   0.000000D+00
      2   0.000000D+00  0.000000D+00
      3   0.000000D+00  0.000000D+00  0.000000D+00
      4   0.000000D+00  0.000000D+00  0.000000D+00  0.000000D+00
      5   0.000000D+00  0.000000D+00  0.000000D+00 -0.940849D+00  0.000000D+00
      6   0.000000D+00  0.000000D+00  0.000000D+00 -0.338827D+00  0.000000D+00
                6 
      6   0.000000D+00
 
    5 Coriolis couplings larger than .100D-02 along the X axis
    3 Coriolis couplings larger than .100D-02 along the Y axis
    2 Coriolis couplings larger than .100D-02 along the Z axis

     ==================================================
                    Computational Setup
     ==================================================

 Thermochemistry
 ---------------

     ==================================================
     Printing Energy derivatives and Coriolis Couplings
     ==================================================

 ........................................................
 :   Reference Energy (a.u.): -0.313007950993D+03       :
 :                    (cm-1): -0.686973046488D+08       :
 :......................................................:

 ........................................................
 :                   CORIOLIS COUPLINGS                 :
 :......................................................:

    Ax       I      J          Zeta(I,J)

     x       5      1             0.77444
     x       5      2            -0.26774
     x       5      3            -0.57320
     x       6      1            -0.59470
     x       6      3            -0.80395
     y       4      1            -0.93014
     y       4      2            -0.25222
     y       4      3             0.26689
     z       5      4            -0.94085
     z       6      4            -0.33883

 Num. of Coriolis couplings larger than  0.100D-02: 10 over 63

 ........................................................
 :      QUADRATIC FORCE CONSTANTS IN NORMAL MODES       :
 :                                                      :
 : FI =  Frequency [cm-1]                               :
 : k  =  Force Const.[ attoJ * amu(-1) * ang(-2) ]      :
 : K  =  Force Const.[ Hartrees * amu(-1) * bohr(-2) ]  :
 :......................................................:

      I      J                  FI(I,J)       k(I,J)       K(I,J)

      1      1                 1995.34691      2.34578      0.15067
      2      2                  977.00140      0.56239      0.03612
      3      3                  571.17837      0.19222      0.01235
      4      4                  764.46053      0.34432      0.02212
      5      5                 1282.98922      0.96983      0.06229
      6      6                  613.29279      0.22161      0.01423

 Num. of 2nd derivatives larger than  0.371D-04: 6 over 21

 ........................................................
 :        CUBIC FORCE CONSTANTS IN NORMAL MODES         :
 :                                                      :
 : FI =  Reduced values [cm-1]  (default input)         :
 : k  =  Cubic Force Const.[AttoJ*amu(-3/2)*Ang(-3)]    :
 : K  =  Cubic Force Const.[Hartree*amu(-3/2)*Bohr(-3)] :
 :......................................................:

      I      J      K          FI(I,J,K)     k(I,J,K)     K(I,J,K)

      1      1      1          -605.50672     -5.47625     -0.18613
      2      1      1           165.67519      1.04848      0.03564
      2      2      1            54.94377      0.24331      0.00827
      2      2      2           187.99860      0.58255      0.01980
      3      1      1            18.24404      0.08828      0.00300
      3      2      1           -28.43092     -0.09627     -0.00327
      3      2      2           -27.72481     -0.06569     -0.00223
      3      3      1            -5.39774     -0.01397     -0.00047
      3      3      2            26.76831      0.04849      0.00165
      3      3      3           -65.27550     -0.09042     -0.00307
      4      4      1            91.24835      0.31617      0.01075
      4      4      2           -46.72407     -0.11329     -0.00385
      4      4      3            -4.16343     -0.00772     -0.00026
      5      5      1           231.14863      1.34419      0.04569
      5      5      2           276.10085      1.12351      0.03819
      5      5      3           -11.15264     -0.03470     -0.00118
      6      5      1           -20.26488     -0.08148     -0.00277
      6      5      2            76.35244      0.21481      0.00730
      6      5      3            -2.52282     -0.00543     -0.00018
      6      6      1            57.03942      0.15856      0.00539
      6      6      2            34.71194      0.06752      0.00229
      6      6      3            23.62441      0.03514      0.00119

 Num. of 3rd derivatives larger than  0.371D-04: 22 over 56

 ........................................................
 :                                                      :
 :       QUARTIC FORCE CONSTANTS IN NORMAL MODES        :
 :                                                      :
 : FI =  Reduced values [cm-1]  (default input)         :
 : k  =  Quartic Force Const.[AttoJ*amu(-2)*Ang(-4)]    :
 : K  =  Quartic Force Const.[Hartree*amu(-2)*Bohr(-4)] :
 :......................................................:

      I      J      K      L  FI(I,J,K,L)   k(I,J,K,L)   K(I,J,K,L)

      1      1      1      1    190.44984     13.25077      0.23833
      2      1      1      1    -29.96730     -1.45897     -0.02624
      2      2      1      1     12.06960      0.41118      0.00740
      2      2      2      1     11.06443      0.26376      0.00474
      2      2      2      2     30.86845      0.51491      0.00926
      3      1      1      1    -11.58549     -0.43127     -0.00776
      3      2      1      1     -4.22856     -0.11015     -0.00198
      3      2      2      1     -8.90308     -0.16228     -0.00292
      3      2      2      2    -10.00591     -0.12762     -0.00230
      3      3      1      1     -1.39934     -0.02787     -0.00050
      3      3      2      1     -3.14551     -0.04384     -0.00079
      3      3      2      2     -0.80756     -0.00788     -0.00014
      3      3      3      1      1.28030      0.01364      0.00025
      3      3      3      2     -8.15497     -0.06081     -0.00109
      3      3      3      3     16.26556      0.09273      0.00167
      4      4      1      1    -74.13805     -1.97623     -0.03555
      4      4      2      1      1.01526      0.01894      0.00034
      4      4      2      2    -16.05034     -0.20949     -0.00377
      4      4      3      1      4.05934      0.05789      0.00104
      4      4      3      2      0.94354      0.00942      0.00017
      4      4      3      3     -1.09132     -0.00833     -0.00015
      4      4      4      4     25.18163      0.25717      0.00463
      5      5      1      1     -2.19772     -0.09832     -0.00177
      5      5      2      1     46.91773      1.46872      0.02642
      5      5      2      2     62.97491      1.37946      0.02481
      5      5      3      1     -3.24051     -0.07756     -0.00140
      5      5      3      2      0.91673      0.01535      0.00028
      5      5      3      3    -18.36379     -0.23517     -0.00423
      5      5      4      4    -28.38370     -0.48649     -0.00875
      5      5      5      5     85.81410      2.46847      0.04440
      6      5      1      1     33.72088      1.04301      0.01876
      6      5      2      2     13.42047      0.20325      0.00366
      6      5      3      3     -2.06484     -0.01828     -0.00033
      6      5      4      4     -8.87494     -0.10517     -0.00189
      6      5      5      5     29.36333      0.58398      0.01050
      6      6      1      1    -40.71708     -0.87074     -0.01566
      6      6      2      1      2.49025      0.03726      0.00067
      6      6      2      2      3.65944      0.03832      0.00069
      6      6      3      1     -1.14221     -0.01307     -0.00024
      6      6      3      2      1.98585      0.01590      0.00029
      6      6      3      3     -0.90052     -0.00551     -0.00010
      6      6      4      4      1.69640      0.01390      0.00025
      6      6      5      5     10.28289      0.14139      0.00254
      6      6      6      5     -5.30726     -0.05046     -0.00091
      6      6      6      6     11.05598      0.07267      0.00131

 Num. of 4th derivatives larger than  0.371D-04: 45 over 126

     ==================================================
                     Input for POLYMODE
     ==================================================

 ***************** cut here for POLYMODE input *****************
        6,        1,        6,       22,       45,        0,       10,        5,        0
SCF-CI
          Input generated by DiNa
     1,    1,  0.338645D-05 /
     2,    2,  0.390425D-05 /
     3,    3,  0.606613D-05 /
     4,    4,  0.990813D-05 /
     5,    5,  0.170863D-04 /
     6,    6,  0.413274D-04 /
     1,    1,    1, -.658106D-08 /
     1,    2,    2, 0.767227D-08 /
     1,    3,    3, -.168540D-08 /
     1,    1,    4, 0.105889D-07 /
     2,    2,    4, 0.147436D-07 /
     3,    3,    4, -.247373D-07 /
     1,    4,    4, -.143436D-07 /
     4,    4,    4, 0.424019D-07 /
     1,    2,    5, -.237005D-08 /
     2,    4,    5, 0.938113D-07 /
     1,    5,    5, -.757697D-08 /
     4,    5,    5, 0.245328D-06 /
     1,    1,    6, -.305142D-08 /
     2,    2,    6, 0.346227D-07 /
     3,    3,    6, 0.690396D-07 /
     1,    4,    6, -.420410D-07 /
     4,    4,    6, 0.531290D-07 /
     2,    5,    6, -.355826D-07 /
     5,    5,    6, 0.293517D-06 /
     1,    6,    6, 0.192768D-07 /
     4,    6,    6, 0.228946D-06 /
     6,    6,    6, -.398597D-06 /
     1,    1,    1,    1, 0.209145D-10 /
     1,    1,    2,    2, -.745971D-11 /
     2,    2,    2,    2, 0.163896D-10 /
     1,    1,    3,    3, -.112685D-10 /
     2,    2,    3,    3, 0.188078D-10 /
     3,    3,    3,    3, 0.580002D-10 /
     1,    1,    4,    4, -.106568D-10 /
     2,    2,    4,    4, 0.518520D-10 /
     3,    3,    4,    4, -.283479D-09 /
     1,    4,    4,    4, -.115128D-09 /
     4,    4,    4,    4, 0.116129D-09 /
     1,    1,    5,    5, -.318232D-09 /
     2,    2,    5,    5, 0.191334D-09 /
     3,    3,    5,    5, -.658316D-09 /
     1,    4,    5,    5, 0.415540D-10 /
     4,    4,    5,    5, 0.186669D-08 /
     2,    5,    5,    5, 0.526829D-09 /
     5,    5,    5,    5, 0.556725D-09 /
     1,    1,    6,    6, -.377138D-10 /
     2,    2,    6,    6, -.117828D-08 /
     3,    3,    6,    6, -.267425D-08 /
     1,    4,    6,    6, -.298100D-09 /
     4,    4,    6,    6, 0.556408D-09 /
     2,    5,    6,    6, 0.282280D-08 /
     5,    5,    6,    6, -.133045D-09 /
     1,    6,    6,    6, -.389066D-09 /
     4,    6,    6,    6, -.131619D-08 /
     6,    6,    6,    6, 0.298850D-08 /
 0.566206D+06,0.283751D+06,0.282454D+06 /
     2,    7,    1, 0.803945D+00 /
     5,    7,    1, 0.573195D+00 /
     5,    7,    4, 0.267738D+00 /
     6,    7,    2, 0.594702D+00 /
     6,    7,    5, -.774444D+00 /
     3,    7,    1, -.266892D+00 /
     4,    7,    3, 0.252223D+00 /
     6,    7,    3, 0.930136D+00 /
     3,    7,    2, 0.338827D+00 /
     5,    7,    3, 0.940849D+00 /
 ***************** cut here for POLYMODE input *****************

     ==================================================
      Inertia Moments Derivatives w.r.t. Normal Modes
     ==================================================

 Units: amu^1/2.Ang

                 Ixx        Ixy        Iyy        Ixz        Iyz        Izz
 Q(     1)     4.02506    0.00000    4.78818    0.00000    0.00000   -0.76311
 Q(     2)   -17.97157    0.00000   -9.84408    0.00000    0.00000   -8.12749
 Q(     3)     2.95622    0.00000   -7.38409    0.00000    0.00000   10.34030
 Q(     4)     0.00000    0.00000    0.00000    0.00000    0.00000    0.00000
 Q(     5)     0.00000    0.00000    0.00000    0.00000   -3.15999    0.00000
 Q(     6)     0.00000    0.00000    0.00000    0.00000   -8.77459    0.00000

     ==================================================
               Vibro-rotational Alpha Matrix
     ==================================================

 Vibro-Rot alpha Matrix (in cm^-1)
 ---------------------------------
                 A(z)           B(y)           C(x)
 Q(     1)        0.00065        0.00193        0.00060
 Q(     2)        0.00151        0.00041        0.00056
 Q(     3)        0.00049       -0.00095        0.00258
 Q(     4)        0.00043       -0.00004       -0.00020
 Q(     5)        0.00106        0.00178        0.00102
 Q(     6)       -0.00040       -0.00011       -0.00216

 Vibro-Rot alpha Matrix (in MHz)
 -------------------------------
                 A(z)           B(y)           C(x)
 Q(     1)       19.50712       57.86743       17.98442
 Q(     2)       45.14979       12.19351       16.79772
 Q(     3)       14.76629      -28.33700       77.34339
 Q(     4)       13.03407       -1.29394       -5.95706
 Q(     5)       31.69917       53.27498       30.60457
 Q(     6)      -11.98287       -3.31710      -64.90306

     ==================================================
          Quartic Centrifugal Distortion Constants
     ==================================================

 NOTE: Values in Cartesian coords. refer to the structure in Eckart orientation.

 Quartic Centrifugal Distortion Constants Tau Prime
 --------------------------------------------------
                      cm^-1                    MHz
 TauP aaaa     -0.2146694260D-05        -0.6435627487D-01
 TauP aabb     -0.1448464539D-05        -0.4342387444D-01
 TauP aacc     -0.3308850605D-06        -0.9919684559D-02
 TauP bbbb     -0.1456555459D-05        -0.4366643414D-01
 TauP bbcc     -0.1643309583D-06        -0.4926518191D-02
 TauP cccc     -0.1236138938D-06        -0.3705851305D-02

 Asymmetric Top Reduction
 ------------------------
       Asymmetry parameter     | Reference formula
  Kappa :         0.9817582783 |    [2B-A-C]/[A-C]
  Delta :         0.9908791392 |       [B-C]/[A-C]
  Sigma :        -1.0184094987 | [2A'-B'-C']/[B'-C']

 (A,B,C)   : equilibrium rotational constants
 (A',B',C'): effective rotational constants

 Constants in the Asymmetrically reduced Hamiltonian
 ---------------------------------------------------
                        cm^-1                   MHz
  DELTA J  :    0.1975211691D-06         0.5921535680D-02
  DELTA K  :    0.4457957638D-06         0.1336462078D-01
  DELTA JK :   -0.1066433681D-06        -0.3197087744D-02
  delta J  :   -0.8330884785D-07        -0.2497536427D-02
  delta K  :   -0.1360477782D-06        -0.4078609785D-02

 Effective Rotational Constants
 (Include Terms due to Quartic Centrifugal Distortion Constants)
 ---------------------------------------------------------------
           Be in cm^-1             B(A) in cm^-1            B(A) in MHz
 a          0.388513447             0.388513134              11647.33074
 b          0.386737600             0.386737915              11594.11103
 c          0.193811745             0.193811742               5810.32984

 Nielsen Centrifugal Distortion Constants
 ----------------------------------------
                cm^-1                    MHz
 DJ     0.1584115617D-06         0.4749059147D-02
 DJK    0.1280142763D-06         0.3837771455D-02
 DK     0.2502477269D-06         0.7502238114D-02
 dJ    -0.8330884785D-07        -0.2497536427D-02
 R5     0.2819429346D-07         0.8452436539D-03
 R6    -0.1955480370D-07        -0.5862382666D-03

 Constants in the Symmetrically Reduced Hamiltonian
 --------------------------------------------------
                    cm^-1                     MHz
  D J  :    0.1307269285D-06         0.3919094722D-02
  D JK :    0.2941220758D-06         0.8817558005D-02
  D K  :    0.1118245606D-06         0.3352415990D-02
  d 1  :    0.8330884785D-07         0.2497536427D-02
  d 2  :   -0.3339712032D-07        -0.1001220479D-02


 Effective Rotational Constants
 (Include Terms due to Quartic Centrifugal Distortion Constants)
 ---------------------------------------------------------------
           Be in cm^-1             B(S) in cm^-1            B(S) in MHz
 a          0.388513447             0.388513468              11647.34075
 b          0.386737600             0.386737510              11594.09886
 c          0.193811745             0.193811880               5810.33400

 Wilson Centrifugal Distortion Constants
 ---------------------------------------
                cm^-1                    MHz
 DJ     0.3090347344D-07         0.9264628264D-03
 DJK    0.1036355833D-06         0.3106916627D-02
 DK     0.4021345081D-06         0.1205568926D-01

 Nielsen Centrifugal Distortion Constants
 ----------------------------------------
                cm^-1                    MHz
 DJ     0.1584115617D-06         0.4749059147D-02
 DJK    0.1280142763D-06         0.3837771455D-02
 DK     0.2502477269D-06         0.7502238114D-02
 dJ    -0.8330884785D-07        -0.2497536427D-02
 R5     0.2819429346D-07         0.8452436539D-03
 R6    -0.1955480370D-07        -0.5862382666D-03

 Rotational Constants (in cm^-1)
 -------------------------------
 equilibrium (e), ground vibr.state (00), and 00 + centr. dist.(0)
 Ae=   0.3885134     A00=   0.3866426     A0=   0.3866426
 Be=   0.3867376     B00=   0.3852301     B0=   0.3852300
 Ce=   0.1938117     C00=   0.1926131     C0=   0.1926132

 Rotational Constants (in MHz)
 -----------------------------
 equilibrium (e), ground vibr.state (00), and 00 + centr. dist.(0)
 Ae=   11647.340     A00=   11591.253     A0=   11591.254
 Be=   11594.102     B00=   11548.908     B0=   11548.905
 Ce=    5810.330     C00=    5774.395     C0=    5774.399

     ==================================================
          Sextic Centrifugal Distortion Constants
     ==================================================

 Sextic Distortion Constants
 ---------------------------
                       in cm-1                  in Hz
 Phi aaa         0.1077180318D-11         0.3229305352D-01
 Phi aab         0.2469878646D-11         0.7404509904D-01
 Phi aac        -0.4710838155D-12        -0.1412273750D-01
 Phi abb        -0.9144239390D-13        -0.2741374003D-02
 Phi abc        -0.1135392588D-11        -0.3403821349D-01
 Phi acc        -0.2974298815D-13        -0.8916723526D-03
 Phi bbb         0.9736434650D-12         0.2918909676D-01
 Phi bbc        -0.4539936377D-12        -0.1361038686D-01
 Phi bcc         0.2276902611D-13         0.6825982304D-03
 Phi ccc        -0.1851524301D-14        -0.5550730212D-04

 Asymmetric Top Reduction
 ------------------------
       Asymmetry parameter     | Reference formula
  Kappa :         0.9817582783 |    [2B-A-C]/[A-C]
  Delta :         0.9908791392 |       [B-C]/[A-C]
  Sigma :        -1.0184094987 | [2A'-B'-C']/[B'-C']

 (A,B,C)   : equilibrium rotational constants
 (A',B',C'): effective rotational constants

 Constants in the A reduced Hamiltonian
 --------------------------------------
                       in cm^-1                 in Hz
 Phi J  :         0.4858959704D-12         0.1456679473D-01
 Phi K  :         0.6728915031D-13         0.2017277977D-02
 Phi JK :        -0.1849300397D-11        -0.5544063116D-01
 Phi KJ :         0.2373295594D-11         0.7114961198D-01
 phi j  :        -0.2438737473D-12        -0.7311151015D-02
 phi k  :        -0.2829572523D-11        -0.8482845019D-01
 phi jk :         0.3760187121D-12         0.1127275739D-01

 rho    :        -0.1384231662D-07
 mu     :         0.4034679540D-12
 nu     :        -0.8657727712D-13
 lambda :         0.1585390103D-12

 Constants in the S reduced Hamiltonian
 --------------------------------------
                       in cm^-1                 in Hz
 H J  :           0.9124289477D-13         0.2735393170D-02
 H K  :          -0.4370409280D-11        -0.1310215740D+00
 H JK :          -0.1383252699D-11        -0.4146887268D-01
 H KJ :           0.6739599402D-11         0.2020481071D+00
 h  1 :          -0.1271555278D-12        -0.3812026821D-02
 h  2 :           0.1973265378D-12         0.5915700779D-02
 h  3 :          -0.1167182196D-12        -0.3499124194D-02

     ==================================================
       Average Coordinates and Mean Square Amplitudes
     ==================================================

 NOTE: Temperature is given in K between parentheses
       For Cartesian and internal coords., units are given between
       parentheses next to each label

 Mean Square Amplitudes of Normal Coordinates (in amu.bohr^2)
 -----------------------------------------------------------
 Mode    <Q^2> (0)    <Q^2> (298.15)    <Q^2> (298.15) class.
    1     0.030170       0.030174          0.247394
    2     0.061617       0.062731          1.031894
    3     0.105396       0.119694          3.019130
    4     0.078748       0.082786          1.685447
    5     0.046921       0.047114          0.598383
    6     0.098158       0.108892          2.618723

 Average Normal Coordinates (in amu^1/2.bohr)
 --------------------------------------------
   Mode    <Q> (0)       <Q> (298.15)
      1     0.005433        0.005062
      2    -0.057897       -0.058758
      3     0.013353        0.014766
      4     0.000000        0.000000
      5     0.000000        0.000000
      6     0.000000        0.000000

 Mean Square Amplitudes of Cartesian Coordinates
 -----------------------------------------------
    Label        <(S-Se)^2>^1/2 (0)    <(S-Se)^2>^1/2 (298.15)
 X(1)  (Angs)        0.011513              0.011805
 Y(1)  (Angs)        0.026904              0.028323
 Z(1)  (Angs)        0.027130              0.027860
 X(2)  (Angs)        0.038602              0.039580
 Y(2)  (Angs)        0.031076              0.031377
 Z(2)  (Angs)        0.027993              0.028522
 X(3)  (Angs)        0.007345              0.007531
 Y(3)  (Angs)        0.027763              0.029074
 Z(3)  (Angs)        0.024179              0.025279
 X(4)  (Angs)        0.007345              0.007531
 Y(4)  (Angs)        0.027763              0.029074
 Z(4)  (Angs)        0.024179              0.025279

 Average Cartesian Coordinates
 -----------------------------
    Label              Se         <S> = Sz (0)   <S> = Sz (298.15)
 X(1)  (Angs)       0.000000        0.000000        0.000000
 Y(1)  (Angs)       0.000000        0.000000        0.000000
 Z(1)  (Angs)       1.342628        1.346436        1.346398
 X(2)  (Angs)       0.000000        0.000000        0.000000
 Y(2)  (Angs)       0.000000        0.000000        0.000000
 Z(2)  (Angs)       0.162362        0.163676        0.163698
 X(3)  (Angs)       0.000000        0.000000        0.000000
 Y(3)  (Angs)       1.068616        1.072555        1.072698
 Z(3)  (Angs)      -0.616462       -0.618479       -0.618470
 X(4)  (Angs)       0.000000        0.000000        0.000000
 Y(4)  (Angs)      -1.068616       -1.072555       -1.072698
 Z(4)  (Angs)      -0.616462       -0.618479       -0.618470

 Internal coordinates for the Equilibrium structure (Se)
                           Interatomic distances:
                    1          2          3          4
     1  O    0.000000
     2  C    1.180266   0.000000
     3  F    2.231585   1.322311   0.000000
     4  F    2.231585   1.322311   2.137232   0.000000
                           Interatomic angles:
       O1-C2-F3=126.0851       O1-C2-F4=126.0851       O1-F3-F4= 61.3891
       F3-C2-F4=107.8297
                              Dihedral angles:
     F4-C2-F3-O1= 180.  

 Internal coordinates for the vibrationally average structure at 0K (Sz)
                           Interatomic distances:
                    1          2          3          4
     1  O    0.000000
     2  C    1.182760   0.000000
     3  F    2.238586   1.327457   0.000000
     4  F    2.238586   1.327457   2.145110   0.000000
                           Interatomic angles:
       O1-C2-F3=126.1012       O1-C2-F4=126.1012       O1-F4-F3= 61.3719
       F3-C2-F4=107.7976
                              Dihedral angles:
     F4-C2-F3-O1= 180.  

 Internal coordinates for the vibr. average structure at 298.15K (Sa)
                           Interatomic distances:
                    1          2          3          4
     1  O    0.000000
     2  C    1.182700   0.000000
     3  F    2.238613   1.327579   0.000000
     4  F    2.238613   1.327579   2.145395   0.000000
                           Interatomic angles:
       O1-C2-F3=126.098        O1-C2-F4=126.098        O1-F4-F3= 61.3682
       F3-C2-F4=107.8039
                              Dihedral angles:
     F4-C2-F3-O1= 180.  

     ==================================================
      Vibrational Average of Electric-Field Properties
     ==================================================

 Electric dipole
 ---------------
 ------------------------------------------------------------------------
  Property at reference geometry, Unit: Debye
 ------------------------------------------------------------------------
     X=     0.00000000     Y=     0.00000000     Z=    -1.15503409
 ------------------------------------------------------------------------
  Temperature:     0K, Unit: Debye
 ------------------------------------------------------------------------
     X=     0.00000000     Y=     0.00000000     Z=    -1.12538582
 ------------------------------------------------------------------------
  Temperature:   298K, Unit: Debye
 ------------------------------------------------------------------------
     X=     0.00000000     Y=     0.00000000     Z=    -1.12248608

     ==================================================
                     Resonance Analysis
     ==================================================

 Thresholds
 ----------
 1-2 Fermi resonances:
     * Maximum Frequency difference (cm^-1)            :    200.000
     * Test 1: Martin's test (cm^-1)                   :      1.000
               J. Chem. Phys. 103, 2589 (1995)
     * Test 2: Wave-function coefficients (no unit)    :      0.100
               J. Phys. Chem. A, ASAP (2022)
 2-2 Darling-Dennison resonances:
     * Maximum Frequency difference (cm^-1)            :    100.000
     * Test: Magnitude of off-diagonal term (cm^-1)    :     10.000
             Mol. Phys. 112, 261 (2014)
 1-1 Darling-Dennison resonances:
     * Maximum Frequency difference (cm^-1)            :    100.000
     * Test 1: Magnitude of off-diagonal term (cm^-1)  :     10.000
               Mol. Phys. 112, 261 (2014)
     * Test 2: Wave-function coefficients (no unit)    :      0.300
               J. Phys. Chem. A, ASAP (2022)

 1-2 Fermi resonances
 --------------------
     I  |     J  +   K  | Freq.Diff. |   K (Test 1)   |   K (Test 2)   | Status
      1 |      2      2 |    41.3441 |          0.504 |         -0.332 | Active

     1 active resonances out of     1

 2-2 Darling-Dennison resonances
 -------------------------------
  No resonances found.

 1-1 Darling-Dennison resonances
 -------------------------------
  No resonances found.

     ==================================================
                    Anharmonic X Matrix
     ==================================================

 PT2 model: Deperturbed VPT2 (DVPT2)
 Ref.: V. Barone, J. Chem. Phys. 122, 1, 014108 (2005)

 Coriolis contributions to X Matrix (in cm^-1)
 ---------------------------------------------
                1             2             3             4             5
      1  0.000000D+00
      2  0.000000D+00  0.000000D+00
      3  0.000000D+00  0.000000D+00  0.000000D+00
      4  0.100151D+01  0.506938D-01  0.574524D-01  0.000000D+00
      5  0.255524D+00  0.288240D-01  0.171382D+00  0.782100D+00  0.000000D+00
      6  0.244081D+00  0.000000D+00  0.251166D+00  0.913797D-01  0.000000D+00
                6
      6  0.000000D+00

 3rd Deriv. contributions to X Matrix (in cm^-1)
 -----------------------------------------------
                1             2             3             4             5
      1 -0.226122D+02
      2 -0.532903D+01 -0.414164D+01
      3 -0.822318D+00 -0.309425D+01 -0.747072D+00
      4  0.108727D+02  0.965693D+00  0.259506D+00 -0.133970D+01
      5 -0.676260D+01 -0.266702D+02 -0.205845D+01  0.638096D+00 -0.974011D+01
      6  0.359431D+01 -0.156519D+01  0.320885D+00 -0.194045D+00 -0.684538D+01
                6
      6 -0.493241D+00

 4th Deriv. contributions to X Matrix (in cm^-1)
 -----------------------------------------------
                1             2             3             4             5
      1  0.119031D+02
      2  0.301740D+01  0.192928D+01
      3 -0.349835D+00 -0.201890D+00  0.101660D+01
      4 -0.185345D+02 -0.401258D+01 -0.272830D+00  0.157385D+01
      5 -0.549429D+00  0.157437D+02 -0.459095D+01 -0.709593D+01  0.536338D+01
      6 -0.101793D+02  0.914861D+00 -0.225131D+00  0.424100D+00  0.257072D+01
                6
      6  0.690999D+00

 Total Anharmonic X Matrix (in cm^-1)
 ------------------------------------
                1             2             3             4             5
      1 -0.107091D+02
      2 -0.231163D+01 -0.221236D+01
      3 -0.117215D+01 -0.329614D+01  0.269525D+00
      4 -0.666033D+01 -0.299620D+01  0.441291D-01  0.234151D+00
      5 -0.705651D+01 -0.108977D+02 -0.647802D+01 -0.567573D+01 -0.437673D+01
      6 -0.634088D+01 -0.650328D+00  0.346920D+00  0.321434D+00 -0.427466D+01
                6
      6  0.197758D+00

     ==================================================
       Variational Correction to Deperturbed Energies
     ==================================================

 Polyad num. 1
 -------------
                        1             2
 1        |1(1)>   0.196216D+04  0.137359D+02
 2        |2(2)>   0.137359D+02  0.192058D+04

 NOTE: Some variational states have low overlap on harmonic states.
       Reassignment on harmonic states may fail.

 Projection of DVPT2 states on New Variational States
 ----------------------------------------------------

 NOTE: Only states with projection lower than 80% are shown below.

   ### LOW CHANGES WITH RESPECT TO THE DEPERTURBED STATES (<=50%) ###

 Vibrational Energies (cm^-1)
 ----------------------------
   Mode(n)     Mode(n)        E(depert.)    E(after diag.)
      1(1)                       1962.158        1966.286
      2(2)                       1920.577        1916.449

     ==================================================
                Anharmonic Zero Point Energy
     ==================================================

 Anharmonic X0 Term
 ------------------
 U term         : cm-1 =    -0.24227 ; Kcal/mol =  -0.001 ; KJ/mol =  -0.003
 Coriolis       : cm-1 =    -0.58144 ; Kcal/mol =  -0.002 ; KJ/mol =  -0.007
 Anharmonic     : cm-1 =     5.83156 ; Kcal/mol =   0.017 ; KJ/mol =   0.070
 Total X0       : cm-1 =     5.00786 ; Kcal/mol =   0.014 ; KJ/mol =   0.060

 Anharmonic Zero Point Energy
 ----------------------------
 Harmonic       : cm-1 =  3102.13461 ; Kcal/mol =   8.869 ; KJ/mol =  37.110
 Anharmonic Pot.: cm-1 =   -13.32558 ; Kcal/mol =  -0.038 ; KJ/mol =  -0.159
 Watson+Coriolis: cm-1 =    -0.09018 ; Kcal/mol =   0.000 ; KJ/mol =  -0.001
 Total Anharm   : cm-1 =  3088.71885 ; Kcal/mol =   8.831 ; KJ/mol =  36.949

     ==================================================
          Vibrational Energies at Anharmonic Level
     ==================================================

 Units: Vibrational energies and rotational constants in cm^-1.
 NOTE: Transition energies are given with respect to the ground state.

 WARNING: Some potential issues have been found earlier.
          The following results may have been impacted and may be unreliable.
          SUMMARY:
 2 WARNINGs in calculation of 3rd and 4th energy derivatives.

 Reference Data
 --------------
                              E(harm)  E(anharm)     Aa(z)      Ba(y)      Ca(x)
 Equilibrium Geometry                              0.388513   0.386738   0.193812
 Ground State                 3102.135  3088.719   0.386643   0.385230   0.192613

 Fundamental Bands
 -----------------
     Mode(n)      Status      E(harm)  E(anharm)     Aa(z)      Ba(y)      Ca(x)
        1(1)      active      1995.347  1966.286   0.385992   0.383300   0.192013
        2(1)      active       977.001   962.501   0.385137   0.384823   0.192053
        3(1)      active       571.178   566.440   0.386150   0.386175   0.190033
        4(1)      active       764.461   757.445   0.386208   0.385273   0.192812
        5(1)      active      1282.989  1257.044   0.385585   0.383453   0.191592
        6(1)      active       613.293   608.390   0.387042   0.385341   0.194778

 Overtones
 ---------
     Mode(n)                  E(harm)  E(anharm)     Aa(z)      Ba(y)      Ca(x)
        1(2)                  3990.694  3902.898   0.385341   0.381370   0.191413
        2(2)                  1954.003  1916.449   0.383631   0.384417   0.191493
        3(2)                  1142.357  1133.419   0.385658   0.387120   0.187453
        4(2)                  1528.921  1515.359   0.385773   0.385316   0.193011
        5(2)                  2565.978  2505.335   0.384528   0.381676   0.190572
        6(2)                  1226.586  1217.175   0.387442   0.385451   0.196943

 Combination Bands
 -----------------
     Mode(n)     Mode(n)      E(harm)  E(anharm)     Aa(z)      Ba(y)      Ca(x)
        2(1)        1(1)      2972.348  2922.347   0.384486   0.382893   0.191453
        3(1)        1(1)      2566.525  2527.426   0.385499   0.384245   0.189433
        3(1)        2(1)      1548.180  1525.644   0.384644   0.385768   0.189473
        4(1)        1(1)      2759.807  2712.943   0.385557   0.383343   0.192212
        4(1)        2(1)      1741.462  1716.950   0.384702   0.384866   0.192252
        4(1)        3(1)      1335.639  1323.929   0.385715   0.386218   0.190232
        5(1)        1(1)      3278.336  3212.146   0.384935   0.381523   0.190992
        5(1)        2(1)      2259.991  2208.648   0.384079   0.383046   0.191032
        5(1)        3(1)      1854.168  1817.006   0.385093   0.384398   0.189012
        5(1)        4(1)      2047.450  2008.814   0.385150   0.383496   0.191791
        6(1)        1(1)      2608.640  2564.207   0.386392   0.383410   0.194178
        6(1)        2(1)      1590.294  1570.240   0.385536   0.384934   0.194218
        6(1)        3(1)      1184.471  1175.176   0.386550   0.386286   0.192198
        6(1)        4(1)      1377.753  1366.156   0.386608   0.385384   0.194977
        6(1)        5(1)      1896.282  1861.159   0.385985   0.383564   0.193757

     ==================================================
      Thermodynamic properties and Partition Functions
     ==================================================

 ZPE(harm) = 0.37110D+02 kJ/mol        ZPE(anh)= 0.36949D+02 kJ/mol

 Simple Perturbation Theory (SPT)
 --------------------------------

 T =  298.15 K;  P =   1.00 atm
                    Harmonic value     SPT anharmonic value
 Qvib               0.36821D-06          0.39469D-06
 QZvib              0.11680D+01          0.11735D+01
 Energy             0.45784D+02          0.45654D+02         kJ/mol
 Enthalpy           0.48263D+02          0.48133D+02         kJ/mol
 Entropy            0.25913D+03          0.25927D+03         J/(mol K)
 Sp.Heat(V)         0.39086D+02          0.39359D+02         J/(mol K)
 Sp.Heat(P)         0.47401D+02          0.47674D+02         J/(mol K)

 T =  500.00 K;  P =   1.00 atm
                    Harmonic value     SPT anharmonic value
 Qvib               0.24456D-03          0.25771D-03
 QZvib              0.18414D+01          0.18669D+01
 Energy             0.55091D+02          0.55024D+02         kJ/mol
 Enthalpy           0.59248D+02          0.59182D+02         kJ/mol
 Entropy            0.28698D+03          0.28728D+03         J/(mol K)
 Sp.Heat(V)         0.52038D+02          0.52368D+02         J/(mol K)
 Sp.Heat(P)         0.60353D+02          0.60683D+02         J/(mol K)

 T = 1000.00 K;  P =   1.00 atm
                    Harmonic value     SPT anharmonic value
 Qvib               0.87708D-01          0.92330D-01
 QZvib              0.76105D+01          0.78585D+01
 Energy             0.85264D+02          0.85335D+02         kJ/mol
 Enthalpy           0.93578D+02          0.93649D+02         kJ/mol
 Entropy            0.33402D+03          0.33452D+03         J/(mol K)
 Sp.Heat(V)         0.65865D+02          0.66073D+02         J/(mol K)
 Sp.Heat(P)         0.74180D+02          0.74388D+02         J/(mol K)

 T = 1500.00 K;  P =   1.00 atm
                    Harmonic value     SPT anharmonic value
 Qvib               0.14259D+01          0.15076D+01
 QZvib              0.27948D+02          0.29171D+02
 Energy             0.11950D+03          0.11965D+03         kJ/mol
 Enthalpy           0.13197D+03          0.13212D+03         kJ/mol
 Entropy            0.36509D+03          0.36565D+03         J/(mol K)
 Sp.Heat(V)         0.70337D+02          0.70455D+02         J/(mol K)
 Sp.Heat(P)         0.78651D+02          0.78769D+02         J/(mol K)

 T = 2000.00 K;  P =   1.00 atm
                    Harmonic value     SPT anharmonic value
 Qvib               0.91072D+01          0.96624D+01
 QZvib              0.84835D+02          0.89142D+02
 Energy             0.15518D+03          0.15538D+03         kJ/mol
 Enthalpy           0.17181D+03          0.17201D+03         kJ/mol
 Entropy            0.38800D+03          0.38859D+03         J/(mol K)
 Sp.Heat(V)         0.72183D+02          0.72255D+02         J/(mol K)
 Sp.Heat(P)         0.80497D+02          0.80570D+02         J/(mol K)

     ==================================================
               Anharmonic Transition Moments
     ==================================================

   ### DEPERTURBED TRANSITIONS MOMENTS ###

 Electric dipole : Fundamental Bands
 ------------------------------------------------------------------------
   Mode(n)                            X               Y               Z
      1(1)                       0.202035D-15    0.293820D-12   -0.110882D+00
      2(1)                       0.384467D-15   -0.380205D-12   -0.548415D-01
      3(1)                       0.138968D-15    0.449854D-12   -0.222214D-01
      4(1)                       0.515890D-01    0.739973D-15    0.110567D-14
      5(1)                      -0.194873D-15    0.137868D+00    0.174465D-12
      6(1)                       0.134478D-15   -0.270962D-01   -0.323480D-12

 Electric dipole : Overtones
 ------------------------------------------------------------------------
   Mode(n)                            X               Y               Z
      1(2)                      -0.933844D-16   -0.227450D-14    0.768264D-02
      2(2)                       0.481100D-15    0.723507D-12   -0.213334D-02
      3(2)                       0.376427D-15   -0.633702D-12   -0.348039D-03
      4(2)                       0.929811D-14    0.636238D-15    0.952148D-02
      5(2)                       0.268336D-15    0.798370D-14   -0.110534D-01
      6(2)                      -0.322315D-15   -0.264819D-13   -0.727898D-04

 Electric dipole : Combination Bands
 ------------------------------------------------------------------------
   Mode(n)     Mode(n)                X               Y               Z
      2(1)        1(1)           0.507343D-15   -0.100934D-11   -0.713319D-02
      3(1)        1(1)           0.383943D-15   -0.878954D-12    0.426610D-03
      3(1)        2(1)          -0.264496D-16   -0.836181D-12   -0.174942D-02
      4(1)        1(1)          -0.144116D-02   -0.118437D-15   -0.127520D-13
      4(1)        2(1)          -0.288947D-03    0.132118D-15   -0.501239D-15
      4(1)        3(1)          -0.152840D-03   -0.381818D-14    0.779027D-14
      5(1)        1(1)          -0.312868D-15    0.274287D-02    0.609576D-14
      5(1)        2(1)           0.857683D-16    0.109567D-01   -0.612925D-12
      5(1)        3(1)          -0.366069D-16    0.942045D-04    0.404333D-12
      5(1)        4(1)          -0.640361D-14   -0.456697D-14   -0.171621D-14
      6(1)        1(1)           0.272100D-15   -0.390412D-03    0.908130D-14
      6(1)        2(1)           0.194485D-15    0.988636D-02    0.523308D-12
      6(1)        3(1)           0.235257D-15   -0.377005D-03    0.599230D-12
      6(1)        4(1)           0.595056D-13   -0.795400D-14   -0.239741D-14
      6(1)        5(1)           0.361709D-15    0.286092D-13   -0.966704D-02

   ### AFTER VARIATIONAL CORRECTION ###

 Electric dipole : Fundamental Bands
 ------------------------------------------------------------------------
   Mode(n)                            X               Y               Z
      1(1)                       0.331945D-15    0.489611D-12   -0.106805D+00
      2(1)                       0.384467D-15   -0.380205D-12   -0.548415D-01
      3(1)                       0.138968D-15    0.449854D-12   -0.222214D-01
      4(1)                       0.515890D-01    0.739973D-15    0.110567D-14
      5(1)                      -0.194873D-15    0.137868D+00    0.174465D-12
      6(1)                       0.134478D-15   -0.270962D-01   -0.323480D-12

 Electric dipole : Overtones
 ------------------------------------------------------------------------
   Mode(n)                            X               Y               Z
      1(2)                      -0.933844D-16   -0.227450D-14    0.768264D-02
      2(2)                       0.402601D-15    0.608337D-12    0.298682D-01
      3(2)                       0.376427D-15   -0.633702D-12   -0.348039D-03
      4(2)                       0.929811D-14    0.636238D-15    0.952148D-02
      5(2)                       0.268336D-15    0.798370D-14   -0.110534D-01
      6(2)                      -0.322315D-15   -0.264819D-13   -0.727898D-04

 Electric dipole : Combination Bands
 ------------------------------------------------------------------------
   Mode(n)     Mode(n)                X               Y               Z
      2(1)        1(1)           0.507343D-15   -0.100934D-11   -0.713319D-02
      3(1)        1(1)           0.383943D-15   -0.878954D-12    0.426610D-03
      3(1)        2(1)          -0.264496D-16   -0.836181D-12   -0.174942D-02
      4(1)        1(1)          -0.144116D-02   -0.118437D-15   -0.127520D-13
      4(1)        2(1)          -0.288947D-03    0.132118D-15   -0.501239D-15
      4(1)        3(1)          -0.152840D-03   -0.381818D-14    0.779027D-14
      5(1)        1(1)          -0.312868D-15    0.274287D-02    0.609576D-14
      5(1)        2(1)           0.857683D-16    0.109567D-01   -0.612925D-12
      5(1)        3(1)          -0.366069D-16    0.942045D-04    0.404333D-12
      5(1)        4(1)          -0.640361D-14   -0.456697D-14   -0.171621D-14
      6(1)        1(1)           0.272100D-15   -0.390412D-03    0.908130D-14
      6(1)        2(1)           0.194485D-15    0.988636D-02    0.523308D-12
      6(1)        3(1)           0.235257D-15   -0.377005D-03    0.599230D-12
      6(1)        4(1)           0.595056D-13   -0.795400D-14   -0.239741D-14
      6(1)        5(1)           0.361709D-15    0.286092D-13   -0.966704D-02

     ==================================================
              Anharmonic Infrared Spectroscopy
     ==================================================

 Units: Transition energies (E) in cm^-1
        Integrated intensity (I) in km.mol^-1

 Fundamental Bands
 -----------------
   Mode(n)                  E(harm)   E(anharm)        I(harm)       I(anharm)
      1(1)                  1995.347   1966.286    412.00966877    363.23436444
      2(1)                   977.001    962.501     47.57096739     46.87887860
      3(1)                   571.178    566.440      4.66151948      4.52954489
      4(1)                   764.461    757.445     33.15231930     32.64549869
      5(1)                  1282.989   1257.044    395.65591743    386.93362613
      6(1)                   613.293    608.390      7.62901658      7.23362192

 Overtones
 ---------
   Mode(n)                  E(harm)   E(anharm)                      I(anharm)
      1(2)                  3990.694   3902.898                      3.73048489
      2(2)                  1954.003   1916.449                     27.68674016
      3(2)                  1142.357   1133.419                      0.00222333
      4(2)                  1528.921   1515.359                      2.22475278
      5(2)                  2565.978   2505.335                      4.95693694
      6(2)                  1226.586   1217.175                      0.00010444

 Combination Bands
 -----------------
   Mode(n)     Mode(n)      E(harm)   E(anharm)                      I(anharm)
      2(1)        1(1)      2972.348   2922.347                      2.40799854
      3(1)        1(1)      2566.525   2527.426                      0.00744900
      3(1)        2(1)      1548.180   1525.644                      0.07561378
      4(1)        1(1)      2759.807   2712.943                      0.09124715
      4(1)        2(1)      1741.462   1716.950                      0.00232141
      4(1)        3(1)      1335.639   1323.929                      0.00050084
      5(1)        1(1)      3278.336   3212.146                      0.39134701
      5(1)        2(1)      2259.991   2208.648                      4.29379050
      5(1)        3(1)      1854.168   1817.006                      0.00026113
      5(1)        4(1)      2047.450   2008.814                      0.00000000
      6(1)        1(1)      2608.640   2564.207                      0.00632930
      6(1)        2(1)      1590.294   1570.240                      2.48539703
      6(1)        3(1)      1184.471   1175.176                      0.00270492
      6(1)        4(1)      1377.753   1366.156                      0.00000000
      6(1)        5(1)      1896.282   1861.159                      2.81661583

 Units: Transition energies (E) in cm^-1
        Dipole strengths (DS) in 10^-40 esu^2.cm^2

 Fundamental Bands
 -----------------
   Mode(n)                  E(harm)   E(anharm)       DS(harm)      DS(anharm)
      1(1)                  1995.347   1966.286    823.75184049    736.96642480
      2(1)                   977.001    962.501    194.24694663    194.30481548
      3(1)                   571.178    566.440     32.55840741     31.90128794
      4(1)                   764.461    757.445    173.00802634    171.94095223
      5(1)                  1282.989   1257.044   1230.27461142   1227.98548692
      6(1)                   613.293    608.390     49.62586630     47.43309491

 Overtones
 ---------
   Mode(n)                  E(harm)   E(anharm)                     DS(anharm)
      1(2)                  3990.694   3902.898                      3.81316425
      2(2)                  1954.003   1916.449                     57.63442727
      3(2)                  1142.357   1133.419                      0.00782565
      4(2)                  1528.921   1515.359                      5.85697742
      5(2)                  2565.978   2505.335                      7.89323275
      6(2)                  1226.586   1217.175                      0.00034230

 Combination Bands
 -----------------
   Mode(n)     Mode(n)      E(harm)   E(anharm)                     DS(anharm)
      2(1)        1(1)      2972.348   2922.347                      3.28724317
      3(1)        1(1)      2566.525   2527.426                      0.01175783
      3(1)        2(1)      1548.180   1525.644                      0.19772203
      4(1)        1(1)      2759.807   2712.943                      0.13417945
      4(1)        2(1)      1741.462   1716.950                      0.00539387
      4(1)        3(1)      1335.639   1323.929                      0.00150918
      5(1)        1(1)      3278.336   3212.146                      0.48604240
      5(1)        2(1)      2259.991   2208.648                      7.75571502
      5(1)        3(1)      1854.168   1817.006                      0.00057333
      5(1)        4(1)      2047.450   2008.814                      0.00000000
      6(1)        1(1)      2608.640   2564.207                      0.00984713
      6(1)        2(1)      1590.294   1570.240                      6.31447378
      6(1)        3(1)      1184.471   1175.176                      0.00918246
      6(1)        4(1)      1377.753   1366.156                      0.00000000
      6(1)        5(1)      1896.282   1861.159                      6.03742095


 GradGradGradGradGradGradGradGradGradGradGradGradGradGradGradGradGradGrad
 Berny optimization.
 Search for a local minimum.
 Step number     1 out of a maximum of     2
 All quantities printed in internal units (Hartrees-Bohrs-Radians)
 Second derivative matrix not updated -- analytic derivatives used.
 The second derivative matrix:
                          X1        Y1        Z1        X2        Y2
           X1           1.00855
           Y1           0.00000   0.10427
           Z1           0.00000   0.00000   0.03401
           X2          -0.88714   0.00000   0.00000   1.22551
           Y2           0.00000  -0.10433   0.00000   0.00000   0.57325
           Z2           0.00000   0.00000  -0.08554   0.00000   0.00000
           X3          -0.06070  -0.05755   0.00000  -0.16918  -0.11325
           Y3          -0.03788   0.00003   0.00000  -0.11453  -0.23446
           Z3           0.00000   0.00000   0.02577   0.00000   0.00000
           X4          -0.06070   0.05755   0.00000  -0.16918   0.11325
           Y4           0.03788   0.00003   0.00000   0.11453  -0.23446
           Z4           0.00000   0.00000   0.02577   0.00000   0.00000
                          Z2        X3        Y3        Z3        X4
           Z2           0.21521
           X3           0.00000   0.20897
           Y3           0.00000   0.16160   0.32486
           Z3          -0.06483   0.00000   0.00000   0.01954
           X4           0.00000   0.02092  -0.00920   0.00000   0.20897
           Y4           0.00000   0.00920  -0.09044   0.00000  -0.16160
           Z4          -0.06483   0.00000   0.00000   0.01952   0.00000
                          Y4        Z4
           Y4           0.32486
           Z4           0.00000   0.01954
 ITU=  0
     Eigenvalues ---    0.21925   0.24216   0.28670   0.63328   0.85280
     Eigenvalues ---    2.01941
 Angle between quadratic step and forces=  49.99 degrees.
 ClnCor:  largest displacement from symmetrization is 1.65D-14 for atom     2.
 Linear search not attempted -- first point.
 ClnCor:  largest displacement from symmetrization is 2.22D-16 for atom     3.
 B after Tr=     0.000000    0.000000    0.000000
         Rot=    1.000000    0.000000    0.000000    0.000000 Ang=   0.00 deg.
 Variable       Old X    -DE/DX   Delta X   Delta X   Delta X     New X
                                 (Linear)    (Quad)   (Total)
    X1       -2.53720   0.00000   0.00000   0.00000   0.00000  -2.53720
    Y1        0.00000   0.00000   0.00000   0.00000   0.00000   0.00000
    Z1        0.00000   0.00000   0.00000   0.00000   0.00000   0.00000
    X2       -0.30682   0.00000   0.00000   0.00000   0.00000  -0.30682
    Y2        0.00000   0.00000   0.00000   0.00000   0.00000   0.00000
    Z2        0.00000   0.00000   0.00000   0.00000   0.00000   0.00000
    X3        1.16494   0.00000   0.00000   0.00000   0.00000   1.16494
    Y3        2.01939   0.00000   0.00000   0.00000   0.00000   2.01939
    Z3        0.00000   0.00000   0.00000   0.00000   0.00000   0.00000
    X4        1.16494   0.00000   0.00000   0.00000   0.00000   1.16494
    Y4       -2.01939   0.00000   0.00000   0.00000   0.00000  -2.01939
    Z4        0.00000   0.00000   0.00000   0.00000   0.00000   0.00000
         Item               Value     Threshold  Converged?
 Maximum Force            0.000003     0.000450     YES
 RMS     Force            0.000001     0.000300     YES
 Maximum Displacement     0.000002     0.001800     YES
 RMS     Displacement     0.000001     0.001200     YES
 Predicted change in Energy=-3.696236D-12
 Optimization completed.
    -- Stationary point found.
 GradGradGradGradGradGradGradGradGradGradGradGradGradGradGradGradGradGrad


 ----------------------------------------------------------------------

 Electric dipole moment (input orientation):
 (Debye = 10**-18 statcoulomb cm , SI units = C m)
                  (au)            (Debye)         (10**-30 SI)
   Tot        0.454425D+00      0.115503D+01      0.385278D+01
   x          0.454425D+00      0.115503D+01      0.385278D+01
   y          0.000000D+00      0.000000D+00      0.000000D+00
   z          0.000000D+00      0.000000D+00      0.000000D+00

 Dipole polarizability, Alpha (input orientation).
 (esu units = cm**3 , SI units = C**2 m**2 J**-1)
 Alpha(0;0):
               (au)            (10**-24 esu)      (10**-40 SI)
   iso        0.133528D+02      0.197868D+01      0.220158D+01
   aniso      0.790521D+01      0.117143D+01      0.130339D+01
   xx         0.178694D+02      0.264798D+01      0.294627D+01
   yx         0.000000D+00      0.000000D+00      0.000000D+00
   yy         0.134462D+02      0.199252D+01      0.221698D+01
   zx         0.000000D+00      0.000000D+00      0.000000D+00
   zy         0.000000D+00      0.000000D+00      0.000000D+00
   zz         0.874273D+01      0.129554D+01      0.144148D+01

 ----------------------------------------------------------------------

 Dipole orientation:
     8          0.00000000          0.00000000         -2.53719921
     6          0.00000000          0.00000000         -0.30681971
     9          0.00000000          2.01939157          1.16494435
     9          0.00000000         -2.01939157          1.16494435

 Electric dipole moment (dipole orientation):
 (Debye = 10**-18 statcoulomb cm , SI units = C m)
                  (au)            (Debye)         (10**-30 SI)
   Tot        0.454425D+00      0.115503D+01      0.385278D+01
   x          0.000000D+00      0.000000D+00      0.000000D+00
   y          0.000000D+00      0.000000D+00      0.000000D+00
   z          0.454425D+00      0.115503D+01      0.385278D+01

 Dipole polarizability, Alpha (dipole orientation).
 (esu units = cm**3 , SI units = C**2 m**2 J**-1)
 Alpha(0;0):
               (au)            (10**-24 esu)      (10**-40 SI)
   iso        0.133528D+02      0.197868D+01      0.220158D+01
   aniso      0.790521D+01      0.117143D+01      0.130339D+01
   xx         0.874273D+01      0.129554D+01      0.144148D+01
   yx         0.000000D+00      0.000000D+00      0.000000D+00
   yy         0.134462D+02      0.199252D+01      0.221698D+01
   zx         0.000000D+00      0.000000D+00      0.000000D+00
   zy         0.000000D+00      0.000000D+00      0.000000D+00
   zz         0.178694D+02      0.264798D+01      0.294627D+01

 ----------------------------------------------------------------------

 Job not archived.
 1\1\GINC-MACBOOK-PRO-DI-VINCENZO\Freq\RB3LYP\6-31G(d)\C1F2O1\VINCENZOB
 ARONE\12-Mar-2026\0\\#B3LYP 6-31G* freq=anharm output=pickett iop(7/8=
 10)\\f2co\\0,1\O,-1.342628,0.,0.\C,-0.162362,0.,0.\F,0.616462,1.068616
 ,0.\F,0.616462,-1.068616,0.\\Version=AppleM1-GDVRevJ.32+\State=1-A1\HF
 =-313.007951\RMSD=9.046e-09\RMSF=9.604e-07\ZeroPoint=0.0141344\Thermal
 =0.0174384\ETot=-312.9905126\HTot=-312.9895684\GTot=-313.018995\Dipole
 =0.4544254,0.,0.\DipoleDeriv=-0.947185,0.,0.,0.,-0.5351463,0.,0.,0.,-0
 .3471595,2.1080649,0.,0.,0.,1.9854818,0.,0.,0.,0.5645008,-0.58044,-0.3
 454945,0.,-0.3688028,-0.7251677,0.,0.,0.,-0.1086707,-0.58044,0.3454945
 ,0.,0.3688028,-0.7251677,0.,0.,0.,-0.1086707\Polar=17.8694461,0.,13.44
 6191,0.,0.,8.7427272\Quadrupole=-1.5788134,0.0196478,1.5591656,0.,0.,0
 .\PG=C02V [C2(C1O1),SGV(F2)]\NImag=0\\1.00854976,0.,0.10426535,0.,0.,0
 .03400589,-0.88714389,0.,0.,1.22550527,0.,-0.10433246,0.,0.,0.57325297
 ,0.,0.,-0.08554437,0.,0.,0.21520600,-0.06070294,-0.05755284,0.,-0.1691
 8069,-0.11324859,0.,0.20896529,-0.03787642,0.00003355,0.,-0.11452545,-
 0.23446026,0.,0.16160165,0.32486210,0.,0.,0.02576924,0.,0.,-0.06483081
 ,0.,0.,0.01953763,-0.06070294,0.05755284,0.,-0.16918069,0.11324859,0.,
 0.02091834,-0.00919979,0.,0.20896529,0.03787642,0.00003355,0.,0.114525
 45,-0.23446026,0.,0.00919979,-0.09043540,0.,-0.16160165,0.32486210,0.,
 0.,0.02576924,0.,0.,-0.06483081,0.,0.,0.01952394,0.,0.,0.01953763\\0.0
 0000204,0.,0.,-0.00000254,0.,0.,0.00000025,-0.00000039,0.,0.00000025,0
 .00000039,0.\\0.04546753,0.,0.00685919,0.,0.,-0.00793762,-0.03542155,0
 .,0.,0.00035642,0.,0.00827041,0.,0.,-0.00680199,0.,0.,0.00251372,0.,0.
 ,-0.00221980,-0.00502299,-0.00996350,0.,0.01753257,0.01598145,0.,-0.00
 789012,-0.00756152,-0.00756480,0.,0.01109656,-0.00073421,0.,-0.0047764
 9,-0.03878511,0.,0.,0.00271195,0.,0.,-0.00014696,0.,0.,0.00610350,-0.0
 0502299,0.00996350,0.,0.01753257,-0.01598145,0.,-0.00461946,0.00124145
 ,0.,-0.00789012,0.00756152,-0.00756480,0.,-0.01109656,-0.00073421,0.,-
 0.00124145,0.04708412,0.,0.00477649,-0.03878511,0.,0.,0.00271195,0.,0.
 ,-0.00014696,0.,0.,-0.00866849,0.,0.,0.00610350,0.,-0.04816907,0.,0.,0
 .,0.,0.,0.07796585,0.,0.,0.06784062,0.,0.,-0.01498716,0.,0.,0.,0.,0.,0
 .,0.,-0.02685670,-0.01489839,0.,-0.00947834,-0.02642673,0.,0.03633504,
 -0.00983578,-0.00234518,0.,-0.03148934,-0.03961077,0.,0.03454288,0.041
 95595,0.,0.,0.00679728,0.,0.,0.00276531,0.,0.,-0.00956259,0.02685670,-
 0.01489839,0.,0.00947834,-0.02642673,0.,0.,0.00678225,0.,-0.03633504,-
 0.00983578,0.00234518,0.,-0.03148934,0.03961077,0.,0.00678225,0.,0.,0.
 03454288,-0.04195595,0.,0.,-0.00679728,0.,0.,-0.00276531,0.,0.,0.,0.,0
 .,0.00956259,0.,0.,0.,0.11343334,0.,0.,0.,0.,-0.11948134,0.,0.,0.,0.,0
 .,0.,-0.09826918,0.,0.,0.07282666,0.,0.,0.,0.,0.00302400,0.,0.,0.01272
 126,0.,0.,0.,0.00304662,0.,0.,0.01568823,0.,0.,-0.00758208,-0.00192807
 ,0.,0.02332734,0.02755906,0.,-0.01616614,-0.02218292,0.,0.,0.,0.003024
 00,0.,0.,0.01272126,0.,0.,0.00042088,0.,0.,0.,-0.00304662,0.,0.,-0.015
 68823,0.,0.,-0.00344807,0.,0.,-0.00758208,0.00192807,0.,0.02332734,-0.
 02755906,0.,0.00042088,0.00344807,0.,-0.01616614,0.02218292,0.,0.21312
 253,0.,-0.00473702,0.,0.,-0.02646054,-0.17242732,0.,0.,0.32380633,0.,0
 .01118489,0.,0.,0.30927934,0.,0.,0.01003773,0.,0.,-0.03818255,-0.02034
 760,-0.02022517,0.,-0.07568950,-0.11955858,0.,0.09005606,-0.01093421,-
 0.00322394,0.,-0.11987425,-0.16023212,0.,0.13529610,0.19307535,0.,0.,0
 .00821140,0.,0.,0.01407241,0.,0.,-0.02815778,-0.02034760,0.02022517,0.
 ,-0.07568950,0.11955858,0.,0.00598104,-0.00448765,0.,0.09005606,0.0109
 3421,-0.00322394,0.,0.11987425,-0.16023212,0.,0.00448765,-0.02961930,0
 .,-0.13529610,0.19307535,0.,0.,0.00821140,0.,0.,0.01407241,0.,0.,0.005
 87397,0.,0.,-0.02815778,0.,0.09488742,0.,0.,0.,0.,0.,-0.08585857,0.,0.
 ,-0.09923405,0.,0.,0.49439289,0.,0.,0.,0.,0.,0.,0.,0.00291994,-0.00451
 443,0.,-0.13999374,-0.19757942,0.,0.13707379,0.00217331,0.00566235,0.,
 -0.20426716,-0.23860414,0.,0.19968672,0.23294179,0.,0.,0.00039688,0.,0
 .,0.03029098,0.,0.,-0.03068786,-0.00291994,-0.00451443,0.,0.13999374,-
 0.19757942,0.,0.,0.00240712,0.,-0.13707379,0.00217331,-0.00566235,0.,-
 0.20426716,0.23860414,0.,0.00240712,0.,0.,0.19968672,-0.23294179,0.,0.
 ,-0.00039688,0.,0.,-0.03029098,0.,0.,0.,0.,0.,0.03068786,-1.36986316,0
 .,0.11984633,0.,0.,0.14019126,1.35071086,0.,0.,-1.23493910,0.,-0.12004
 955,0.,0.,0.42458909,0.,0.,-0.13113837,0.,0.,0.08732266,0.00957615,0.0
 1088321,0.,-0.05788588,-0.11123368,0.,0.04351550,0.00700514,0.00010161
 ,0.,-0.10189004,-0.15226977,0.,0.09761769,0.14897281,0.,0.,-0.00452645
 ,0.,0.,0.02190785,0.,0.,-0.01536512,0.00957615,-0.01088321,0.,-0.05788
 588,0.11123368,0.,0.00479424,-0.00273278,0.,0.04351550,-0.00700514,0.0
 0010161,0.,0.10189004,-0.15226977,0.,0.00273278,0.00319535,0.,-0.09761
 769,0.14897281,0.,0.,-0.00452645,0.,0.,0.02190785,0.,0.,-0.00201629,0.
 ,0.,-0.01536512,-0.00054880,0.,0.00184505,0.,0.,-0.00124712,-0.0007630
 9,0.,0.,-0.00777062,0.,0.00203298,0.,0.,-0.03677036,0.,0.,0.00149826,0
 .,0.,-0.00151514,0.00065594,-0.00016433,0.,0.00426686,0.01041150,0.,-0
 .00813088,-0.00078672,-0.00193901,0.,0.00990997,0.01736869,0.,-0.00968
 521,0.01083206,0.,0.,-0.00012556,0.,0.,0.00000844,0.,0.,-0.00350373,0.
 00065594,0.00016433,0.,0.00426686,-0.01041151,0.,0.00320810,0.00056196
 ,0.,-0.00813088,0.00078672,-0.00193901,0.,-0.00990997,0.01736869,0.,-0
 .00056196,-0.02626172,0.,0.00968521,0.01083202,0.,0.,-0.00012556,0.,0.
 ,0.00000844,0.,0.,0.00362087,0.,0.,-0.00350372,-0.08564291,0.,0.017571
 07,0.,0.,0.00292774,0.10650321,0.,0.,-0.11878331,0.,-0.01688757,0.,0.,
 0.02781516,0.,0.,-0.00573183,0.,0.,0.00132225,-0.01043015,-0.00239714,
 0.,0.00614005,-0.00209348,0.,0.00561563,-0.00488743,-0.00034175,0.,0.0
 0119056,-0.00546380,0.,0.00409374,0.00234679,0.,0.,0.00140205,0.,0.,0.
 00220479,0.,0.,-0.00308424,-0.01043015,0.00239714,0.,0.00614005,0.0020
 9348,0.,-0.00132554,-0.00039688,0.,0.00561567,0.00488743,-0.00034175,0
 .,-0.00119057,-0.00546380,0.,0.00039688,0.00345873,0.,-0.00409374,0.00
 234682,0.,0.,0.00140205,0.,0.,0.00220479,0.,0.,-0.00052263,0.,0.,-0.00
 308420,-0.21994531,0.,0.01116067,0.,0.,0.04532045,0.22726410,0.,0.,-0.
 27338794,0.,-0.00885970,0.,0.,-0.06958780,0.,0.,-0.03704589,0.,0.,0.04
 122047,-0.00365941,0.00116979,0.,0.02306192,0.02707463,0.,-0.01951883,
 -0.00460023,-0.00115048,0.,0.02966801,0.03922375,0.,-0.02665610,-0.036
 68565,0.,0.,-0.00413727,0.,0.,-0.00208729,0.,0.,0.00845298,-0.00365941
 ,-0.00116979,0.,0.02306192,-0.02707463,0.,0.00011634,0.00158832,0.,-0.
 01951881,0.00460023,-0.00115048,0.,-0.02966800,0.03922375,0.,-0.001588
 32,-0.00138763,0.,0.02665610,-0.03668566,0.,0.,-0.00413727,0.,0.,-0.00
 208729,0.,0.,-0.00222842,0.,0.,0.00845302,0.04026070,0.,0.00058601,0.,
 0.,-0.00847792,-0.02539926,0.,0.,0.07269899,0.,0.00181065,0.,0.,0.2061
 6271,0.,0.,0.00241608,0.,0.,-0.03907549,-0.00743072,-0.00767470,0.,-0.
 02364986,-0.07217262,0.,0.03009014,-0.00336127,-0.00119833,0.,-0.06826
 167,-0.10398668,0.,0.07573513,0.11233827,0.,0.,0.00303093,0.,0.,0.0183
 2970,0.,0.,-0.02338772,-0.00743072,0.00767470,0.,-0.02364987,0.0721726
 2,0.,0.00099044,-0.00411219,0.,0.03009020,0.00336127,-0.00119833,0.,0.
 06826167,-0.10398668,0.,0.00411219,-0.00715329,0.,-0.07573513,0.112338
 30,0.,0.,0.00303093,0.,0.,0.01832970,0.,0.,0.00202705,0.,0.,-0.0233876
 4,-0.15720143,0.,0.02867753,0.,0.,0.01077411,0.15038298,0.,0.,0.148535
 86,0.,-0.02790453,0.,0.,0.33833479,0.,0.,-0.00867619,0.,0.,-0.09316808
 ,0.00340922,0.00190022,0.,-0.14945941,-0.20557778,0.,0.14383720,0.0004
 9583,-0.00038650,0.,-0.21095708,-0.15521512,0.,0.20706941,0.15936710,0
 .,0.,-0.00104895,0.,0.,0.05092214,0.,0.,-0.05044858,0.00340922,-0.0019
 0022,0.,-0.14945941,0.20557778,0.,0.00221301,0.00339184,0.,0.14383724,
 -0.00049583,-0.00038651,0.,0.21095708,-0.15521512,0.,-0.00339184,-0.00
 376547,0.,-0.20706941,0.15936712,0.,0.,-0.00104895,0.,0.,0.05092214,0.
 ,0.,0.00057539,0.,0.,-0.05044855,1.62918431,0.,-0.27435993,0.,0.,-0.27
 715133,-1.65336017,0.,0.,1.67330964,0.,0.27761802,0.,0.,-0.10737634,0.
 ,0.,0.27800414,0.,0.,-0.31862779,0.01208793,0.00043138,0.,-0.00997474,
 -0.03765059,0.,-0.00845552,0.00256368,-0.00162904,0.,-0.04223896,-0.08
 512084,0.,0.03844725,0.08201648,0.,0.,-0.00042640,0.,0.,0.02031182,0.,
 0.,-0.01675773,0.01208793,-0.00043138,0.,-0.00997474,0.03765059,0.,0.0
 0634236,0.00122803,0.,-0.00845553,-0.00256368,-0.00162904,0.,0.0422389
 6,-0.08512084,0.,-0.00122803,0.00473341,0.,-0.03844725,0.08201646,0.,0
 .,-0.00042640,0.,0.,0.02031182,0.,0.,-0.00312769,0.,0.,-0.01675771\\@
 DoSRE=F DoSRN=F DoDH=F DoFC=F DoNQ=T DoQCD=T DoSCD=T
 Inertia tensor (amu-bohr**2): 
                 1             2             3 
      1   0.154949D+03  0.000000D+00  0.000000D+00
      2   0.000000D+00  0.155660D+03  0.000000D+00
      3   0.000000D+00  0.000000D+00  0.310609D+03
 Principal inertia moments (amu-bohr**2):
 Iaa = 0.154949D+03 Ibb= 0.155660D+03 Icc= 0.310609D+03
 Rotation matrix to Principal Axis frame: 
                 1             2             3 
      1   0.100000D+01  0.000000D+00  0.000000D+00
      2   0.000000D+00  0.100000D+01  0.000000D+00
      3   0.000000D+00  0.000000D+00  0.100000D+01
                Principal axis orientation:                
 ---------------------------------------------------------------------
 Center     Atomic                     Coordinates (Angstroms)
 Number     Number                        X           Y           Z
 ---------------------------------------------------------------------
      1          8                   -1.342628    0.000000    0.000000
      2          6                   -0.162362    0.000000    0.000000
      3          9                    0.616462    1.068616    0.000000
      4          9                    0.616462   -1.068616    0.000000
 ---------------------------------------------------------------------
 Rotational constants (MHZ):
  11647.3401167  11594.1015591   5810.3299309
 Nuclear quadrupole coupling constants [Chi] (MHz):
 Dipole moment (Debye):
      1.1550341      0.0000000      0.0000000  Tot=      1.1550341
 Quartic Centrifugal Distortion Constants (MHz)
    (Asymmetrically reduced)          (Symmetrically reduced)
    DELTA N  =    0.005921536         D N  =    0.003919095
    DELTA K  =    0.013364621         D K  =    0.003352416
    DELTA NK =   -0.003197088         D NK =    0.008817558
    delta N  =   -0.002497536         d 1  =    0.002497536
    delta K  =   -0.004078610         d 2  =   -0.001001220
 Sextic Centrifugal Distortion Constants (MHz)
    (Asymmetrically reduced)          (Symmetrically reduced)
    PHI N  =    0.1456679473D-07      H N  =    0.2735393170D-08
    PHI K  =    0.2017277977D-08      H K  =   -0.1310215740D-06
    PHI NK =   -0.5544063116D-07      H NK =   -0.4146887268D-07
    PHI KN =    0.7114961198D-07      H KN =    0.2020481071D-06
    phi N  =   -0.7311151015D-08      h 1  =   -0.3812026821D-08
    phi K  =   -0.8482845019D-07      h 2  =    0.5915700779D-08
    phi NK =    0.1127275739D-07      h 3  =   -0.3499124194D-08

 Atoms with significant hyperfine tensors: 

--------------------------------------------------------------------------------
 f2co                                                    
   99  1000  50  0.1760E-11  0.1000E+07  0.1000E+01 1.0000000000
a   1  0  0  0  1  1   1  0  1  0
     10000   0.11647340E+05    0.0000E+00   /  A  /
     20000   0.11594102E+05    0.0000E+00   /  B  /
     30000   0.58103299E+04    0.0000E+00   /  C  /
       200  -0.59215357E-02    0.0000E+00   /  -DELTA N  /
      2000  -0.13364621E-01    0.0000E+00   /  -DELTA K  /
      1100   0.31970877E-02    0.0000E+00   /  -DELTA NK  /
     40100   0.24975364E-02    0.0000E+00   /  -delta N  /
     41000   0.40786098E-02    0.0000E+00   /  -delta K  /
       300   0.14566795E-07    0.0000E+00   /  PHI N  /
      3000   0.20172780E-08    0.0000E+00   /  PHI K  /
      1200  -0.55440631E-07    0.0000E+00   /  PHI NK  /
      2100   0.71149612E-07    0.0000E+00   /  PHI KN  /
     42000  -0.84828450E-07    0.0000E+00   /  phi K  /
     40200  -0.73111510E-08    0.0000E+00   /  phi N  /
     41100   0.11272757E-07    0.0000E+00   /  phi NK  /
--------------------------------------------------------------------------------



 THE WISE MAN HAS THE POWER TO REASON AWAY
 WHAT A FOOL BELIEVES.
                     - DOOBIE BROTHERS
 Job cpu time:       0 days  0 hours  0 minutes 21.1 seconds.
 Elapsed time:       0 days  0 hours  0 minutes 20.9 seconds.
 File lengths (MBytes):  RWF=     45 Int=      0 D2E=      0 Chk=     46 Scr=      1
 Normal termination of Gaussian DV at Thu Mar 12 09:45:43 2026.
