h2co                                                                    
Freq      RB3LYP                                                      6-31G(d)            
Number of atoms                            I                4
Info1-9                                    I   N=           9
          15          13           0           0           0         101
           6          18        -502
Full Title                                 C   N=           1
h2co        
Route                                      C   N=           5
#B3LYP 6-31G* freq=anharm output=pickett iop(7/8=10)        
Point Group                                C   N=           2
C02V                    
Point Group NOp                            I                4
Point Group Abelian NOp                    I                4
Point Group NClass                         I                4
Point Group NIrrep                         I                4
Point Group NGen                           I                2
Point Group NOp symm assign                I                2
Point Group Irrep Names                    H   N=           4
A1      A2      B1      B2      
Point Group Class Names                    H   N=           4
E       C2      Sgm     Sgm'    
Point Group Generators                     I   N=           2
           2           3
Point Group Class of Operators             I   N=           4
           1           2           3           4
Point Group Rotations                      R   N=          48
  1.00000000E+00  0.00000000E+00  0.00000000E+00  0.00000000E+00  1.00000000E+00
 -1.22157600E-32  0.00000000E+00 -1.22157600E-32  1.00000000E+00  0.00000000E+00
  0.00000000E+00  0.00000000E+00 -1.00000000E+00 -1.22464680E-16  0.00000000E+00
  1.22464680E-16 -1.00000000E+00  8.83269765E-32  0.00000000E+00 -1.22157600E-32
  1.00000000E+00  0.00000000E+00  0.00000000E+00  0.00000000E+00 -1.00000000E+00
  0.00000000E+00  0.00000000E+00  0.00000000E+00  1.00000000E+00 -1.22157600E-32
  0.00000000E+00 -1.22157600E-32  1.00000000E+00  0.00000000E+00  0.00000000E+00
  0.00000000E+00  1.00000000E+00 -1.22464680E-16  0.00000000E+00 -1.22464680E-16
 -1.00000000E+00  3.47121568E-32  0.00000000E+00  3.70880465E-32  1.00000000E+00
  0.00000000E+00  0.00000000E+00  0.00000000E+00
Point Group Cell Trans                     I   N=          12
           0           0           0           0           0           0
           0           0           0           0           0           0
Point Group Char Table                     R   N=          16
  1.00000000E+00  1.00000000E+00  1.00000000E+00  1.00000000E+00  1.00000000E+00
  1.00000000E+00 -1.00000000E+00 -1.00000000E+00  1.00000000E+00 -1.00000000E+00
 -1.00000000E+00  1.00000000E+00  1.00000000E+00 -1.00000000E+00  1.00000000E+00
 -1.00000000E+00
Point Group Atom Permutations              I   N=          16
           1           2           3           4           1           2
           4           3           1           2           3           4
           1           2           4           3
Charge                                     I                0
Multiplicity                               I                1
Number of electrons                        I               16
Number of alpha electrons                  I                8
Number of beta electrons                   I                8
Number of basis functions                  I               34
Number of independent functions            I               34
Number of point charges in /Mol/           I                0
Number of translation vectors              I                0
Atomic numbers                             I   N=           4
           8           6           1           1
Nuclear charges                            R   N=           4
  8.00000000E+00  6.00000000E+00  1.00000000E+00  1.00000000E+00
Current cartesian coordinates              R   N=          12
  0.00000000E+00  2.78376350E-32  1.28042456E+00  2.46519033E-32 -1.80934683E-33
 -9.99488431E-01  0.00000000E+00  1.77217571E+00 -2.12323297E+00 -2.17028931E-16
 -1.77217571E+00 -2.12323297E+00
Number of symbols in /Mol/                 I                0
Int Atom Types                             I   N=           4
           0           0           0           0
Force Field                                I                0
Atom Types                                 C   N=           4
                                                
MM charges                                 R   N=           4
  0.00000000E+00  0.00000000E+00  0.00000000E+00  0.00000000E+00
Integer atomic weights                     I   N=           4
          16          12           1           1
Real atomic weights                        R   N=           4
  1.59949146E+01  1.20000000E+01  1.00782504E+00  1.00782504E+00
Atom fragment info                         I   N=           4
           0           0           0           0
Atom residue num                           I   N=           4
           0           0           0           0
Nuclear spins                              I   N=           4
           0           0           1           1
Nuclear ZEff                               R   N=           4
 -5.60000000E+00 -3.60000000E+00 -1.00000000E+00 -1.00000000E+00
Nuclear ZNuc                               R   N=           4
  8.00000000E+00  6.00000000E+00  1.00000000E+00  1.00000000E+00
Nuclear QMom                               R   N=           4
  0.00000000E+00  0.00000000E+00  0.00000000E+00  0.00000000E+00
Nuclear GFac                               R   N=           4
  0.00000000E+00  0.00000000E+00  2.79284600E+00  2.79284600E+00
MicOpt                                     I   N=           4
          -1          -1          -1          -1
Number of residues                         I                0
Number of secondary structures             I                0
SymInf integers                            I   N=          26
           2           4           1           1           1          -1
          -1           1          -1           1           1           1
          -1           1           0           0           0           0
           0           0           0           0           0           0
           0           0
RotTr to input orientation                 R   N=          12
 -1.83697020E-16 -3.34896922E-16  1.00000000E+00 -4.31394299E-16  1.00000000E+00
  3.34896922E-16 -1.00000000E+00 -4.31394299E-16 -1.83697020E-16  1.40175160E-01
  0.00000000E+00 -1.35643082E-17
Number of contracted shells                I               12
Number of primitive shells                 I               30
Pure/Cartesian d shells                    I                1
Pure/Cartesian f shells                    I                0
Highest angular momentum                   I                2
Largest degree of contraction              I                6
Shell types                                I   N=          12
           0          -1          -1           2           0          -1
          -1           2           0           0           0           0
Number of primitives per shell             I   N=          12
           6           3           1           1           6           3
           1           1           3           1           3           1
Shell to atom map                          I   N=          12
           1           1           1           1           2           2
           2           2           3           3           4           4
Primitive exponents                        R   N=          30
  5.48467166E+03  8.25234946E+02  1.88046958E+02  5.29645000E+01  1.68975704E+01
  5.79963534E+00  1.55396162E+01  3.59993359E+00  1.01376175E+00  2.70005823E-01
  8.00000000E-01  3.04752488E+03  4.57369518E+02  1.03948685E+02  2.92101553E+01
  9.28666296E+00  3.16392696E+00  7.86827235E+00  1.88128854E+00  5.44249258E-01
  1.68714478E-01  8.00000000E-01  1.87311370E+01  2.82539436E+00  6.40121692E-01
  1.61277759E-01  1.87311370E+01  2.82539436E+00  6.40121692E-01  1.61277759E-01
Contraction coefficients                   R   N=          30
  1.83107443E-03  1.39501722E-02  6.84450781E-02  2.32714336E-01  4.70192898E-01
  3.58520853E-01 -1.10777550E-01 -1.48026263E-01  1.13076702E+00  1.00000000E+00
  1.00000000E+00  1.83473713E-03  1.40373228E-02  6.88426223E-02  2.32184443E-01
  4.67941348E-01  3.62311985E-01 -1.19332420E-01 -1.60854152E-01  1.14345644E+00
  1.00000000E+00  1.00000000E+00  3.34946043E-02  2.34726953E-01  8.13757326E-01
  1.00000000E+00  3.34946043E-02  2.34726953E-01  8.13757326E-01  1.00000000E+00
P(S=P) Contraction coefficients            R   N=          30
  0.00000000E+00  0.00000000E+00  0.00000000E+00  0.00000000E+00  0.00000000E+00
  0.00000000E+00  7.08742682E-02  3.39752839E-01  7.27158577E-01  1.00000000E+00
  0.00000000E+00  0.00000000E+00  0.00000000E+00  0.00000000E+00  0.00000000E+00
  0.00000000E+00  0.00000000E+00  6.89990666E-02  3.16423961E-01  7.44308291E-01
  1.00000000E+00  0.00000000E+00  0.00000000E+00  0.00000000E+00  0.00000000E+00
  0.00000000E+00  0.00000000E+00  0.00000000E+00  0.00000000E+00  0.00000000E+00
Coordinates of each shell                  R   N=          36
  0.00000000E+00  3.15649025E-32  1.28042456E+00  0.00000000E+00  3.15649025E-32
  1.28042456E+00  0.00000000E+00  3.15649025E-32  1.28042456E+00  0.00000000E+00
  3.15649025E-32  1.28042456E+00  0.00000000E+00 -2.46392921E-32 -9.99488431E-01
  0.00000000E+00 -2.46392921E-32 -9.99488431E-01  0.00000000E+00 -2.46392921E-32
 -9.99488431E-01  0.00000000E+00 -2.46392921E-32 -9.99488431E-01  0.00000000E+00
  1.77217571E+00 -2.12323297E+00  0.00000000E+00  1.77217571E+00 -2.12323297E+00
 -2.17028931E-16 -1.77217571E+00 -2.12323297E+00 -2.17028931E-16 -1.77217571E+00
 -2.12323297E+00
Constraint Structure                       R   N=          12
  2.48774485E-16  5.52367858E-16  1.28042456E+00 -1.70038738E-16 -4.31173611E-16
 -9.99488431E-01 -9.69963452E-16  1.77217571E+00 -2.12323297E+00  2.17028931E-16
 -1.77217571E+00 -2.12323297E+00
Constraint Force Constants                 R   N=          12
  0.00000000E+00  0.00000000E+00  0.00000000E+00  0.00000000E+00  0.00000000E+00
  0.00000000E+00  0.00000000E+00  0.00000000E+00  0.00000000E+00  0.00000000E+00
  0.00000000E+00  0.00000000E+00
Num ILSW                                   I              100
ILSW                                       I   N=         100
           0           1           0           1           2           0
           0           0           0           0        4002          -1
           5           0           0           0           2          -1
           0           0           0           0           1           0
           1           0           0           0           0           0
           0           0      100000           0          -1           0
           0           0           0           0           0           0
           0           0           0           1           0           0
           0 -2000000000           1           0           0           0
           0           0        2004          68           0           0
           0           0           5           0           0           0
           0           0           0           0           0           1
           0           0           0           0           0           0
           0           0           0           0           0           0
           0           0           0           0           0           0
           0           0           1           0           0           0
           0           0           0           0
Num RLSW                                   I               68
RLSW                                       R   N=          68
  8.00000000E-01  7.20000000E-01  1.00000000E+00  8.10000000E-01  2.00000000E-01
  0.00000000E+00  0.00000000E+00  1.00000000E+00  0.00000000E+00  0.00000000E+00
  0.00000000E+00  0.00000000E+00  1.00000000E+00  0.00000000E+00  0.00000000E+00
  0.00000000E+00  0.00000000E+00  1.00000000E+00  0.00000000E+00  0.00000000E+00
  0.00000000E+00  0.00000000E+00  1.00000000E+00  0.00000000E+00  0.00000000E+00
  0.00000000E+00  0.00000000E+00  1.00000000E+00  0.00000000E+00  0.00000000E+00
  0.00000000E+00  0.00000000E+00  1.00000000E+00  0.00000000E+00  0.00000000E+00
  0.00000000E+00  0.00000000E+00  0.00000000E+00  1.00000000E+00  1.00000000E+00
  0.00000000E+00  1.00000000E+00  0.00000000E+00  0.00000000E+00  0.00000000E+00
  0.00000000E+00  0.00000000E+00  0.00000000E+00  0.00000000E+00  0.00000000E+00
  0.00000000E+00  0.00000000E+00  1.00000000E+00  1.00000000E+00  1.00000000E+00
  1.00000000E+00  1.00000000E+00  1.00000000E+00  0.00000000E+00  0.00000000E+00
  0.00000000E+00  0.00000000E+00  0.00000000E+00  0.00000000E+00  0.00000000E+00
  0.00000000E+00  2.00000000E-10  1.00000000E-02
MxBond                                     I                3
NBond                                      I   N=           4
           1           3           1           1
IBond                                      I   N=          12
           2           0           0           1           3           4
           2           0           0           2           0           0
RBond                                      R   N=          12
  2.00000000E+00  0.00000000E+00  0.00000000E+00  2.00000000E+00  1.00000000E+00
  1.00000000E+00  1.00000000E+00  0.00000000E+00  0.00000000E+00  1.00000000E+00
  0.00000000E+00  0.00000000E+00
Virial Ratio                               R      2.008950078381484E+00
SCF Energy                                 R     -1.145004727608784E+02
Total Energy                               R     -1.145004727608784E+02
RMS Force                                  R      5.041776300948115E-07
RMS Density                                R      6.923488634328641E-09
NImag                                      I                0
Zero-point Energy                          R      2.682674993145229E-02
Job Status                                 I                1
Nuclear derivative order                   I                3
Energy with zero-point                     R     -1.144736460109469E+02
Thermal Energy                             R     -1.144707795263161E+02
Thermal Enthalpy                           R     -1.144698353415025E+02
Thermal Free Energy                        R     -1.144946549231139E+02
External E-field                           R   N=         105
  0.00000000E+00  0.00000000E+00  0.00000000E+00  0.00000000E+00  0.00000000E+00
  0.00000000E+00  0.00000000E+00  0.00000000E+00  0.00000000E+00  0.00000000E+00
  0.00000000E+00  0.00000000E+00  0.00000000E+00  0.00000000E+00  0.00000000E+00
  0.00000000E+00  0.00000000E+00  0.00000000E+00  0.00000000E+00  0.00000000E+00
  0.00000000E+00  0.00000000E+00  0.00000000E+00  0.00000000E+00  0.00000000E+00
  0.00000000E+00  0.00000000E+00  0.00000000E+00  0.00000000E+00  0.00000000E+00
  0.00000000E+00  0.00000000E+00  0.00000000E+00  0.00000000E+00  0.00000000E+00
  0.00000000E+00  0.00000000E+00  0.00000000E+00  0.00000000E+00  0.00000000E+00
  0.00000000E+00  0.00000000E+00  0.00000000E+00  0.00000000E+00  0.00000000E+00
  0.00000000E+00  0.00000000E+00  0.00000000E+00  0.00000000E+00  0.00000000E+00
  0.00000000E+00  0.00000000E+00  0.00000000E+00  0.00000000E+00  0.00000000E+00
  0.00000000E+00  0.00000000E+00  0.00000000E+00  0.00000000E+00  0.00000000E+00
  0.00000000E+00  0.00000000E+00  0.00000000E+00  0.00000000E+00  0.00000000E+00
  0.00000000E+00  0.00000000E+00  0.00000000E+00  0.00000000E+00  0.00000000E+00
  0.00000000E+00  0.00000000E+00  0.00000000E+00  0.00000000E+00  0.00000000E+00
  0.00000000E+00  0.00000000E+00  0.00000000E+00  0.00000000E+00  0.00000000E+00
  0.00000000E+00  0.00000000E+00  0.00000000E+00  0.00000000E+00  0.00000000E+00
  0.00000000E+00  0.00000000E+00  0.00000000E+00  0.00000000E+00  0.00000000E+00
  0.00000000E+00  0.00000000E+00  0.00000000E+00  0.00000000E+00  0.00000000E+00
  0.00000000E+00  0.00000000E+00  0.00000000E+00  0.00000000E+00  0.00000000E+00
  0.00000000E+00  0.00000000E+00  0.00000000E+00  0.00000000E+00  0.00000000E+00
IOpCl                                      I                0
IROHF                                      I                0
Alpha Orbital Energies                     R   N=          34
 -1.91697703E+01 -1.02890754E+01 -1.06086991E+00 -6.37593618E-01 -4.95313335E-01
 -4.49555493E-01 -3.99209753E-01 -2.68495194E-01 -4.21125819E-02  1.01211138E-01
  1.82057523E-01  2.18750528E-01  5.06577519E-01  6.22843837E-01  6.27529379E-01
  6.94008603E-01  8.13479501E-01  8.37381828E-01  8.90831010E-01  9.60090005E-01
  1.05915200E+00  1.37729748E+00  1.50570101E+00  1.51010581E+00  1.68163296E+00
  1.84996088E+00  1.93139229E+00  2.12625243E+00  2.27913184E+00  2.54106161E+00
  2.65698900E+00  2.91079440E+00  3.68306051E+00  4.05555443E+00
Alpha MO coefficients                      R   N=        1156
  9.92820946E-01  2.59536042E-02  0.00000000E+00  0.00000000E+00 -1.22744560E-03
  1.22093437E-02  0.00000000E+00  0.00000000E+00 -1.18226201E-03 -7.95689495E-03
 -7.91580247E-03 -7.41419676E-03  0.00000000E+00  0.00000000E+00  0.00000000E+00
  3.10791016E-05  5.58895632E-04  0.00000000E+00  0.00000000E+00 -7.17278899E-05
 -2.59312664E-03  0.00000000E+00  0.00000000E+00 -1.96749239E-03  2.81981353E-06
 -2.13943344E-05 -8.52687378E-04  0.00000000E+00  0.00000000E+00  0.00000000E+00
  6.00003722E-05 -1.84558671E-04  6.00003722E-05 -1.84558671E-04 -2.19566177E-04
  1.46252048E-04  0.00000000E+00  0.00000000E+00  4.18591108E-05 -1.41413140E-03
  0.00000000E+00  0.00000000E+00  1.62778454E-03  2.09212039E-04  8.06222570E-05
 -4.24456936E-04  0.00000000E+00  0.00000000E+00  0.00000000E+00  9.92747229E-01
  4.86643774E-02  0.00000000E+00  0.00000000E+00  9.64306457E-04 -7.73509490E-03
  0.00000000E+00  0.00000000E+00  1.72917973E-03 -9.91863060E-03 -9.64836877E-03
 -8.61036484E-03  0.00000000E+00  0.00000000E+00  0.00000000E+00 -3.86651735E-04
  2.14659096E-03 -3.86651735E-04  2.14659096E-03 -1.96287976E-01  4.35612811E-01
  0.00000000E+00  0.00000000E+00 -1.66050368E-01  3.70167579E-01  0.00000000E+00
  0.00000000E+00 -4.59747988E-02 -3.12385627E-03 -8.67068020E-03  1.15708200E-02
  0.00000000E+00  0.00000000E+00  0.00000000E+00 -1.16577167E-01  2.26115359E-01
  0.00000000E+00  0.00000000E+00  1.88678688E-01  9.26323437E-02  0.00000000E+00
  0.00000000E+00 -1.43601212E-02 -1.97781100E-02 -1.71659118E-02  2.62570151E-02
  0.00000000E+00  0.00000000E+00  0.00000000E+00  2.74815217E-02 -8.44480709E-03
  2.74815217E-02 -8.44480709E-03  8.71710485E-02 -1.98954133E-01  0.00000000E+00
  0.00000000E+00 -1.01300012E-01 -2.50644772E-01  0.00000000E+00  0.00000000E+00
 -5.52805542E-02 -1.08046417E-03  9.99553310E-04  1.35916266E-02  0.00000000E+00
  0.00000000E+00  0.00000000E+00 -1.63876986E-01  3.43017980E-01  0.00000000E+00
  0.00000000E+00 -2.22527578E-01  3.27519185E-01  0.00000000E+00  0.00000000E+00
 -8.77758665E-02 -1.25341905E-02  1.72201973E-02 -1.37061682E-02  0.00000000E+00
  0.00000000E+00  0.00000000E+00  1.80074620E-01  6.78715699E-02  1.80074620E-01
  6.78715699E-02  0.00000000E+00  0.00000000E+00  0.00000000E+00  2.86643012E-01
  0.00000000E+00  0.00000000E+00  0.00000000E+00  1.50729897E-01  0.00000000E+00
  0.00000000E+00  0.00000000E+00  0.00000000E+00  0.00000000E+00  0.00000000E+00
 -2.28026315E-02  0.00000000E+00  0.00000000E+00  0.00000000E+00  4.44996344E-01
  0.00000000E+00  0.00000000E+00  0.00000000E+00  1.61672716E-01  0.00000000E+00
  0.00000000E+00  0.00000000E+00  0.00000000E+00  0.00000000E+00  0.00000000E+00
 -8.26776639E-03  1.94739394E-01  1.35255200E-01 -1.94739394E-01 -1.35255200E-01
 -8.66989871E-02  1.71237407E-01  0.00000000E+00  0.00000000E+00  5.22945284E-01
  4.11493857E-01  0.00000000E+00  0.00000000E+00  2.58814163E-01 -1.47288648E-03
 -3.68295296E-03 -3.80063670E-02  0.00000000E+00  0.00000000E+00  0.00000000E+00
  2.96882213E-02 -8.70552044E-02  0.00000000E+00  0.00000000E+00 -3.61577129E-01
 -2.57021036E-02  0.00000000E+00  0.00000000E+00 -8.29699726E-02  6.54907571E-03
  1.91605249E-02 -5.60522350E-03  0.00000000E+00  0.00000000E+00  0.00000000E+00
  8.06584737E-02  8.03807167E-02  8.06584737E-02  8.03807167E-02  0.00000000E+00
  0.00000000E+00  5.09238306E-01  0.00000000E+00  0.00000000E+00  0.00000000E+00
  3.13760915E-01  0.00000000E+00  0.00000000E+00  0.00000000E+00  0.00000000E+00
  0.00000000E+00  0.00000000E+00 -3.33829500E-02  0.00000000E+00  0.00000000E+00
  0.00000000E+00  3.59878699E-01  0.00000000E+00  0.00000000E+00  0.00000000E+00
  2.08648777E-01  0.00000000E+00  0.00000000E+00  0.00000000E+00  0.00000000E+00
  0.00000000E+00  0.00000000E+00  2.77906826E-02  0.00000000E+00  0.00000000E+00
  0.00000000E+00  0.00000000E+00  0.00000000E+00  0.00000000E+00  0.00000000E+00
  0.00000000E+00  5.84660682E-01  0.00000000E+00  0.00000000E+00  0.00000000E+00
  4.18089624E-01  0.00000000E+00  0.00000000E+00  0.00000000E+00  0.00000000E+00
  0.00000000E+00  0.00000000E+00 -1.83772288E-02  0.00000000E+00  0.00000000E+00
  0.00000000E+00 -1.49776575E-01  0.00000000E+00  0.00000000E+00  0.00000000E+00
  3.21070652E-02  0.00000000E+00  0.00000000E+00  0.00000000E+00  0.00000000E+00
  0.00000000E+00  0.00000000E+00  5.35104567E-02 -1.83065349E-01 -2.84235498E-01
  1.83065349E-01  2.84235498E-01  0.00000000E+00  0.00000000E+00 -4.41825435E-01
  0.00000000E+00  0.00000000E+00  0.00000000E+00 -4.64659572E-01  0.00000000E+00
  0.00000000E+00  0.00000000E+00  0.00000000E+00  0.00000000E+00  0.00000000E+00
  7.38050000E-04  0.00000000E+00  0.00000000E+00  0.00000000E+00  4.96689797E-01
  0.00000000E+00  0.00000000E+00  0.00000000E+00  5.83659991E-01  0.00000000E+00
  0.00000000E+00  0.00000000E+00  0.00000000E+00  0.00000000E+00  0.00000000E+00
 -3.19700776E-02  0.00000000E+00  0.00000000E+00  0.00000000E+00  0.00000000E+00
  0.00000000E+00  6.11718237E-03 -1.95318153E-02  0.00000000E+00  0.00000000E+00
  8.23382702E-02  2.20544293E-03  0.00000000E+00  0.00000000E+00  8.61425233E-02
  5.00190225E-03 -7.52918497E-03  2.42876418E-03  0.00000000E+00  0.00000000E+00
  0.00000000E+00 -1.32142793E-01  2.22514774E-01  0.00000000E+00  0.00000000E+00
 -2.48049748E-01  1.84938617E+00  0.00000000E+00  0.00000000E+00 -6.20382028E-01
  3.93050446E-04 -1.43983620E-02 -1.07537261E-02  0.00000000E+00  0.00000000E+00
  0.00000000E+00 -9.47529355E-02 -1.35067289E+00 -9.47529355E-02 -1.35067289E+00
  0.00000000E+00  0.00000000E+00  0.00000000E+00  1.79579271E-01  0.00000000E+00
  0.00000000E+00  0.00000000E+00  3.78926789E-01  0.00000000E+00  0.00000000E+00
  0.00000000E+00  0.00000000E+00  0.00000000E+00  0.00000000E+00  1.03451353E-02
  0.00000000E+00  0.00000000E+00  0.00000000E+00 -5.42306106E-01  0.00000000E+00
  0.00000000E+00  0.00000000E+00 -1.33700306E+00  0.00000000E+00  0.00000000E+00
  0.00000000E+00  0.00000000E+00  0.00000000E+00  0.00000000E+00  4.28078394E-03
  1.87531637E-02  1.55969321E+00 -1.87531637E-02 -1.55969321E+00 -1.12826810E-01
  8.71184065E-02  0.00000000E+00  0.00000000E+00 -1.90383943E-01  2.20062503E+00
  0.00000000E+00  0.00000000E+00 -8.98524698E-01 -7.60012525E-02 -7.84988482E-02
 -4.83322307E-03  0.00000000E+00  0.00000000E+00  0.00000000E+00  4.83389446E-02
 -7.64369360E-03  0.00000000E+00  0.00000000E+00 -1.24766584E-01 -1.59349981E+00
  0.00000000E+00  0.00000000E+00 -1.99343967E+00 -1.05482648E-02 -2.17686056E-02
  1.67905125E-02  0.00000000E+00  0.00000000E+00  0.00000000E+00  1.28072083E-02
 -2.12756647E-01  1.28072083E-02 -2.12756647E-01  0.00000000E+00  0.00000000E+00
 -3.89304629E-02  0.00000000E+00  0.00000000E+00  0.00000000E+00 -1.22120668E-01
  0.00000000E+00  0.00000000E+00  0.00000000E+00  0.00000000E+00  0.00000000E+00
  0.00000000E+00  7.31877114E-02  0.00000000E+00  0.00000000E+00  0.00000000E+00
 -1.02713550E+00  0.00000000E+00  0.00000000E+00  0.00000000E+00  1.16769713E+00
  0.00000000E+00  0.00000000E+00  0.00000000E+00  0.00000000E+00  0.00000000E+00
  0.00000000E+00 -1.89720667E-02  0.00000000E+00  0.00000000E+00  0.00000000E+00
  0.00000000E+00  0.00000000E+00  2.82226086E-02 -2.97477613E-01  0.00000000E+00
  0.00000000E+00  1.74341661E-01  4.05670347E-01  0.00000000E+00  0.00000000E+00
  2.08703979E-01 -6.03449418E-02 -9.99303187E-02  9.88631193E-03  0.00000000E+00
  0.00000000E+00  0.00000000E+00 -8.01804166E-02 -4.34218495E-01  0.00000000E+00
  0.00000000E+00  6.32807452E-01  1.51410265E+00  0.00000000E+00  0.00000000E+00
 -1.07730883E+00  9.51626861E-02 -1.59975735E-01 -1.27293108E-01  0.00000000E+00
  0.00000000E+00  0.00000000E+00 -5.53500983E-01 -2.53847376E-01 -5.53500983E-01
 -2.53847376E-01  0.00000000E+00  0.00000000E+00  0.00000000E+00 -3.70187161E-01
  0.00000000E+00  0.00000000E+00  0.00000000E+00 -2.05156980E-01  0.00000000E+00
  0.00000000E+00  0.00000000E+00  0.00000000E+00  0.00000000E+00  0.00000000E+00
  3.02201620E-02  0.00000000E+00  0.00000000E+00  0.00000000E+00 -7.52073631E-01
  0.00000000E+00  0.00000000E+00  0.00000000E+00  2.27529551E+00  0.00000000E+00
  0.00000000E+00  0.00000000E+00  0.00000000E+00  0.00000000E+00  0.00000000E+00
  5.74923946E-02 -3.13872194E-01 -9.33717574E-01  3.13872194E-01  9.33717574E-01
 -4.15479286E-02  3.66571656E-02  0.00000000E+00  0.00000000E+00 -4.02876875E-01
 -2.52471441E-02  0.00000000E+00  0.00000000E+00 -1.89041958E-01  4.95599774E-02
  2.34352088E-02 -2.17892716E-01  0.00000000E+00  0.00000000E+00  0.00000000E+00
  2.74594591E-02 -8.95022972E-01  0.00000000E+00  0.00000000E+00 -7.85280109E-01
  9.70295703E-01  0.00000000E+00  0.00000000E+00  3.94012868E-01 -3.34306752E-02
 -1.93466313E-01  1.23698529E-01  0.00000000E+00  0.00000000E+00  0.00000000E+00
 -3.32272976E-01  6.27801196E-02 -3.32272976E-01  6.27801196E-02  0.00000000E+00
  0.00000000E+00  0.00000000E+00 -1.90659265E-01  0.00000000E+00  0.00000000E+00
  0.00000000E+00  1.65652243E-01  0.00000000E+00  0.00000000E+00  0.00000000E+00
  0.00000000E+00  0.00000000E+00  0.00000000E+00 -1.15914005E-01  0.00000000E+00
  0.00000000E+00  0.00000000E+00  7.21343550E-01  0.00000000E+00  0.00000000E+00
  0.00000000E+00 -1.15992618E+00  0.00000000E+00  0.00000000E+00  0.00000000E+00
  0.00000000E+00  0.00000000E+00  0.00000000E+00  1.90139781E-01 -7.42008624E-01
  1.37022857E+00  7.42008624E-01 -1.37022857E+00  3.19385531E-03 -4.57909183E-01
  0.00000000E+00  0.00000000E+00 -6.49968247E-01  4.17919970E-01  0.00000000E+00
  0.00000000E+00  1.17316848E+00 -1.53482186E-01 -1.60577433E-01 -2.54780252E-01
  0.00000000E+00  0.00000000E+00  0.00000000E+00  6.24979777E-02 -3.23709859E-01
  0.00000000E+00  0.00000000E+00  4.24531108E-01  1.52096520E+00  0.00000000E+00
  0.00000000E+00 -3.26770422E-01 -1.24687869E-01 -2.27209467E-02  2.11369795E-01
  0.00000000E+00  0.00000000E+00  0.00000000E+00  3.16612666E-01 -6.99246715E-01
  3.16612666E-01 -6.99246715E-01  4.38115449E-03  3.36977893E-01  0.00000000E+00
  0.00000000E+00  2.50615803E-01 -8.10602067E-01  0.00000000E+00  0.00000000E+00
 -3.66637511E-01  1.56637193E-01  1.20558574E-01  1.09683619E-01  0.00000000E+00
  0.00000000E+00  0.00000000E+00  3.69241323E-03 -1.46701327E+00  0.00000000E+00
  0.00000000E+00  3.32781558E-01  2.90113806E+00  0.00000000E+00  0.00000000E+00
 -5.69608347E-01 -8.61314749E-02  3.22284332E-02 -1.80090764E-01  0.00000000E+00
  0.00000000E+00  0.00000000E+00  4.55275569E-01 -1.26073009E+00  4.55275569E-01
 -1.26073009E+00  0.00000000E+00  0.00000000E+00 -9.48679963E-01  0.00000000E+00
  0.00000000E+00  0.00000000E+00  1.25501681E+00  0.00000000E+00  0.00000000E+00
  0.00000000E+00  0.00000000E+00  0.00000000E+00  0.00000000E+00  3.16187045E-02
  0.00000000E+00  0.00000000E+00  0.00000000E+00  6.44274234E-02  0.00000000E+00
  0.00000000E+00  0.00000000E+00 -4.82674690E-01  0.00000000E+00  0.00000000E+00
  0.00000000E+00  0.00000000E+00  0.00000000E+00  0.00000000E+00 -2.89827532E-02
  0.00000000E+00  0.00000000E+00  0.00000000E+00  0.00000000E+00  0.00000000E+00
  0.00000000E+00  0.00000000E+00  0.00000000E+00  8.37826734E-01  0.00000000E+00
  0.00000000E+00  0.00000000E+00 -1.51616286E+00  0.00000000E+00  0.00000000E+00
  0.00000000E+00  0.00000000E+00  0.00000000E+00  0.00000000E+00 -1.12356266E-01
  0.00000000E+00  0.00000000E+00  0.00000000E+00 -2.70249883E-01  0.00000000E+00
  0.00000000E+00  0.00000000E+00  1.64101382E+00  0.00000000E+00  0.00000000E+00
  0.00000000E+00  0.00000000E+00  0.00000000E+00  0.00000000E+00  1.74183598E-01
 -1.65586349E-01 -6.66424761E-01  1.65586349E-01  6.66424761E-01 -9.62479797E-02
 -1.71699918E+00  0.00000000E+00  0.00000000E+00  3.06180193E-01  5.19647820E+00
  0.00000000E+00  0.00000000E+00 -1.81336345E+00 -4.02074417E-01 -3.15629322E-01
 -5.90137971E-01  0.00000000E+00  0.00000000E+00  0.00000000E+00 -2.89468947E-02
 -3.92196841E-02  0.00000000E+00  0.00000000E+00 -1.67245186E-01 -2.72551725E+00
  0.00000000E+00  0.00000000E+00 -1.73689679E+00 -3.69576863E-02  2.31485558E-01
 -1.91227563E-01  0.00000000E+00  0.00000000E+00  0.00000000E+00  8.89188677E-02
 -4.87598594E-02  8.89188677E-02 -4.87598594E-02  0.00000000E+00  0.00000000E+00
  0.00000000E+00  0.00000000E+00  0.00000000E+00  0.00000000E+00  0.00000000E+00
  0.00000000E+00  0.00000000E+00  0.00000000E+00  0.00000000E+00  0.00000000E+00
  4.97895338E-01  0.00000000E+00  0.00000000E+00  0.00000000E+00  0.00000000E+00
  0.00000000E+00  0.00000000E+00  0.00000000E+00  0.00000000E+00  0.00000000E+00
  0.00000000E+00  0.00000000E+00  0.00000000E+00  0.00000000E+00  0.00000000E+00
  8.07216661E-01  0.00000000E+00  0.00000000E+00  0.00000000E+00  0.00000000E+00
  0.00000000E+00  0.00000000E+00  0.00000000E+00  0.00000000E+00 -1.33831304E-01
  0.00000000E+00  0.00000000E+00  0.00000000E+00 -1.22876420E-01  0.00000000E+00
  0.00000000E+00  0.00000000E+00  0.00000000E+00  0.00000000E+00  0.00000000E+00
 -5.42371051E-01  0.00000000E+00  0.00000000E+00  0.00000000E+00 -2.13527596E-01
  0.00000000E+00  0.00000000E+00  0.00000000E+00  1.38534570E-01  0.00000000E+00
  0.00000000E+00  0.00000000E+00  0.00000000E+00  0.00000000E+00  0.00000000E+00
  6.70887237E-01  0.00000000E+00  0.00000000E+00  0.00000000E+00  0.00000000E+00
  0.00000000E+00  8.20668976E-03  2.11249841E-01  0.00000000E+00  0.00000000E+00
 -1.88625940E-02 -6.38383015E-01  0.00000000E+00  0.00000000E+00  2.38936830E-01
 -6.87161613E-01  7.16458901E-01  8.06344109E-02  0.00000000E+00  0.00000000E+00
  0.00000000E+00 -2.51103978E-02 -2.03176797E-01  0.00000000E+00  0.00000000E+00
  2.28139165E-02  1.02394654E+00  0.00000000E+00  0.00000000E+00 -3.11820729E-02
 -4.76954718E-01  3.95288893E-01  4.64428779E-02  0.00000000E+00  0.00000000E+00
  0.00000000E+00 -2.85214479E-01 -1.67728795E-01 -2.85214479E-01 -1.67728795E-01
  0.00000000E+00  0.00000000E+00  0.00000000E+00  2.77098881E-01  0.00000000E+00
  0.00000000E+00  0.00000000E+00 -4.80496304E-01  0.00000000E+00  0.00000000E+00
  0.00000000E+00  0.00000000E+00  0.00000000E+00  0.00000000E+00  6.93652101E-01
  0.00000000E+00  0.00000000E+00  0.00000000E+00  2.81091233E-01  0.00000000E+00
  0.00000000E+00  0.00000000E+00  8.31099360E-01  0.00000000E+00  0.00000000E+00
  0.00000000E+00  0.00000000E+00  0.00000000E+00  0.00000000E+00 -5.38707631E-01
 -5.80109928E-01 -1.30248643E-01  5.80109928E-01  1.30248643E-01  0.00000000E+00
  0.00000000E+00  0.00000000E+00  0.00000000E+00  0.00000000E+00  0.00000000E+00
  0.00000000E+00  0.00000000E+00  0.00000000E+00  0.00000000E+00  0.00000000E+00
  0.00000000E+00  8.76345250E-01  0.00000000E+00  0.00000000E+00  0.00000000E+00
  0.00000000E+00  0.00000000E+00  0.00000000E+00  0.00000000E+00  0.00000000E+00
  0.00000000E+00  0.00000000E+00  0.00000000E+00  0.00000000E+00  0.00000000E+00
  0.00000000E+00 -6.03557808E-01  0.00000000E+00  0.00000000E+00  0.00000000E+00
  0.00000000E+00  0.00000000E+00  0.00000000E+00 -1.03297122E-03 -1.10680650E-02
  0.00000000E+00  0.00000000E+00 -1.49062354E-01  3.35704694E-01  0.00000000E+00
  0.00000000E+00 -6.62480417E-02 -4.20120377E-01  5.84714345E-01 -8.46307844E-02
  0.00000000E+00  0.00000000E+00  0.00000000E+00  5.94484817E-02  1.04474285E-01
  0.00000000E+00  0.00000000E+00  1.04617782E-02 -8.55714016E-01  0.00000000E+00
  0.00000000E+00 -6.51942660E-03  9.87828171E-01 -5.46000792E-01 -2.49960045E-01
  0.00000000E+00  0.00000000E+00  0.00000000E+00  4.01667976E-01  5.18870340E-02
  4.01667976E-01  5.18870340E-02 -5.33176468E-04 -5.60121387E-01  0.00000000E+00
  0.00000000E+00  6.53225877E-01  2.13597308E-01  0.00000000E+00  0.00000000E+00
 -3.25598375E-01 -3.17248872E-01 -6.35009977E-02 -1.74023507E-02  0.00000000E+00
  0.00000000E+00  0.00000000E+00 -6.00268481E-02  3.04977125E-02  0.00000000E+00
  0.00000000E+00  1.57103537E-01  9.22789114E-02  0.00000000E+00  0.00000000E+00
  4.14039364E-01 -3.44622758E-01 -8.82814992E-01  9.96598881E-01  0.00000000E+00
  0.00000000E+00  0.00000000E+00  2.44833899E-01 -2.19800066E-02  2.44833899E-01
 -2.19800066E-02  0.00000000E+00  0.00000000E+00 -2.22553236E-03  0.00000000E+00
  0.00000000E+00  0.00000000E+00 -4.86427307E-01  0.00000000E+00  0.00000000E+00
  0.00000000E+00  0.00000000E+00  0.00000000E+00  0.00000000E+00  1.04208386E+00
  0.00000000E+00  0.00000000E+00  0.00000000E+00  2.71391846E-01  0.00000000E+00
  0.00000000E+00  0.00000000E+00  2.85644644E-01  0.00000000E+00  0.00000000E+00
  0.00000000E+00  0.00000000E+00  0.00000000E+00  0.00000000E+00  9.76894793E-01
  0.00000000E+00  0.00000000E+00  0.00000000E+00  0.00000000E+00  0.00000000E+00
  0.00000000E+00  0.00000000E+00  0.00000000E+00 -4.69090517E-02  0.00000000E+00
  0.00000000E+00  0.00000000E+00 -4.16285035E-01  0.00000000E+00  0.00000000E+00
  0.00000000E+00  0.00000000E+00  0.00000000E+00  0.00000000E+00  9.57682119E-01
  0.00000000E+00  0.00000000E+00  0.00000000E+00  1.28408301E-01  0.00000000E+00
  0.00000000E+00  0.00000000E+00  3.03213704E-01  0.00000000E+00  0.00000000E+00
  0.00000000E+00  0.00000000E+00  0.00000000E+00  0.00000000E+00  1.12607856E+00
  3.62214527E-01 -3.03440358E-01 -3.62214527E-01  3.03440358E-01 -4.67625154E-02
 -6.82631725E-01  0.00000000E+00  0.00000000E+00 -3.02053876E-01  2.88286059E+00
  0.00000000E+00  0.00000000E+00 -1.78206675E+00 -7.00062145E-01 -6.80645850E-01
  1.52103970E+00  0.00000000E+00  0.00000000E+00  0.00000000E+00 -5.57534420E-02
 -1.31863270E+00  0.00000000E+00  0.00000000E+00 -1.35772947E+00 -1.38536803E+00
  0.00000000E+00  0.00000000E+00 -7.81577888E-01  3.53326816E-01  2.65405985E-01
 -7.52896823E-01  0.00000000E+00  0.00000000E+00  0.00000000E+00  6.29173422E-02
 -2.37317666E-02  6.29173422E-02 -2.37317666E-02 -5.13839511E-01 -9.13256274E-02
  0.00000000E+00  0.00000000E+00  2.56506944E-01  5.24964329E+00  0.00000000E+00
  0.00000000E+00 -1.06202336E+00 -1.77152999E+00 -1.75995799E+00 -1.53390623E+00
  0.00000000E+00  0.00000000E+00  0.00000000E+00  7.99925618E-03 -2.20440225E-01
  0.00000000E+00  0.00000000E+00  6.05426450E-02 -1.86089454E+00  0.00000000E+00
  0.00000000E+00 -1.03019135E+00  1.66188804E-01  7.48087835E-02  1.89535847E-01
  0.00000000E+00  0.00000000E+00  0.00000000E+00  7.95029852E-02 -1.51512364E-03
  7.95029852E-02 -1.51512364E-03 -3.56295907E-02  4.87632342E-02  0.00000000E+00
  0.00000000E+00 -2.58789989E-01  6.52503161E-01  0.00000000E+00  0.00000000E+00
 -4.61611243E-01 -1.88388483E-01 -1.45692491E-01  2.49014222E-01  0.00000000E+00
  0.00000000E+00  0.00000000E+00 -4.74901397E-01  2.91926922E+00  0.00000000E+00
  0.00000000E+00 -2.95096782E-01  1.11299198E+00  0.00000000E+00  0.00000000E+00
 -4.40551587E-01 -1.72047779E+00 -1.78128538E+00 -2.15254927E+00  0.00000000E+00
  0.00000000E+00  0.00000000E+00  1.85879549E-01 -4.58399386E-01  1.85879549E-01
 -4.58399386E-01
Orthonormal basis                          R   N=        1156
  1.65980275E-02  8.89759686E-02  2.32320403E-17  7.01220826E-05 -4.06871855E-02
  1.26499654E-01  2.57978404E-18  1.95511701E-04 -9.14396173E-02  7.61594015E-02
  7.69830056E-02  1.05153133E-01  1.01317959E-19  1.90454114E-19 -8.60447076E-05
  3.13309786E-02  1.49386645E-01 -1.97044887E-19  2.58675802E-04  3.28032043E-02
  1.63490204E-01 -5.18862687E-19  2.39548601E-04  3.69327999E-02  1.04241901E-01
  1.11816001E-01  1.29920640E-01  8.48745671E-19  1.34211338E-18 -1.68772567E-04
  5.63479321E-02  1.01238496E-01  5.49645355E-02  9.99081290E-02  3.94236690E-02
  1.73001827E-01 -1.17095604E-16 -1.73396544E-04  1.55972633E-02  1.74183386E-01
 -2.60483181E-17 -4.76342703E-04  8.11430854E-02  1.45156426E-01  1.43030240E-01
  1.28799453E-01 -3.04334248E-19  2.18593628E-18  1.76233159E-04 -2.21383811E-02
 -8.14026325E-02 -6.07129512E-18 -9.91665172E-04  1.54660918E-01 -6.83898991E-02
 -8.85960609E-18 -9.34848650E-04  2.30759189E-01 -6.76932350E-02 -8.91827571E-02
 -2.39835104E-02 -2.53590895E-18 -1.09686671E-17  2.78379353E-04 -1.05981997E-01
 -1.16712466E-01 -1.03850066E-01 -1.15673460E-01  8.64130065E-05  3.06837198E-04
 -8.59227118E-17  1.05083243E-01  3.84207698E-04  2.16901625E-04 -2.02833026E-16
  2.08490230E-01  7.88461281E-04  2.62284451E-04  3.03357000E-04  6.11717861E-05
 -8.29588869E-19  2.08638023E-17 -7.94111897E-02 -6.47256631E-05 -4.33584642E-04
 -1.13262384E-17  2.55344341E-01  2.71453912E-04 -8.81733462E-04 -9.07083488E-17
  3.35335814E-01  1.15292379E-03 -4.26864756E-04 -3.76442255E-04 -2.30080906E-04
 -5.00012121E-18 -5.99747532E-17 -5.55074467E-03  1.77965004E-01  1.62357051E-01
 -1.79216895E-01 -1.65739328E-01  2.73784919E-17 -3.64114649E-19  2.37214672E-01
  5.02554903E-16 -5.25445417E-17 -7.59087747E-18  3.56483456E-01 -2.10794798E-16
 -8.70250648E-17  3.06430809E-17 -2.50620593E-17 -4.44422418E-17  1.32823962E-04
 -1.64860120E-01 -2.21736869E-16  3.62207419E-17 -7.96075438E-18  2.99062629E-01
  1.34195088E-16 -4.59547646E-17  3.13652768E-18  3.51303999E-01 -1.17949704E-16
  8.91432103E-17  1.22464292E-16  2.97554512E-17 -1.81271318E-17 -1.30361027E-04
  1.61803144E-01 -2.27025771E-16  1.94909430E-16 -1.27937075E-16 -1.02114181E-16
 -5.82957936E-17  4.36107169E-02  1.28252073E-01 -4.14013990E-17  3.00666336E-04
  3.86396210E-01  1.34765947E-01  7.28124241E-17  4.58208674E-04  3.62554282E-01
  1.17337741E-01  1.27548212E-01  1.91894365E-02  2.55978374E-18 -5.51148576E-17
 -2.09346152E-04 -5.53601459E-02 -9.70962554E-02  6.48889176E-17  1.42237915E-03
 -2.91077503E-01  5.00504611E-02  7.03681493E-17  1.25547936E-04 -1.27736746E-01
 -9.12194360E-02 -1.56847733E-02 -7.75035184E-02  1.15793126E-17  3.13255550E-17
 -1.58596413E-05  1.47716861E-01  1.29092489E-01  1.48564299E-01  1.30244670E-01
 -1.10801204E-04 -2.67926610E-04  1.39271105E-17  3.15344271E-01 -7.69680364E-04
 -2.10949614E-04 -7.17726565E-17  3.00179662E-01 -7.78791978E-04 -1.90905925E-04
 -3.00090598E-05 -2.30578699E-04 -3.83366194E-19 -1.58071843E-17 -2.35679083E-01
 -1.00545767E-04 -2.12683321E-04  1.36650301E-19 -3.69865066E-03  1.36404986E-03
  5.57366690E-04  9.68363931E-19 -2.19197449E-02 -3.39540197E-04  1.60105373E-04
 -7.05316089E-04  1.36419523E-04  1.38278354E-17  3.84248514E-17  4.80573247E-01
 -2.12802416E-01 -8.19646119E-02  2.12958506E-01  8.52482713E-02 -1.57261774E-17
 -2.23820652E-17 -5.68990727E-02 -8.94349963E-16 -1.62036062E-16  1.03154439E-16
 -1.49630309E-01 -4.47953517E-16 -8.80051829E-17  3.65368810E-17  5.06543990E-17
 -4.58889862E-17  4.52369286E-04 -5.61477417E-01 -8.82219042E-16 -1.70729486E-18
  3.54334496E-17 -1.31882160E-01  4.91502308E-16 -1.20750169E-16 -1.66864283E-16
 -2.37732199E-01  1.22902634E-16  7.29497375E-17 -5.53845664E-17 -8.90829077E-18
 -9.17050667E-17 -4.84143369E-04  6.00915174E-01  3.59837790E-16  6.64849455E-17
  3.68545595E-18  9.59932145E-17  3.73249516E-17  1.72839384E-04  1.56341807E-04
 -1.80930723E-16  4.45248796E-01 -5.02108198E-04 -2.61140010E-05 -3.30499971E-16
  3.50859316E-01 -1.16565023E-04  5.55542317E-05 -1.57636263E-04  1.11646999E-04
  1.58623593E-16 -1.08008596E-15  6.15374884E-01 -4.51017287E-04 -3.83502785E-04
 -1.30745887E-16 -2.03346183E-01  7.20380779E-05  5.07585359E-05 -3.97321471E-16
 -1.44107799E-02 -1.18895680E-04 -4.36726575E-04 -5.42088111E-05 -1.08734463E-04
  4.27722896E-17  1.15017836E-15 -2.39701864E-01 -2.20845690E-02 -2.29186007E-02
  2.26770167E-02  2.37160444E-02  3.24667233E-16  5.40350727E-17  5.49745913E-01
  3.07120060E-16  1.23302613E-16  2.17149965E-17  3.10680948E-01 -1.72544083E-16
 -3.70314325E-17 -3.96819210E-17 -4.98517879E-17 -1.50234731E-16 -2.62385627E-04
  3.25671103E-01 -1.30297108E-16 -2.13935741E-16 -8.78912715E-17 -4.46181384E-01
  1.37817237E-16  2.71384453E-17 -7.40673954E-17 -2.60923769E-01 -2.51126349E-16
 -5.28181967E-18  2.17814604E-16  1.10238945E-16  1.20331739E-16 -1.87371044E-04
  2.32563557E-01 -6.92064736E-17  1.06538120E-16  1.26772216E-16 -7.18879213E-17
 -4.52374687E-17  1.82370909E-17 -3.25038852E-17  2.48942938E-14  2.22613327E-16
 -3.66776643E-17  1.78895315E-16  1.41224531E-14 -1.02170973E-16 -6.75104528E-17
 -6.06142610E-17  5.85253529E-18 -6.76018984E-17  6.66657602E-01  5.37110512E-04
 -3.70388088E-16  6.43544234E-17 -2.44011336E-16 -1.99915657E-14 -2.79479283E-16
  1.77820155E-18 -1.29385573E-16 -1.15208551E-14 -2.43563082E-17 -1.37097341E-17
 -3.72435881E-17  1.94646912E-16  1.45826372E-16  6.66657602E-01  5.37110512E-04
 -1.98091151E-16  1.32182913E-16  5.61852008E-17  8.47073584E-19 -1.10330751E-16
  4.99497750E-01  1.93027113E-01  2.68002005E-17 -7.13861218E-04 -4.08363115E-01
 -1.27790116E-02 -2.40069888E-16 -8.17716892E-05 -7.11297210E-02  4.27113861E-03
  5.34196507E-02 -1.55047844E-01 -8.74422837E-17 -5.82686884E-17 -6.62688442E-04
 -4.50608837E-01 -1.72441704E-01  1.74019582E-16  3.90640132E-03 -1.21186607E-02
 -3.96222040E-02  1.35332135E-16  5.58937936E-04 -1.21783318E-01 -2.99742120E-01
 -1.05750499E-01  2.07754555E-01 -4.06006499E-17 -1.57219708E-16 -2.55800131E-03
  1.37553769E-01  8.24872686E-02  1.39619354E-01  8.45863307E-02  7.43063457E-01
  8.07075899E-02 -1.38400660E-16  5.49384906E-04  1.38267912E-01 -8.81542664E-03
 -2.89862612E-17 -2.74060945E-05  5.03513234E-03 -1.23843368E-01 -1.67338603E-01
  2.23804025E-02  3.64070938E-17 -1.08193198E-16 -2.28812980E-05  5.73635995E-01
  8.69778825E-02  6.02454170E-17 -2.64960572E-03 -7.15483648E-02 -3.35249241E-03
 -5.44421848E-17 -2.95535566E-04 -2.47928461E-02  7.71904312E-02 -7.08908452E-02
  2.44955118E-03 -3.66805147E-17 -1.32320297E-17  1.55392013E-03 -8.53168625E-02
 -5.08183717E-02 -8.69255858E-02 -5.21933997E-02 -3.24077305E-01  9.24540356E-02
  1.29979476E-16 -1.33799087E-04 -3.21801136E-01  6.75429679E-03  1.76966751E-16
  3.24796267E-04  2.86973939E-02  1.92042629E-02  1.40803810E-01  5.49500486E-02
  7.29397650E-17  2.38598632E-16 -3.90964664E-04  6.48038338E-01 -1.67891458E-01
 -1.46607016E-16  4.89949271E-03 -2.21417680E-03 -3.42428513E-02 -1.51304173E-17
  1.40430229E-04 -1.32235893E-01 -5.07878956E-01 -1.81024252E-01  1.81845577E-01
 -2.33992600E-16  1.72371960E-16 -3.32263607E-03  1.33527691E-01  8.59923131E-02
  1.36426763E-01  8.91704158E-02  1.32960710E-16 -6.33178794E-17  1.17212121E-16
  3.24798443E-16  1.56614724E-16 -1.11686025E-16  9.67921737E-17 -2.34609469E-16
  5.91215779E-18 -2.53632891E-16  2.50735826E-16 -1.31072353E-16  7.55941601E-01
  6.09044553E-04 -1.98932032E-16 -1.94708491E-16  2.92823159E-16 -2.57937870E-16
 -5.86820634E-17  1.92994347E-16  1.59639595E-16 -1.20251674E-17 -1.26416138E-16
  1.87574228E-16 -2.69786806E-16  3.09831668E-16 -2.86193030E-16 -7.55941601E-01
 -6.09044553E-04 -2.27041541E-17  2.64521966E-16 -9.59346391E-17 -4.85926057E-18
 -1.23993388E-16  1.53976056E-01 -1.20125157E-01  3.77884765E-17 -6.59699224E-04
  1.22487992E-01  7.09039486E-03 -2.47189575E-17  7.56362645E-04 -1.52313502E-01
 -1.87838280E-01  2.34995714E-01 -1.65277335E-01 -5.75876450E-16  1.35800976E-16
  6.52216261E-04  9.21374037E-02 -1.23650602E-01 -2.31365903E-17  8.77063981E-03
  3.84645690E-01  2.50878980E-02  9.26032829E-17 -6.54644810E-04  2.28761288E-01
 -3.02871898E-01  5.47141740E-01 -5.09745514E-01  3.60408626E-16  6.00844484E-17
 -3.71905460E-03  2.27368106E-01  6.32482059E-02  2.32545541E-01  6.92934284E-02
  1.36845737E-03  6.82614399E-03  7.43240903E-17  1.48519354E-03  1.44950470E-01
 -6.74146497E-02  1.74331338E-16 -1.25042420E-05  2.62807427E-01 -4.95286593E-01
 -2.66718941E-01  7.08338499E-01 -6.56561789E-17 -8.72781421E-17 -1.61757909E-03
 -1.70276026E-01  9.72745204E-02  1.31388287E-18  2.11213077E-03  3.10254041E-01
 -1.20308283E-01 -2.05111217E-16 -9.34453243E-04 -1.48370332E-01 -2.30480776E-01
  1.52543628E-01  2.55711675E-01  6.50121244E-17  2.71669043E-16 -2.17842762E-03
  8.17759995E-02 -4.13817564E-02  8.23455038E-02 -3.83123805E-02 -2.43997193E-02
  3.35505403E-02 -1.01679587E-16  1.91155562E-03 -1.91803690E-02 -2.02440998E-03
  1.66000974E-17 -2.52636572E-03  6.05998872E-03 -5.50486204E-01  6.79870334E-01
 -1.29238165E-01 -5.04923778E-16 -7.99761956E-17 -1.05578917E-03 -2.17587386E-02
  2.35885469E-01  2.72798424E-17 -2.55324388E-02 -5.08055003E-01 -8.36011096E-02
 -1.01602706E-16  1.63675560E-03  9.95719465E-02 -9.35819123E-02  2.79821691E-01
  2.94489147E-01  1.87098966E-16 -8.30354694E-17  1.33614890E-02 -1.31870999E-01
 -2.48757297E-01 -1.49098883E-01 -2.62738282E-01 -5.60736859E-04  4.43368249E-04
 -1.13946237E-15  7.52446020E-01 -4.78988745E-04 -4.77975948E-04 -7.31008960E-16
 -3.29847691E-01  1.88861388E-05  8.28442811E-03 -4.92939692E-03 -4.39499971E-03
 -3.69661591E-16  1.46723259E-16 -4.00387350E-01  8.42168639E-04  1.02173283E-02
 -6.33436510E-16  4.81502690E-01 -1.72438730E-02 -6.74934477E-03 -2.32850520E-16
 -3.92177346E-01  9.34781728E-03 -6.57631196E-04  1.22003136E-02  9.25047808E-03
  2.88672302E-16 -2.45368562E-16 -4.73407005E-01  1.28065354E-01 -2.60107320E-01
 -1.20599252E-01  2.31302887E-01 -1.17546781E-02  9.14532571E-03 -1.06230041E-16
 -5.22243731E-03 -3.22025349E-02 -1.49213456E-02  1.59747243E-16  1.02032515E-03
  2.26358247E-02  5.62274144E-01 -5.34192600E-01 -5.56150366E-02 -2.26273886E-16
  1.75789906E-16 -9.88647124E-04  2.37347741E-02  2.16800469E-01  3.68207450E-16
 -4.08182384E-02 -3.57692709E-01 -1.62465998E-01 -3.64909448E-16  8.21246033E-03
  2.13829222E-01 -3.63404544E-01  5.93604325E-01  2.09883944E-01 -2.57334582E-17
  6.78335960E-17  1.89895657E-02  1.55837416E-01 -3.29720563E-01  1.38531826E-01
 -3.53514498E-01 -9.38404220E-17 -1.06130235E-16  8.60974240E-01 -6.09911860E-16
 -3.06156352E-16 -1.35706075E-16 -4.58569616E-01  1.12857640E-15  1.93779621E-16
  5.54144718E-17  8.86140464E-17  2.80331037E-16  3.85499715E-04 -4.78479400E-01
 -9.15195144E-17  3.22421570E-16  5.40002781E-16  3.10899364E-01  1.27822428E-15
 -1.74506745E-16 -3.25436320E-16 -3.51637575E-01 -2.06051293E-16  1.49603844E-16
 -5.42843934E-17  2.42196323E-17 -4.73805062E-16  4.43621980E-04 -5.50620325E-01
 -1.15300679E-15 -3.66112840E-16 -5.47167305E-16  7.59529280E-16  8.30376381E-16
 -7.67524168E-04  7.49653635E-04 -1.00701575E-15 -4.42348521E-01 -1.42319529E-03
 -1.05036868E-03  9.32392026E-16  2.87662834E-01  1.75083316E-03  3.29990301E-03
 -2.54974578E-03 -2.99725014E-03  4.87801038E-16  1.05668774E-15  4.19701159E-01
  1.34394105E-03  1.80462021E-02 -7.46015354E-16  9.86486140E-01 -2.83984113E-02
 -1.06778526E-02  6.39981669E-16 -1.04150810E-01  1.44447802E-02  2.82822016E-03
  1.54703301E-02  1.74100877E-02 -6.50166967E-17  5.66803043E-16 -4.44110586E-02
 -2.98728736E-01 -2.92683095E-01  3.10747614E-01  2.47398242E-01 -2.13130674E-17
 -7.15991052E-17  3.22531279E-02 -1.49969823E-16  2.10452538E-16  4.24689754E-16
 -2.57436672E-01 -4.17079285E-16 -2.27853604E-16  1.87366455E-16  1.34113225E-16
 -6.18390395E-16 -5.70518745E-04  7.08123654E-01 -3.00812449E-17 -1.19189244E-16
  2.82551428E-16  1.02629031E+00  4.89417938E-16  1.95427869E-16  5.64635053E-16
 -5.77117579E-01  1.99005976E-16 -5.94101205E-16 -4.41784992E-16 -2.24100088E-16
 -2.90141085E-16 -4.81409868E-04  5.97522373E-01  1.19958370E-16 -1.01250154E-15
  2.09041295E-16 -6.31097056E-16  4.56634929E-16  1.93956993E-01 -8.13652990E-01
 -1.99881009E-16 -3.19070011E-03 -8.03547483E-01  3.02600847E-01 -5.71424475E-16
  9.05550824E-03  8.71775650E-01  1.57925377E-03  8.29220861E-02  2.00041193E-01
 -1.18187003E-16  7.27332680E-16 -1.17705121E-02  6.70000405E-02  3.63424572E-02
  3.75717542E-17 -1.09486965E-02 -1.52072821E-01  7.55963852E-02  6.21685033E-16
  4.53999882E-03  2.94213277E-01  3.18777374E-01  3.26053247E-02 -2.17448002E-01
 -1.21110647E-17  6.54663294E-16 -1.27353758E-02  1.51080197E-01 -5.96626150E-03
  1.60907778E-01 -7.67593714E-03  7.57675122E-03 -3.19583607E-02  8.43461280E-16
  3.39648713E-01 -1.19458967E-02  1.04303787E-02  2.72217379E-16 -8.23577576E-01
  1.79723688E-02  1.08501603E-02 -3.01359978E-03  6.39915119E-03  1.50122499E-16
 -1.16402295E-15  7.60060098E-01 -3.13247081E-03 -5.75551526E-03  5.51904883E-16
  3.70114039E-01  4.62487815E-03  1.66822952E-02 -1.41137806E-15 -1.51589660E-01
 -7.73645623E-03 -2.53434331E-02  1.38500481E-02 -3.60327881E-03  4.52047664E-16
 -1.09645620E-15  9.85863349E-01  2.79284785E-01  1.65415378E-01 -3.43753630E-01
 -1.20764682E-01 -1.53281893E-01  7.26271604E-01 -8.13243190E-16  2.37224693E-02
 -1.82906221E-01 -1.33269659E-01  1.02883635E-15 -5.29535946E-02  4.92365689E-03
 -2.61622776E-01 -4.37476257E-03 -5.29244279E-02  7.83336341E-17  4.06951496E-16
  3.20886581E-02  1.09293156E-01  2.64069457E-02  1.50382757E-15 -2.16444513E-04
  2.54723388E-02 -3.41618394E-01 -1.72724786E-15  9.29689058E-03  6.11869345E-02
  7.38226459E-01 -2.52907275E-01 -2.29953068E-01 -1.03461692E-17 -9.28582119E-17
  4.36979203E-02  7.77868001E-01 -4.06022231E-01  7.79533032E-01 -4.53932304E-01
 -1.83726092E-01  9.96562553E-01  1.34833885E-15 -2.32346186E-02 -6.61318418E-01
  4.27777809E-02 -3.38226802E-15  4.73693851E-02  4.80849924E-01 -1.70594555E-01
 -2.94461491E-01 -6.04886820E-02 -9.07046507E-17  1.04867436E-15 -1.11174778E-02
  4.56713811E-02  3.78438002E-02 -1.54839254E-15 -1.64152184E-03 -1.02637004E-01
 -5.13606961E-03  3.75807463E-15 -2.94880281E-02 -5.04195146E-01  1.24722055E-01
  7.06256652E-01 -6.80628994E-01  1.26352003E-17  1.53971611E-15  1.43922805E-03
 -4.73518139E-01  1.50522353E-01 -5.51462554E-01  2.20236676E-01 -2.03011710E-16
  2.13068782E-15 -5.19531107E-01  9.90285736E-15 -3.30811908E-15  6.35808632E-16
  1.27808147E+00 -1.82730289E-14  2.54156563E-15  9.32968044E-17 -4.61517676E-16
 -1.23723603E-17  3.68059026E-04 -4.56832145E-01  9.02060392E-16 -1.25607898E-16
 -7.21376894E-16  3.14292192E-01  4.37602767E-15 -4.06895680E-16  1.39299432E-15
 -1.17334689E+00  1.48026417E-14 -3.06667937E-15 -3.39014729E-16  4.00064167E-15
 -2.70948579E-15  4.45550905E-04 -5.53014493E-01 -1.03755800E-14 -2.90241098E-14
  1.83438829E-14  2.17771793E-14 -1.63171330E-14  6.35961537E-03 -3.49689688E-02
 -1.41977917E-14 -4.03505495E-01  2.60662272E-02 -5.30218943E-03  3.40496854E-14
  7.62143503E-01 -2.04266959E-02  4.04552078E-03  1.57991381E-02  2.00690897E-03
 -2.40438095E-16 -1.17728592E-14 -5.20496514E-02  6.81248076E-04 -7.56029907E-03
  8.68272775E-15 -1.81962214E-01  1.60866260E-02 -9.51470964E-03 -3.12760852E-14
 -6.22385782E-01  2.55750653E-02  1.45569540E-02 -4.75141716E-02  2.54156812E-02
 -7.91322605E-17 -1.47334534E-14  3.67389819E-01  1.01061773E+00 -6.47155560E-01
 -9.18609967E-01  6.20704731E-01 -2.32513774E-01  3.52770775E-01 -3.20948571E-16
  6.72478056E-04 -3.62439210E-02  2.86778257E-01  8.76782168E-16 -2.62540029E-03
 -2.21931506E-01 -8.80846107E-01 -8.85870105E-01 -1.50651179E-02  3.17741707E-17
 -1.53647685E-16  7.71432580E-04 -9.57930439E-02 -3.71540886E-01  5.40282073E-16
 -2.09258986E-03 -7.49057383E-01  5.48907505E-01 -1.04209275E-15  2.24819947E-03
  1.42157506E+00 -2.49084185E-01 -3.45132654E-01 -1.18871261E-01 -2.16367538E-17
 -4.21138717E-16  3.02888039E-03  1.45976936E-02  3.50833840E-01  7.97971359E-03
  3.53785744E-01  2.44390089E-01 -2.39926286E-01 -6.46494991E-17  4.75076815E-05
 -3.61334727E-01 -4.78892165E-01 -2.49694631E-16  1.64183076E-03 -1.34444494E+00
  4.72658994E-01  4.73708483E-01  2.01151381E+00 -4.10610581E-16  1.03939318E-15
 -1.30414427E-03 -1.06513435E-01 -7.07676321E-01  1.56338917E-16  7.53038231E-04
 -1.34029698E+00 -2.14274542E-01  2.80962761E-16 -3.73368844E-04 -2.73017470E-01
  5.38874382E-02  6.52552442E-02 -1.13793519E+00 -4.73180782E-17  6.02283015E-16
  1.89389667E-03  8.69026738E-04 -5.38528965E-02 -2.77829188E-03 -5.13432682E-02
  3.46377297E-02  1.45045415E-01 -9.04098144E-16  1.78057449E-02 -1.56024531E-01
 -3.09590487E-01  2.85773795E-15 -8.46307271E-02 -4.15151972E-02  1.66676529E-01
  1.62523995E-01  1.03844019E-01 -9.01258875E-16 -6.22131622E-16  1.94228227E-02
 -3.61919361E-01  3.52435429E+00  3.53256171E-16 -4.08583606E-02 -1.65291865E-01
 -1.07854903E+00 -1.74778245E-15  2.32249504E-01  4.51612273E-01 -1.28499405E+00
 -1.47054727E+00 -1.54124614E+00 -1.09146343E-15 -1.42556631E-16  9.75447018E-03
  1.06633365E-01  4.24277112E-01  9.43217233E-02  7.38519362E-01  6.51329876E-03
  1.33700975E-03 -6.76463630E-16  2.44512182E-01  2.34378187E-02 -9.41738264E-02
  4.08314285E-15 -1.17477982E+00  3.12531208E-02  2.74231555E-02  2.24486736E-02
 -3.31702380E-03 -1.12089407E-16 -1.45705203E-15  2.57934279E-01  6.11587252E-02
 -3.18703597E-01  2.87876018E-16 -5.29590757E-01  1.54671060E-03 -2.30825026E-01
 -3.80103762E-15  3.30901659E+00  1.02889652E-01  2.06555430E-01  2.01280859E-01
  2.33521697E-01 -5.41283414E-16 -1.41069537E-15  8.32444669E-02  5.86032470E-03
 -2.15864290E+00 -5.49658111E-02  2.38273446E+00 -9.68911405E-02 -1.60033754E-01
  9.69759765E-16  2.36884094E-02 -1.14093285E-01  1.38639041E+00 -6.96323713E-16
 -1.17218429E-01 -3.48710644E-01 -4.15077358E-01 -3.61825661E-01 -5.91983509E-02
 -1.09874499E-15 -2.32546916E-16  2.54575884E-02 -3.55003523E-01  6.06454893E-01
 -1.38945128E-15 -5.30798013E-02  9.51617464E-02  3.50804870E+00  1.57290064E-15
  3.48011895E-01 -1.60180778E+00 -1.13818767E+00 -9.27270944E-01 -1.22238134E+00
 -2.37742590E-16 -4.37699108E-16  8.54941589E-03  1.61087312E-01 -2.05755866E+00
  1.50824055E-01 -1.55442082E+00 -4.21005766E-01 -1.38845421E+00 -1.87291352E-15
 -6.60595012E-04  1.84884795E-01  8.21914783E+00  4.36241134E-16  4.39596046E-03
 -2.68911421E+00 -1.54303057E+00 -1.53943706E+00 -7.10871552E-01  8.70701773E-16
 -8.13790720E-16 -8.63451702E-04 -1.28986663E-02 -2.72849718E-01  3.12781105E-16
 -1.48946877E-04 -6.43184754E-01 -4.66978757E+00  1.88524519E-16 -6.86167279E-03
 -2.39199287E+00  2.98960108E-01  1.64454157E-01 -2.95639756E-01  2.50939569E-16
 -6.06716129E-16  2.15013667E-03  1.24118736E-01  2.68358968E-01  1.21620868E-01
  2.53202761E-01
Total SCF Density                          R   N=         595
  2.07867595E+00 -1.83855486E-01  5.18676444E-01 -1.80854072E-16  1.40324870E-16
  5.18651818E-01  3.60841682E-05 -1.10771183E-04 -6.22505753E-16  8.47975915E-01
 -4.55884832E-02  7.46741262E-02 -4.62188755E-16 -7.15798717E-05  6.22617288E-01
 -2.36124507E-01  5.63793338E-01 -2.26179982E-15 -3.70711255E-04  3.58190791E-01
  7.38643510E-01 -3.16462803E-18  5.63021079E-16  3.19560846E-01 -1.09647144E-15
  2.24027985E-16 -6.76974401E-16  1.96893427E-01  3.02425825E-05 -1.15455614E-04
 -7.03305115E-16  5.75284084E-01  1.71920628E-04 -2.03170562E-04 -7.63946218E-16
  3.95029458E-01 -3.88150477E-02  7.05188793E-02  2.62389759E-17  2.22077432E-04
  2.97162838E-01  2.06639289E-01  2.80833267E-16  2.94402055E-04  1.44317052E-01
 -1.45062636E-02 -3.20904055E-03  2.65568348E-16 -3.40775459E-05 -2.64181790E-04
 -3.17794886E-03  1.59960359E-16 -2.36189555E-05 -3.36009606E-04  1.52906681E-04
 -1.15013087E-02 -9.62382044E-03  2.02460938E-16  7.84315994E-05 -1.15500126E-03
 -1.01443885E-02  1.15639193E-16  5.08965956E-05 -1.20037589E-03  1.88863719E-04
  3.04823464E-04 -1.03044271E-02 -8.72858420E-03  1.49330907E-16 -8.06492861E-05
 -4.63285327E-02 -2.97049607E-02  4.59540786E-17 -7.82173901E-05 -2.22236908E-02
  1.28066769E-04  2.23721078E-04  3.63653840E-03 -4.62469509E-17  5.89727194E-17
  4.23160381E-05 -2.62060664E-16 -2.17422276E-16 -3.76002057E-17  2.60724989E-05
 -1.82511865E-16 -9.89929912E-17  2.15186935E-19 -5.08941179E-19  1.50846225E-17
  3.45250324E-09  2.23289048E-16 -8.64393745E-17 -3.40001679E-02 -1.14883283E-16
 -7.39384624E-17  1.82246931E-17 -2.09487792E-02 -6.75244881E-17 -5.30728698E-17
 -1.91199378E-17 -1.42173108E-17 -1.15518739E-18 -2.77402363E-06  2.22887759E-03
 -4.21741017E-06  1.01270318E-05  1.91660088E-16 -3.45611430E-02 -3.49424676E-06
  1.57972146E-05  1.86148535E-16 -2.22405938E-02 -2.80943410E-06  1.91241891E-06
 -3.19802252E-06  6.12590932E-08  9.54968938E-18 -8.30939691E-18  1.71538863E-03
  1.16725943E-02 -2.58971890E-02  5.97706359E-16  4.16741941E-04  1.03050242E-01
  1.74670724E-02 -9.68488384E-16  2.40398807E-04  4.74385550E-02  1.41008996E-03
  1.63510867E-03 -1.02529910E-02 -2.46181254E-17  4.96289633E-16  6.82411824E-06
  2.05375238E+00 -1.27814293E-02  3.07363427E-02  9.84974096E-16 -1.27457120E-03
 -2.35634115E-01 -7.63125151E-02  1.35182170E-16 -8.11178214E-04 -1.03624124E-01
 -1.88638052E-03 -2.59569692E-03  2.11260738E-02  3.66254288E-17  1.29726649E-16
 -2.36202330E-05 -7.36963224E-02  3.57484168E-01  6.02043177E-16  3.06188885E-16
  3.66531094E-01 -5.78913047E-16  2.08114870E-16 -1.15487041E-15  2.25833560E-01
 -5.13885961E-16  2.79576622E-16  1.80720910E-16  1.34016534E-16  5.74657322E-17
  2.99047323E-05 -2.40279091E-02  1.60796912E-16 -8.47781989E-18  3.84298980E-16
  2.59027421E-01  5.07983294E-05 -1.08735469E-04  3.23132383E-16  7.99817260E-02
  8.11554091E-04  3.19834194E-04 -1.33249130E-15  8.91673761E-03  4.70929960E-05
 -1.70487931E-05  1.30878526E-05  5.57538468E-05  1.83561291E-17  4.20366485E-17
 -1.47901110E-02 -5.35580730E-04  1.53139027E-03 -5.23748629E-16  4.40922483E-01
 -5.03127503E-02  1.29092425E-01  1.59872628E-16  1.58624260E-03 -3.95747661E-01
 -4.63421169E-02  8.46909079E-17  7.82766040E-04 -1.79902969E-01  3.68564069E-04
 -1.05209956E-03  2.58008908E-02  2.05324384E-16 -5.83138804E-17 -1.31774598E-05
  9.39430729E-03 -4.30011493E-03 -1.21197168E-16 -1.48186854E-03  4.31726186E-01
  2.00456095E-02 -5.85564256E-02 -1.63207032E-15  1.55221306E-03 -1.24006404E-01
 -1.16796862E-01 -1.34283890E-15  1.62156007E-03 -5.80564454E-02 -1.17288913E-03
 -7.22672740E-04  1.30458564E-02 -1.45867235E-17  2.45681963E-16 -1.08696371E-05
 -1.45822623E-01  2.70279125E-01 -1.34682374E-15 -2.79941338E-03 -9.22139556E-02
  2.33158538E-01 -3.57114425E-16  5.43016592E-17  2.12499828E-01  1.32731684E-16
  2.50631127E-17 -8.30102742E-16  1.30929118E-01 -2.99479121E-17  1.13580266E-16
  1.10767059E-16  8.47919143E-17  4.80632465E-17  1.73375481E-05 -1.39304049E-02
  6.14328691E-17  7.10609661E-16  3.96801600E-16  1.50173569E-01  2.17327466E-16
 -1.14431359E-16 -6.62836951E-16  8.70645305E-02 -4.02655133E-05  1.70506234E-04
  3.49046829E-15  1.30223056E-01 -4.97825212E-04 -5.73583728E-05  1.62973282E-15
  7.55814016E-02 -3.00119360E-04 -3.33403749E-06  1.80315846E-05  4.01740699E-05
 -2.72967123E-17 -2.31307048E-16 -8.55274757E-03  2.36536293E-04 -5.27310317E-04
  2.23724642E-15  1.34261403E-01  1.09271049E-03 -1.45468467E-03  1.50275038E-15
  5.43360760E-02  8.14223207E-04 -6.10240264E-03  1.76659714E-15  1.06904557E-08
 -6.42132431E-02 -3.49649552E-02  1.10410642E-15 -2.41142435E-04 -3.19092421E-02
  5.55802187E-04  7.16159738E-04  3.61569848E-03  3.96801295E-17 -1.43935716E-16
 -2.04171112E-05  3.06227932E-02 -5.20946232E-02  1.21698332E-15  9.95578407E-04
  9.36411103E-02 -5.59093160E-02  6.86673764E-16  6.83839801E-04  2.96026999E-02
  4.45341791E-03 -1.00032960E-02 -6.47300740E-17 -3.29663799E-05  1.59561700E-02
 -2.94140238E-03 -9.88914997E-18 -1.48578058E-05  6.56210954E-03  1.27200128E-04
  2.68060307E-04 -1.28792493E-03 -5.04677303E-18 -8.74291536E-18  6.25266449E-06
 -1.05846937E-02 -1.96507957E-02 -2.49386794E-17 -1.29113107E-04 -6.63829423E-03
 -1.20580483E-02 -2.75235248E-17 -1.70481149E-05  1.64756819E-03  1.37926384E-03
  6.38042037E-03 -1.52491733E-02 -6.05929064E-17  1.25306153E-04  2.22508350E-02
 -5.54510770E-03 -3.02129440E-17  9.29633202E-05  9.56084531E-03  9.91042625E-06
  1.89784215E-04 -1.37702817E-03 -1.31591019E-17  2.52130587E-18 -1.10658312E-05
 -1.96600982E-02 -2.26173814E-04 -2.69185251E-17  2.15224738E-04 -2.80146314E-02
  7.25997210E-03 -1.83574724E-17 -7.10583744E-06 -5.74113152E-03  6.89653911E-04
  2.10267003E-03 -1.34147443E-02  2.63628969E-02 -3.02716614E-18  1.23116632E-04
 -1.18028581E-02  2.17004999E-02  2.84047783E-17  9.47579474E-05 -3.82556330E-03
 -1.07940467E-04 -4.29300814E-04  6.80855561E-04  9.77482990E-18 -9.35097898E-18
  2.29381288E-06 -1.90572251E-02  2.60448161E-03  4.02835294E-19 -2.53653882E-04
  2.00463668E-02 -3.68726320E-03 -1.10803749E-17 -6.90342055E-06  2.55523355E-03
 -5.97389517E-04 -1.42212949E-03  1.96726768E-03 -3.53491966E-17  7.41059705E-17
  1.76302961E-04 -1.31371037E-16 -1.00506311E-16  3.02687749E-17  1.08626869E-04
 -8.96807173E-17 -4.48830738E-17  7.87625808E-19  8.78648818E-21  4.58880927E-18
  1.43842990E-08 -1.15575229E-05  5.38036999E-18  8.78393824E-17 -1.12281952E-16
  1.24593253E-04 -1.05963695E-17  2.04010932E-16 -1.33317014E-16  7.22341030E-05
 -1.76262577E-17  5.98485353E-17  2.20421910E-18 -1.40518842E-17  9.02846485E-18
  5.99298660E-08  3.18306459E-16 -2.05309534E-16  2.83032219E-02  1.01502683E-16
  1.50073364E-16 -2.66200013E-16  1.74386770E-02  5.16839652E-17  6.96797925E-17
  1.38551943E-17  1.30790695E-17 -5.31635440E-18  2.30921820E-06 -1.85541487E-03
  4.42959453E-18  6.15939114E-16  3.18228928E-18  2.00018790E-02  4.95110986E-17
 -1.97178229E-16 -9.29767801E-17  1.15962763E-02  2.16223247E-16  7.29287707E-17
  3.98259637E-19  6.90745840E-18 -2.18346342E-17  9.62098588E-06  1.54452822E-03
 -8.58534959E-06  2.87876694E-05  3.97284907E-17  5.78302439E-02 -1.09536119E-04
 -4.04444807E-05  7.34904792E-17  4.22506320E-02 -1.12973268E-05 -4.56873009E-07
  5.75371602E-06 -8.86827648E-06 -2.06682298E-17 -1.85028290E-17 -1.58964021E-03
  1.09877872E-04 -3.49611427E-04  6.78163038E-17 -2.33868839E-02  3.79670282E-04
  1.53434918E-04  3.94411921E-17  7.64058186E-04 -8.87946398E-06  1.19815462E-05
 -1.53500206E-05  3.21215363E-05 -8.91820768E-18  1.00847751E-17  5.86344041E-03
  6.75474617E-03 -2.01015859E-02  3.32271617E-16 -1.01860187E-01  3.87447970E-02
 -3.48683975E-03 -6.36868395E-16 -9.38270698E-02  1.90910221E-02 -8.05931591E-04
 -7.21692750E-04 -5.15541144E-04  7.25045502E-18  1.08517968E-16 -2.20271895E-03
 -6.20851116E-02  1.23519653E-01 -1.78153653E-16  2.28733238E-01 -1.29135170E-01
  1.17527943E-01  1.60100489E-16  5.07831464E-02 -4.53067469E-02 -4.63378667E-03
  8.45013666E-03 -4.54532297E-03 -8.20050053E-17  4.38822002E-17 -2.29081007E-02
  2.23049230E-01  7.87668117E-04 -6.68861653E-03 -3.66182758E-16 -2.53929974E-01
  7.33517777E-02  2.62450892E-02 -7.95788553E-16 -1.96087455E-01  3.47233033E-02
 -3.18625548E-04 -3.22926478E-04 -4.40066977E-03  6.06181104E-17  1.32463506E-16
  4.25974049E-03 -1.12008171E-02  2.93704568E-02 -5.70120955E-16  2.04789724E-01
 -9.19930390E-02  3.58849776E-02 -2.01602106E-16  2.50468767E-02 -2.41673442E-02
 -3.83427059E-04  5.67826917E-03 -3.38817691E-03 -1.04854339E-17 -1.76870786E-17
 -3.25862048E-02  1.92735170E-01  2.18565654E-01  6.72342057E-03 -2.00656578E-02
 -2.00882075E-16  1.02976750E-01  3.87536802E-02 -3.59087410E-03  4.70856837E-16
  9.49031507E-02  1.95324129E-02 -7.93373738E-04 -7.01863097E-04 -6.84531693E-04
 -1.03503040E-16  1.98465358E-17  2.10319838E-03 -6.07317294E-02  1.20254132E-01
  2.23557491E-16 -2.27576400E-01 -1.27071981E-01  1.20267811E-01 -1.75677961E-17
 -5.16287662E-02 -4.62616746E-02 -4.44258123E-03  8.26091171E-03 -4.23820415E-03
 -1.15377043E-16  2.68523941E-17  2.27151320E-02 -6.34943452E-02 -1.19706444E-01
  2.21446964E-01  8.98364253E-04 -7.00253842E-03  3.74405517E-15  2.55707598E-01
  7.29034535E-02  2.54884725E-02  2.85781639E-15  1.97701348E-01  3.50558054E-02
 -3.35133986E-04 -2.90342958E-04 -4.51894850E-03 -1.42760189E-16 -3.12151730E-16
 -4.29681479E-03 -1.12826013E-02  2.85418028E-02  3.03357645E-15 -2.06256862E-01
 -9.10484901E-02  4.15909756E-02  1.66481530E-15 -2.59201345E-02 -2.58436041E-02
 -3.31329682E-04  5.65353685E-03 -3.09502179E-03 -9.10347056E-17  2.68220703E-16
  3.27229942E-02 -1.19887728E-01 -1.75879218E-01  1.94650297E-01  2.22367386E-01
Grdnt Energy                               R     -1.145004727608784E+02
Grdnt NVar                                 I                0
Grdnt IGetFC                               I                4
Quartic Cent Dist                          R   N=          10
  2.27844680E-06  6.15861682E-04  4.12650158E-05 -3.03848877E-07 -2.93576027E-05
  2.14226954E-06  6.15180796E-04  4.20820794E-05  3.03848877E-07 -6.80886333E-08
Sextic Cent Dist                           R   N=          14
  2.91232066E-12  1.23476311E-07  8.33610219E-10 -1.82045936E-09 -1.27143807E-12
 -3.75002637E-08 -4.45371406E-10  4.40867750E-13  1.22036527E-07  2.31388713E-10
  2.24017458E-10 -9.13702873E-13  1.23572646E-12 -3.57735196E-13
Mulliken Charges                           R   N=           4
 -3.22866800E-01  8.04895370E-02  1.23515804E-01  1.18861459E-01
APT Charges                                R   N=           4
 -5.34326475E-01  6.84779366E-01 -7.23679894E-02 -7.80849023E-02
Optimization MaxStp                        I                2
Optimization MaxJob                        I                1
Optimization Job offset                    I                0
Optimization Num results per geometry      I                8
Optimization Num geometry variables        I               12
Optimization Reference Energy              R     -1.140000000000000E+02
Optimization Number of geometries          I   N=           1
           1
Opt point       1 Results for each geome   R   N=           8
 -5.00472761E-01  0.00000000E+00  1.07870434E-06  5.04177630E-07  3.05625058E-06
  1.43533385E-06  0.00000000E+00  0.00000000E+00
Opt point       1 Geometries               R   N=          12
  0.00000000E+00  3.15649025E-32  1.28042456E+00  0.00000000E+00 -2.46392921E-32
 -9.99488431E-01  0.00000000E+00  1.77217571E+00 -2.12323297E+00 -2.17028931E-16
 -1.77217571E+00 -2.12323297E+00
Opt point       1 Gradient at each geome   R   N=          12
  2.14338508E-16 -3.13700080E-16 -1.07870434E-06  5.50551834E-16 -2.58173910E-17
  1.06346332E-06 -3.80055070E-17  6.14681849E-07  7.62049845E-09 -7.26884835E-16
 -6.14681853E-07  7.62049845E-09
ONIOM Charges                              I   N=          16
           0           0           0           0           0           0
           0           0           0           0           0           0
           0           0           0           0
ONIOM Multiplicities                       I   N=          16
           1           0           0           0           0           0
           0           0           0           0           0           0
           0           0           0           0
Atom Layers                                I   N=           4
           1           1           1           1
Atom Modifiers                             I   N=           4
           0           0           0           0
Int Atom Modified Types                    I   N=           4
           0           0           0           0
Atom Modified Types                        C   N=           4
                                                
Link Atoms                                 I   N=           4
           0           0           0           0
Atom Modified MM Charges                   R   N=           4
  0.00000000E+00  0.00000000E+00  0.00000000E+00  0.00000000E+00
Link Distances                             R   N=          16
  0.00000000E+00  0.00000000E+00  0.00000000E+00  0.00000000E+00  0.00000000E+00
  0.00000000E+00  0.00000000E+00  0.00000000E+00  0.00000000E+00  0.00000000E+00
  0.00000000E+00  0.00000000E+00  0.00000000E+00  0.00000000E+00  0.00000000E+00
  0.00000000E+00
Cartesian Gradient                         R   N=          12
  2.14338508E-16 -3.13700080E-16 -1.07870434E-06  5.50551834E-16 -2.58173910E-17
  1.06346332E-06 -3.80055070E-17  6.14681849E-07  7.62049845E-09 -7.26884835E-16
 -6.14681853E-07  7.62049845E-09
Cartesian Force Constants                  R   N=          78
  1.89419759E-02 -3.25993276E-17  7.43248553E-02 -3.74530834E-17  1.44671957E-16
  9.01607692E-01 -5.73755899E-02 -2.71176539E-17  3.68223043E-17  1.73796069E-01
  6.95319067E-17 -1.09745334E-01  3.22130018E-16 -2.92120028E-16  5.89597410E-01
  5.43957519E-17  7.27923174E-17 -8.17499695E-01 -2.30304231E-16  5.32018006E-16
  1.02043822E+00  1.92168070E-02 -1.14688023E-18  9.26254472E-17 -5.82102394E-02
  3.01641466E-17 -8.40084817E-17  1.94988916E-02 -3.83734410E-17  1.77102393E-02
  1.83545588E-02 -5.68638162E-17 -2.39926038E-01  7.67068637E-02  3.24848550E-17
  2.42175820E-01 -1.51735413E-17  3.65780897E-02 -4.20539986E-02 -1.94187688E-17
  8.15372313E-02 -1.01469263E-01  4.22828998E-18 -1.06588372E-01  1.32740214E-01
  1.92168070E-02  4.84097434E-17 -8.09281864E-17 -5.82102394E-02  3.63349334E-16
  3.13093966E-16  1.94945408E-02  1.15953562E-17  1.99369673E-17  1.94988916E-02
  4.22804067E-17  1.77102393E-02 -1.83545588E-02  3.91810061E-16 -2.39926038E-01
 -7.67068637E-02  5.88227882E-19 -1.99600215E-02 -1.15269492E-02 -5.41992890E-16
  2.42175820E-01  4.09069442E-17 -3.65780897E-02 -4.20539986E-02  2.37027300E-16
 -8.15372313E-02 -1.01469263E-01 -1.96285162E-17  1.15269492E-02  1.07830476E-02
 -3.12122161E-16  1.06588372E-01  1.32740214E-01
Cartesian 3rd/4th derivatives              R   N=         936
 -9.22147414E-11 -3.42695875E-15 -9.32957501E-11  2.89250164E-02  4.53128956E-14
 -9.86772934E-11 -3.29002645E-13  4.86981553E-15 -2.26290983E-02  4.00443220E-11
  3.63772767E-15  9.87007936E-13  9.62142064E-15 -1.62896892E-15 -9.96408011E-12
 -4.30648243E-02  3.01513269E-14 -6.69755385E-13 -5.24039047E-02 -4.55313453E-14
  3.64252929E-12  2.01954749E-14  2.27235322E-03 -3.14795906E-03  1.17500945E-14
 -7.89080233E-02  4.77343645E-02  4.70003779E-14 -3.35951353E-03 -1.23375992E-13
  1.02813327E-14 -4.96169341E-02 -1.76251417E-14 -3.23127598E-14  6.48060589E-02
  1.57157514E-13  7.06990394E-03 -6.90318050E-14  2.02138344E-13  3.75165015E-02
 -2.93752362E-15  2.29126842E-13 -4.51076015E-02  9.40007558E-14 -3.58377881E-13
 -1.28516658E-14 -2.27235322E-03 -3.14795906E-03  5.87504724E-15  7.89080233E-02
  4.77343645E-02 -1.68907608E-14 -1.18296113E-02  5.21196114E-04  7.63756141E-14
  3.35951353E-03 -9.84070412E-14  1.17500945E-14  4.96169341E-02 -4.99379015E-14
 -9.69382794E-14  1.18296113E-02  1.02813327E-14  6.46255196E-14 -6.48060589E-02
  1.86532750E-13  7.06990394E-03  1.83595226E-14 -8.26178518E-15  3.75165015E-02
 -2.35001889E-14  7.63756141E-14  5.21196114E-04 -2.49689508E-14 -5.14066633E-15
 -4.51076015E-02  4.70003779E-14 -1.17500945E-14  3.38402721E-11  6.39910570E-15
 -1.21542977E-10  1.10343706E-14  1.29795187E-02 -1.23093990E-10  1.26901020E-12
 -5.98459111E-15 -7.83931372E-15 -1.33011069E-11 -6.77188072E-15 -8.93007180E-13
  2.10951213E-03  4.33353960E-15  7.02185646E-11 -7.57784151E-15  2.76525235E-02
  1.76251417E-12  2.30906171E-15 -9.11257680E-02  3.29178897E-11 -1.43621293E-02
  1.54627151E-16 -2.28115178E-15  1.23225389E-02  4.01594454E-16  1.57839491E-15
  2.03959040E-03  2.39475900E-16  6.32217753E-03 -7.54451541E-03 -1.62382490E-15
  5.11988445E-02  3.17366223E-02  6.59696936E-17 -5.75210220E-02 -2.48806223E-15
 -2.03160211E-02  2.98722041E-02  2.62002075E-15  4.45081280E-02 -6.47249241E-02
  6.22501897E-16 -2.96194281E-02  3.48527199E-02  1.43621293E-02 -5.69141741E-16
 -9.13905071E-16 -1.23225389E-02  2.03674667E-15  3.69038490E-15 -4.40628543E-14
  1.31837931E-15 -7.54460416E-16 -2.03959040E-03  1.33299124E-16 -6.32217753E-03
 -7.54451541E-03  3.27487641E-15 -5.11988446E-02  3.17366222E-02 -6.22191299E-16
  2.93752362E-15  5.42732117E-03 -2.78598423E-15  5.75210221E-02 -9.68466818E-16
 -2.03160211E-02 -2.98722042E-02  2.91023126E-15  4.45081279E-02  6.47249240E-02
  8.02549673E-17  5.42732117E-03  3.67190452E-15 -2.02201941E-15 -2.96194280E-02
 -3.48527199E-02  5.41223048E-02 -6.25644333E-16  1.69238035E-02 -1.60170128E-14
  2.04589073E-12 -3.47155610E-01 -3.66334091E-02 -1.61689383E-16  1.56175249E-14
  4.35592635E-02 -3.13819868E-15 -2.04015881E-02  2.06437093E-13 -8.39882277E-15
 -1.33018966E-01  1.50261817E-14  2.81213268E-13  2.98262793E-01 -1.38252851E-14
  7.88963971E-12 -1.90867440E-01 -8.74444796E-03  9.49812860E-16 -3.17114650E-15
 -3.46292722E-03  5.41695391E-15 -4.06786725E-15 -2.51411560E-03  3.19384235E-16
  1.73889224E-03 -1.06665869E-02  5.75310747E-15  7.67102770E-02  1.13964922E-02
 -6.80449912E-15 -4.81273760E-02 -6.23006091E-16 -2.18125736E-02  2.44464082E-02
 -3.62392669E-15  3.08533681E-02 -5.36976768E-02  5.51006625E-15 -4.88534987E-03
  2.58514697E-02 -8.74444796E-03 -1.62479145E-16  3.57063444E-15 -3.46292722E-03
  6.12006755E-15  2.86697058E-15  1.47214908E-02  7.32007415E-16 -1.26313347E-15
 -2.51411560E-03  3.44445878E-15  1.73889224E-03  1.06665869E-02  2.80740469E-15
  7.67102770E-02 -1.13964922E-02  4.37732351E-16 -3.03217932E-02 -4.15544458E-03
 -6.68959582E-15 -4.81273760E-02  1.61383715E-15  2.18125736E-02  2.44464082E-02
  1.83168690E-15 -3.08533681E-02 -5.36976768E-02  1.72894750E-15  4.15544458E-03
  3.39979893E-03 -5.17447156E-15  4.88534988E-03  2.58514697E-02  1.21376097E-01
 -1.78632996E-15  1.04165578E-01 -2.85358232E-14  1.12890856E-13 -1.13200841E+00
 -1.09651572E-01  2.48147048E-15  2.98613181E-14  8.51053957E-02  1.37064739E-15
 -9.25341755E-02  7.90779455E-14 -1.28263523E-16  2.15126717E-01  2.84642878E-14
  7.57213048E-15  1.10744688E+00 -2.96357070E-14 -1.52697004E-13 -1.14008444E+00
 -5.86226250E-03  3.64045586E-16 -1.18433498E-15  1.22730880E-02 -6.60525290E-16
  2.22565303E-15  3.37088336E-03 -1.16385458E-16 -5.81570152E-03 -1.40971606E-02
 -3.05514674E-16 -6.12962710E-02  1.65135202E-02  2.35006271E-15  4.46916424E-02
  4.05064000E-15 -9.35446421E-03  1.22807647E-02 -8.09968962E-16  1.15445545E-02
  1.63187758E-02 -1.86846598E-15 -2.30322493E-03 -2.59912946E-02 -5.86226250E-03
 -1.05918611E-15 -1.41159919E-16  1.22730880E-02 -5.81858572E-16 -1.05423384E-15
 -9.78170889E-03 -1.92816258E-15 -1.37220506E-15  3.37088336E-03  5.32068028E-16
 -5.81570152E-03  1.40971606E-02 -2.04769228E-15 -6.12962710E-02 -1.65135202E-02
 -2.05358301E-15  2.24203301E-02  1.13134648E-04  3.56920726E-15  4.46916424E-02
 -3.97910467E-15  9.35446421E-03  1.22807647E-02  5.84357918E-16 -1.15445545E-02
  1.63187758E-02  8.27147928E-16 -1.13134648E-04 -2.60824584E-03  2.56759882E-15
  2.30322493E-03 -2.59912946E-02  2.01536499E-03 -5.71674948E-15 -2.15864231E-03
  5.09439278E-14 -1.56893692E-12  6.86878398E-02  1.37152017E-02  6.63766761E-16
 -5.90772033E-14  1.08607225E-01  1.17277052E-15  2.66373856E-02  1.09681855E-13
  1.63379319E-14 -1.04415795E+00 -4.91724960E-14  7.92084587E-14 -8.65285459E-02
  4.84011550E-14 -3.74453069E-11 -2.20719384E-01 -7.86528331E-03  3.54238348E-15
 -7.27601923E-16 -6.11612135E-02 -1.48871519E-14  5.52849931E-15  8.92294080E-02
  4.26380871E-15 -1.22393716E-02  1.50155904E-02 -1.50503485E-14  5.08760283E-01
 -3.38773114E-01  1.21573573E-14 -5.09461232E-01 -2.50421428E-15 -1.27878860E-02
  8.92035308E-03  9.51604495E-15 -3.38453193E-01  1.53623965E-01 -4.85125969E-15
  3.37499301E-01 -1.53846718E-01 -7.86528331E-03  1.51059924E-15  8.86087740E-15
 -6.11612135E-02 -2.62355050E-15 -4.75715835E-15 -2.02029112E-02 -1.37081752E-15
 -2.16057098E-15  8.92294080E-02  2.80170252E-16 -1.22393716E-02 -1.50155904E-02
 -1.95135020E-15  5.08760283E-01  3.38773114E-01 -8.12588833E-16  1.29403206E-02
  1.37417775E-02  2.48376878E-15 -5.09461232E-01  7.32782439E-16  1.27878860E-02
  8.92035308E-03  1.16000333E-15  3.38453193E-01  1.53623965E-01  5.03623062E-17
 -1.37417775E-02 -8.69759991E-03 -1.94314807E-15 -3.37499301E-01 -1.53846718E-01
 -9.31077486E-11 -3.14816113E-15 -6.01134833E-11 -1.11720683E-14  4.67492973E-02
  5.57424482E-11  2.82002267E-13  1.09117831E-15  1.31786644E-14 -2.35471893E-11
  1.55771252E-15  9.40007558E-14 -1.13850844E-01  1.27360935E-15 -3.67072951E-11
  1.19097800E-14 -3.15368390E-02  1.10450888E-12 -1.71596466E-14  8.60523189E-01
 -2.73248447E-11 -6.23719407E-03  1.68307740E-15 -1.16071161E-15 -8.52992954E-02
 -2.04887245E-15  2.55275781E-15  9.15364895E-02  1.68337727E-15 -9.21775153E-03
  3.35507735E-02 -3.51606531E-15  5.05754928E-01 -4.14493175E-01  9.01953814E-16
 -4.96537176E-01 -1.84906722E-15 -7.60622916E-03 -2.38451962E-03  3.02115720E-15
 -3.73336172E-01  1.79123429E-01 -8.58664883E-16  3.66470213E-01 -1.76738909E-01
  6.23719407E-03  3.73905417E-16 -8.45884496E-16  8.52992954E-02 -7.82449429E-16
  2.69710879E-15 -2.49689508E-14  9.30734233E-16 -3.13425097E-16 -9.15364895E-02
 -9.29286622E-17  9.21775153E-03  3.35507735E-02  1.15127764E-15 -5.05754928E-01
 -4.14493175E-01 -5.36158762E-16 -8.81257086E-15  1.44721889E-02 -5.22190221E-16
  4.96537176E-01  1.11135549E-15 -7.60622916E-03  2.38451962E-03  9.59825040E-16
 -3.73336172E-01 -1.79123429E-01 -5.33381324E-16  1.44721889E-02  1.02813327E-14
 -1.53779920E-15  3.66470213E-01  1.76738909E-01  2.02326577E-03  7.40645723E-13
 -7.15888023E-03  2.31800932E-12  4.26579548E-12 -8.15318851E-02  2.28203370E-02
 -7.23942896E-13 -4.03410965E-12  7.77119011E-02 -2.12542994E-12  1.99347572E-02
 -2.18019693E-11  3.81830321E-12 -4.91865487E-01 -6.56139122E-12 -1.18242850E-11
  9.14045677E-02  6.25928312E-12  3.04170954E-11 -2.62884000E-01 -1.24217910E-02
  8.74133505E-13  4.25820554E-12 -5.02661154E-02  3.89701429E-13 -4.24149345E-12
  7.44061097E-02 -7.09002507E-13 -6.38794602E-03  1.36176594E-02 -2.45025770E-13
  2.35965366E-01 -1.50929702E-01 -9.98030759E-13 -2.14754377E-01  3.23096172E-12
 -7.22069538E-04 -4.93634732E-03 -2.45612023E-12 -1.53804310E-01  8.57397186E-02
  1.43363531E-12  1.45919211E-01 -7.88262595E-02 -1.24217910E-02 -8.55870280E-13
 -2.18510543E-12 -5.02661154E-02 -1.41518079E-14  3.74057707E-12 -1.17182034E-02
  1.92672479E-12 -1.95307601E-12  7.44061097E-02  9.39381178E-13 -6.38794602E-03
 -1.36176594E-02  5.45394520E-13  2.35965366E-01  1.50929702E-01 -7.94343832E-13
 -1.48230427E-02  8.60716848E-03 -1.70626176E-13 -2.14754377E-01  8.55991092E-13
  7.22069538E-04 -4.93634735E-03  7.63931395E-14  1.53804310E-01  8.57397186E-02
  8.11681742E-13 -8.60716848E-03 -1.97711183E-03 -1.45317566E-12 -1.45919211E-01
 -7.88262595E-02 -2.40609049E-02 -2.20155281E-13 -1.98442722E-03  3.59176261E-12
 -4.07601388E-11 -4.36987677E-02  1.66135091E-02  6.02759754E-13 -1.30055396E-12
  1.44594425E-02  1.01502502E-12  2.16755442E-02 -1.43758925E-11  3.20379973E-12
 -3.76167135E-01 -2.56838878E-12 -5.10995193E-12  8.08704002E-02  4.16805762E-12
 -1.37602401E-09 -1.72136232E-01  3.72370884E-03  3.36489687E-14 -2.69738447E-13
 -1.55364765E-02 -2.89444895E-13  7.66335831E-14  1.54290393E-02  3.18152091E-15
 -9.84555820E-03  2.74979079E-02  1.67980301E-13  1.77245793E-01 -1.35150756E-01
 -1.70892310E-13 -1.75201329E-01 -1.09160372E-13  3.20978862E-03 -1.85858230E-02
 -3.57070082E-13 -1.26185222E-01  4.56329142E-02  1.06835333E-13  1.15314141E-01
 -1.86354724E-02  3.72370884E-03 -3.46503275E-13 -2.08344881E-12 -1.55364765E-02
 -4.88665936E-12 -1.97412398E-12 -3.61627167E-03  2.86239126E-13  4.17792565E-13
  1.54290394E-02 -1.02677601E-12 -9.84555820E-03 -2.74979079E-02 -4.06251669E-12
  1.77245796E-01  1.35150757E-01  7.89468631E-14  7.80109410E-03  7.66129298E-03
  5.61136654E-12 -1.75201332E-01 -1.15322380E-12 -3.20978858E-03 -1.85858229E-02
 -2.64555631E-12  1.26185224E-01  4.56329150E-02  1.24259660E-13 -7.66129299E-03
 -8.41161876E-03  3.97592318E-12 -1.15314142E-01 -1.86354734E-02 -3.40735177E-02
 -1.45396107E-12 -1.85936652E-02  9.84117301E-14  3.55782532E-11  8.74757481E-02
  2.78770155E-02  1.74031491E-12  2.51585895E-12 -1.23052361E-02  1.64301285E-12
  4.66232654E-02  2.64474421E-11  3.04598967E-12 -3.77660360E-01  1.32884108E-12
  7.66096703E-12 -7.61672148E-02  7.08670985E-14 -5.18124378E-10 -5.00278582E-02
  3.09825960E-03  1.23795240E-13 -3.49134722E-13 -7.78588858E-03 -5.21653947E-13
  7.78343124E-14  5.71747179E-04  5.58110102E-13 -1.40147927E-02  2.49778551E-02
 -4.25297069E-13  1.65518547E-01 -1.23838646E-01 -1.24698845E-13 -1.36136280E-01
 -6.57525177E-13  4.08396971E-03 -5.65426725E-03  1.36118117E-13 -1.36538158E-01
  6.30975360E-02  1.92472133E-13  1.15657490E-01 -6.09494987E-02  3.09825960E-03
 -3.40398912E-13 -2.32711457E-12 -7.78588857E-03 -5.12462809E-12 -1.77536405E-12
  4.11588181E-03  2.78394451E-13  3.87332371E-13  5.71747149E-04 -9.75886631E-13
 -1.40147927E-02 -2.49778551E-02 -4.44898442E-12  1.65518550E-01  1.23838647E-01
  1.74816179E-13 -1.53674744E-02  1.67966984E-02  5.85107558E-12 -1.36136283E-01
 -1.00873797E-12 -4.08396974E-03 -5.65426712E-03 -2.85796691E-12  1.36538158E-01
  6.30975363E-02  1.16818406E-13 -1.67966984E-02  3.50623003E-03  4.05128920E-12
 -1.15657490E-01 -6.09494992E-02 -2.14187519E-01 -5.25621808E-13 -2.13246044E-01
 -2.04005090E-12 -2.34206639E-12  1.29053220E+00  2.11896240E-01  1.05963779E-12
  3.54864620E-12 -2.10958541E-01  1.64926758E-12  2.18502701E-01  6.99547133E-12
  3.41944783E-12 -3.14931754E-01  2.60601092E-12  7.31136714E-13 -1.28306895E+00
 -1.20071174E-12 -1.45479766E-11  1.23008252E+00  1.14565268E-03 -8.12907141E-14
  6.82656904E-13 -4.68850139E-04 -1.00518180E-12  2.02052373E-13 -2.22090534E-03
 -2.09981923E-13 -2.62833157E-03  6.36121394E-03 -6.59242651E-13  4.82145271E-02
 -4.19522941E-02  7.42416031E-13 -3.54395410E-02  1.49149731E-13  1.28960643E-03
 -3.73162382E-03  1.13182468E-13 -5.17181171E-02  2.64932163E-02 -6.93427028E-13
  4.30097954E-02 -2.70955506E-02  1.14565268E-03 -3.82975099E-13 -2.25323082E-12
 -4.68850134E-04 -5.02081311E-12 -1.90517311E-12  1.54410280E-03  4.13317181E-13
  4.89492272E-13 -2.22090535E-03 -1.14238860E-12 -2.62833156E-03 -6.36121394E-03
 -3.90781987E-12  4.82145271E-02  4.19522941E-02 -3.68488485E-15 -1.01466545E-02
  7.41871526E-03  5.65491406E-12 -3.54395411E-02 -9.54120095E-13 -1.28960643E-03
 -3.73162381E-03 -2.59623967E-12  5.17181171E-02  2.64932163E-02 -1.53292119E-13
 -7.41871527E-03  4.33395815E-03  4.00505461E-12 -4.30097954E-02 -2.70955506E-02
 -1.10448067E-03 -1.16220326E-12 -1.15705265E-02 -1.27312892E-13  1.73070896E-10
  4.10714679E-02 -1.61297955E-03  1.67247878E-12  1.65118313E-12 -5.47068815E-01
  1.43701457E-12 -3.71198193E-03  2.53128978E-11  3.39068268E-12  1.93468805E+00
  8.71298022E-13  2.05212330E-11 -7.11916853E-02  5.10436185E-13 -3.84483611E-09
  4.86622399E-01  1.35874032E-03  2.65069415E-14  4.39519547E-13  2.74340901E-01
 -1.03805699E-12  3.79103604E-13 -2.99729235E-01  2.31665539E-13  7.64125672E-03
 -2.29971851E-02 -9.11785791E-13 -9.65488037E-01  7.34696126E-01  8.25129865E-13
  9.42085850E-01  2.66235474E-13  9.55904458E-05  1.50601080E-02  1.81496290E-13
  7.54358054E-01 -2.07715356E-01 -6.89501687E-13 -7.33076293E-01  1.80216448E-01
  1.35874031E-03 -4.67032295E-13 -2.02536840E-12  2.74340901E-01 -4.74691977E-12
 -2.05865937E-12  2.40295943E-02  1.41499026E-13  3.00167366E-13 -2.99729235E-01
 -7.35201588E-13  7.64125663E-03  2.29971849E-02 -4.23935258E-12 -9.65488032E-01
 -7.34696123E-01 -1.61321192E-13  1.57609305E-02 -2.13773517E-02  5.73689607E-12
  9.42085845E-01 -1.24923095E-12 -9.55906265E-05  1.50601076E-02 -2.47823835E-12
 -7.54358051E-01 -2.07715354E-01 -9.11313344E-14  2.13773517E-02  1.24388004E-02
  4.12000336E-12  7.33076289E-01  1.80216446E-01  2.02724977E-02 -1.17574737E-13
  1.02765216E-02  3.70131339E-13  4.11548309E-12 -6.15382961E-02 -2.41873899E-02
  8.05528098E-13  1.42392033E-12 -6.33763841E-01  9.67332628E-13 -1.88917536E-02
  3.92799833E-12  3.50831639E-12  1.95235702E+00  2.93051139E-13 -5.16338685E-12
  3.85256818E-02  8.39406378E-13 -1.24618747E-11  4.92102446E-01  1.95744542E-03
 -1.46090221E-13  4.87109447E-13  3.28975615E-01 -7.79222346E-13  2.92756108E-13
 -3.26670460E-01 -2.92680009E-14  4.30762048E-03 -3.39936629E-02 -5.51942515E-13
 -9.66732634E-01  8.95494307E-01  5.96501708E-13  9.42709760E-01  2.05075601E-13
 -3.60431071E-03  1.15063049E-02  1.23129276E-13  8.78033158E-01 -2.65314066E-01
 -6.85149409E-13 -8.67964746E-01  2.71395289E-01  1.95744542E-03 -4.72112973E-13
 -2.34313973E-12  3.28975615E-01 -4.65370618E-12 -1.72303518E-12 -4.26259988E-03
  2.71217447E-13  4.15341975E-13 -3.26670460E-01 -1.04921464E-12  4.30762049E-03
  3.39936629E-02 -3.84987888E-12 -9.66732634E-01 -8.95494307E-01 -1.89305130E-14
  1.97152534E-02 -6.46410158E-03  5.51904474E-12  9.42709760E-01 -1.10726842E-12
  3.60431071E-03  1.15063049E-02 -2.52157873E-12 -8.78033158E-01 -2.65314066E-01
 -5.67260164E-14  6.46410158E-03 -1.75875281E-02  3.98697590E-12  8.67964746E-01
  2.71395289E-01
Dipole Moment                              R   N=           3
 -1.90070692E-17 -6.65944759E-18 -8.60189636E-01
Dipole Derivatives                         R   N=          36
 -3.13135917E-01  2.21232395E-15  8.64161176E-16 -1.21768777E-17 -4.26560602E-01
  2.24612054E-15 -6.73004644E-17  1.23946186E-14 -8.63262344E-01  1.82977298E-01
  3.08738385E-15  9.49159952E-16  9.28120706E-17  8.70355601E-01  4.76312586E-15
  5.14166265E-17 -1.24627844E-14  1.00097897E+00  6.50793098E-02  1.68456080E-16
  1.09628827E-15 -4.17283069E-17 -2.21897499E-01  1.13937005E-01  4.87554406E-19
  1.09012894E-01 -6.88583118E-02  6.50793098E-02 -3.00506517E-15 -2.03759041E-15
 -6.83968946E-18 -2.21897499E-01 -1.13937005E-01  1.58106023E-17 -1.09012894E-01
 -6.88583118E-02
Polarizability                             R   N=           6
  6.76210965E+00  7.17909660E-16  1.41260529E+01  4.25183618E-16  1.90424611E-14
  1.83625784E+01
Quadrupole Moment                          R   N=           6
  1.55310834E-01  7.82435050E-02 -2.33554339E-01  3.19764703E-17  4.33661027E-17
  2.49157762E-17
NDeriv for static properties               I                6
ND12 for static properties                 I               -2
Dipole Moment num derivs                   R   N=          36
  3.85213301E-02 -2.19924606E-15 -9.32096810E-16 -8.46761882E-17  1.13647456E-01
  1.14627018E-15 -2.03782471E-17  2.32822501E-15 -8.12793592E-02 -1.78800425E-17
  4.85407015E-15 -3.18200565E-01  2.24610332E-17 -3.38888724E-15  2.39584678E-01
 -7.33906739E-17 -4.11012622E-01 -3.12660301E-15  4.27550508E-13  5.60501950E-14
  1.72686096E-01  2.23208268E-15 -4.09668363E-13  4.12975064E-02 -6.19392126E-15
 -2.40895187E-13  5.23106178E-02 -1.19819950E-14 -2.82338983E-13  1.87181383E-01
  7.49604628E-15  2.34592978E-13  1.71786953E-01  7.26611182E-15  1.41233460E-12
  4.46330231E-01
Dipole Derivatives num derivs              R   N=         432
  9.76726603E-13  2.18519211E-15 -1.57375219E-02 -4.72999544E-16  6.47723958E-13
 -1.39475462E-14  2.09787685E-01 -2.45891642E-13  1.82420217E-12 -1.06044603E-12
 -9.49083934E-14 -2.20539473E-01  5.75589771E-15 -1.89764026E-12  2.03983551E-14
 -2.67338574E-01  1.11857954E-13 -2.17376748E-12  3.12111884E-13 -1.26308830E-01
  1.18138497E-01  5.89954720E-03  7.72568712E-13  4.89097682E-13  2.87754443E-02
  9.10632322E-14  1.64501323E-13  8.07818995E-14  1.26308830E-01  1.18138497E-01
 -5.89954720E-03  6.87380527E-13  3.23127598E-13  2.87754443E-02  2.67314649E-13
  5.08191586E-13  3.21658836E-13  1.27816595E-14  3.83608273E-14 -1.34490745E-14
  7.28505857E-13  3.43374229E-02  4.02097966E-15 -1.51707876E-01  6.02192342E-13
 -9.66445270E-13  5.22098060E-15  2.57723330E-14  1.59199274E-14 -1.63326313E-12
 -8.41764860E-03  8.08048219E-15  1.20437597E-01 -6.93255574E-13  2.73712754E-02
  5.27832483E-14 -1.73277114E-14  4.31332335E-15  5.49700153E-02 -1.29598872E-02
 -4.93501975E-15  1.56351394E-02 -3.48264834E-02 -2.73712754E-02 -7.07858884E-14
 -4.68054489E-14 -6.78417629E-15 -5.49700153E-02 -1.29598872E-02 -7.16644210E-15
  1.56351394E-02  3.48264834E-02 -5.33321642E-04 -3.41094494E-14  1.57126397E-14
  1.20474996E-14 -5.09982010E-02  1.86787980E-13  1.50549096E-14 -8.28344859E-13
  1.70198854E-02  2.16283780E-02  7.55828450E-14  5.57237060E-15 -1.20555933E-14
  1.21588003E-01 -3.09221762E-13 -2.19924416E-14  8.20154797E-13  5.99629339E-02
 -1.05475282E-02 -7.06034771E-15  2.04664386E-14  5.75765412E-15 -3.52949010E-02
 -1.12119660E-02  8.50872753E-15  9.13460783E-02 -3.84914096E-02 -1.05475282E-02
 -3.44130479E-14 -4.17514489E-14 -5.74956048E-15 -3.52949010E-02  1.12119660E-02
 -1.57119553E-15 -9.13460783E-02 -3.84914096E-02 -3.85018312E-02  2.39239794E-14
  1.55972690E-15 -2.50541768E-14  3.94130572E-02  3.44329601E-14 -2.69548949E-14
 -4.62697280E-13  4.13759286E-01 -1.01582018E-01  2.24392593E-14 -7.32501044E-15
  1.16316140E-15 -4.30063132E-01 -4.61859810E-13  3.46531498E-14  5.97608228E-13
 -6.03212594E-01  7.00419248E-02 -2.39132015E-14  5.22295764E-15  1.27370148E-14
  1.95325037E-01 -6.72632223E-02 -1.59103061E-14 -1.03371539E-01  9.47266540E-02
  7.00419248E-02 -2.24500372E-14  5.42325903E-16  1.11540006E-14  1.95325037E-01
  6.72632223E-02  8.21205117E-15  1.03371539E-01  9.47266540E-02  9.08389401E-02
  1.62884526E-14 -3.94779359E-14 -5.37300549E-15 -1.61343816E-02 -9.01656784E-16
 -9.65878405E-15 -9.26951696E-13 -4.03376959E-01 -3.07703507E-02  2.23641016E-13
  3.41651062E-14 -7.46976828E-14  5.24383189E-01 -3.99984089E-13  2.62622551E-14
  9.96355857E-13  5.79334386E-01 -3.00342947E-02 -1.83213925E-13  7.93643980E-14
  4.02929350E-14 -2.54124404E-01  6.56998117E-02 -2.46112776E-14  1.03516357E-01
 -8.79787132E-02 -3.00342947E-02 -5.67155434E-14 -7.40515684E-14  3.97777533E-14
 -2.54124404E-01 -6.56998117E-02  8.00780658E-15 -1.03516357E-01 -8.79787132E-02
 -8.94475942E-13 -5.12182457E-14  1.75349835E-14  1.44123979E-14 -2.58502078E-13
  1.03903977E-01 -2.06664360E-14  6.36526714E-01  4.40628543E-13  3.26799503E-13
  5.91198291E-14  2.00584708E-14 -2.25421301E-14 -1.86238997E-12 -5.80752399E-01
  3.03735629E-14 -1.12493769E+00 -1.70963875E-12 -1.31654649E-01  1.77129339E-14
 -1.47348986E-14  9.48441286E-15 -1.48828563E-01  2.38424211E-01 -5.53992805E-15
  2.44205490E-01 -1.73305788E-01  1.31654649E-01 -2.56145173E-14 -2.28585557E-14
 -1.35468066E-15  1.48828563E-01  2.38424211E-01 -4.16719880E-15  2.44205490E-01
  1.73305788E-01  1.61807359E-01 -2.14760218E-12 -7.57803183E-12 -7.35925479E-13
  3.62319896E-02 -6.78212016E-12  6.69082608E-11  1.68979008E-11  1.17352638E-02
 -1.90915552E-01 -6.98602140E-12 -7.05975880E-12  3.85335891E-12  9.60168795E-02
  2.17182198E-11  1.02095715E-11  1.22693415E-11 -7.42789094E-02  1.45540969E-02
  2.84846206E-11  3.15099230E-11  1.05079330E-11 -6.61244344E-02 -2.75288314E-04
 -4.21877825E-11  1.65901582E-02  3.12718230E-02  1.45540968E-02 -5.14139067E-12
 -2.06784330E-11 -2.38469537E-11 -6.61244345E-02  2.75288277E-04 -3.52900199E-11
 -1.65901581E-02  3.12718228E-02  4.77232122E-02  5.37967033E-13 -1.83274047E-12
  2.64650315E-12  6.10287468E-02  8.38616794E-11  1.02755973E-12 -2.98344299E-10
 -7.90398846E-02 -5.30796425E-02 -5.10161050E-12 -6.18119832E-12 -2.20544889E-12
  7.29294658E-02 -2.14527916E-10 -1.77126220E-12  2.14177441E-10  2.40303594E-02
  2.67821523E-03  1.88868515E-12  1.94791894E-12  1.13883540E-12 -6.69791062E-02
  3.05211528E-02 -2.61615846E-13  2.45762475E-02  2.75047627E-02  2.67821520E-03
 -1.11197995E-11  1.18221610E-12 -1.75948425E-12 -6.69791062E-02 -3.05211527E-02
  1.00299790E-12 -2.45762474E-02  2.75047627E-02  3.43529599E-02  4.22268636E-12
 -3.50411059E-12  3.50254207E-12  7.59318943E-02 -1.36810001E-11  1.26345260E-12
 -6.73586840E-12 -5.12073036E-02 -7.85187334E-02 -5.73123472E-12 -1.09472478E-11
 -2.55592549E-12 -4.14223592E-02  2.21089603E-11 -2.59509350E-12  1.00322304E-10
  4.24671779E-02  2.20828867E-02 -9.99012067E-13  6.39264630E-12  1.21928782E-14
 -1.72547675E-02  2.29290128E-02  7.22240114E-13  9.84052230E-02  4.37006292E-03
  2.20828868E-02 -1.12871973E-11  3.17490828E-12 -1.13840405E-12 -1.72547675E-02
 -2.29290128E-02  6.07080358E-13 -9.84052230E-02  4.37006289E-03  4.19266805E-02
  5.39323079E-12 -3.31123427E-13 -4.68991068E-12 -1.15212883E-02 -2.83048800E-11
  1.94614129E-12  2.55774565E-11 -1.63556049E-01 -1.45404410E-02 -1.39320972E-11
 -6.13577447E-12  4.56952528E-12  1.09236689E-01  6.00636211E-11 -3.89076434E-12
 -5.35173577E-11  2.10193730E-01 -1.36931197E-02  3.93402709E-12  9.38271849E-14
  3.37398426E-14 -4.88577001E-02 -4.55792060E-03 -9.12775633E-13  6.96713543E-02
 -2.33188405E-02 -1.36931197E-02 -9.18991849E-12  1.48926695E-12 -9.29490329E-14
 -4.88577001E-02  4.55792059E-03  2.85507826E-12 -6.96713541E-02 -2.33188405E-02
  3.82458523E-02  3.96861787E-12 -6.22514369E-13 -3.06521039E-12 -4.36119121E-03
 -2.37065802E-11 -5.63325987E-13 -8.01494811E-11  9.03000943E-02  2.90040625E-03
 -1.01611634E-11 -6.95838294E-12  5.55555246E-12 -8.53418240E-02  8.23300053E-12
  1.58274665E-13  4.59269335E-11 -2.39826230E-01 -2.05731292E-02 -1.73602498E-12
 -1.01398012E-12 -1.30991032E-12  4.48515076E-02 -5.28630367E-02 -1.11009749E-12
 -3.34135161E-02  7.47630679E-02 -2.05731292E-02 -5.86618728E-12  3.71107366E-12
 -1.36002635E-12  4.48515077E-02  5.28630368E-02  1.51282839E-12  3.34135163E-02
  7.47630679E-02  6.87023090E-02  6.96764464E-12 -6.41607195E-12 -2.77267288E-12
  9.23292767E-02  7.45448751E-11  3.32966689E-12 -1.10765851E-10 -2.76182115E-01
  2.57052982E-02 -1.27373315E-11 -2.31210696E-13  3.26446034E-12 -3.72579075E-01
 -1.13328240E-10 -3.23407339E-12  6.73989874E-11  4.93792046E-01 -4.72038035E-02
  3.16150482E-12  8.44652153E-13  3.94359879E-13  1.40124899E-01 -9.52790081E-02
 -1.02253072E-12 -3.13964645E-01 -1.08804965E-01 -4.72038035E-02 -1.11865757E-11
  9.18826732E-13 -1.06574193E-12  1.40124899E-01  9.52790081E-02  9.24616798E-13
  3.13964645E-01 -1.08804966E-01
Polarizability num derivs                  R   N=          72
 -4.55903666E-12 -2.67110644E-13 -1.47111183E-11 -1.13289297E+00  5.26937929E-12
 -7.42605971E-12  1.99751606E-12 -9.49910163E-15  1.63561315E-11 -4.94992502E-14
 -2.13151456E+00  8.36606727E-12 -1.05685665E-01 -7.34703230E-14 -1.74676902E+00
 -7.35293413E-14 -4.12209726E-12  3.81536932E+00  5.00225921E-01 -7.22934927E-14
 -5.70474550E-01  7.51281019E-14 -2.35089493E-12  1.65164073E+00  5.21626483E-01
 -1.29745263E-13  1.15042046E+01  1.55827154E-13  2.00292333E-11  3.94716886E+00
  4.62953722E-12 -7.30842516E-14 -3.37462713E-11  9.99337220E-14 -6.75248606E+00
 -1.16560937E-11  3.67946195E+00  2.57281502E-12  3.06803451E+00  1.48539215E-11
  2.53138923E-09  3.93302692E-01  5.49307595E-01  1.21461277E-11  2.80310064E+00
  2.61471674E-11  3.24988967E-10  2.54516423E+00  3.25566735E-01  1.61619621E-11
  2.84216392E+00  2.45321604E-11 -2.45980975E-10  1.37888525E+00 -1.97546552E-01
  3.09250109E-11  1.11100884E+00  1.44506683E-11 -6.23129679E-11  1.24377356E+00
 -3.82787858E-02  1.97973850E-11  9.32061314E+00  1.74813459E-11 -1.41062229E-10
  7.58947995E-01  1.58397641E-01  2.09355408E-11  2.13399987E+00  3.25604948E-11
 -6.75537097E-11  4.40201801E+00
Quadrupole Moment num derivs               R   N=          72
  5.17004157E-13  5.17004157E-13 -1.03400831E-12  6.75598235E-14 -1.61039519E-01
 -6.33395623E-13 -1.64501323E-12  1.97401587E-12 -2.82002267E-13 -2.40854515E-14
  3.43739124E-14 -4.94938959E-01 -7.42891834E-03 -6.93328837E-01  7.00757755E-01
 -1.60800750E-14  6.31618041E-14  2.20771397E-13 -4.69908321E-01  4.43576516E-01
  2.63318048E-02  2.63112490E-14 -4.90411804E-14 -8.13027383E-13 -4.98396925E-02
  1.37529191E-01 -8.76894985E-02  1.76337541E-13 -1.04848307E-13 -4.90034036E-12
 -1.92701549E-12  4.70003779E-14  1.83301474E-12  3.22704600E-14 -1.03704233E-13
  7.60971696E-01  3.51652019E-01 -2.91098841E-01 -6.05531778E-02  4.11377823E-12
 -1.83620723E-12 -5.08007146E-10 -4.61097568E-02 -1.17796368E-01  1.63906124E-01
  7.41127697E-12  5.47283899E-12 -1.78437315E-10 -1.47743233E-02 -1.90208287E-01
  2.04982611E-01  1.71762219E-11  2.74998130E-12  4.44608902E-11  9.53856391E-02
  2.80648029E-02 -1.23450442E-01 -7.17645816E-13  9.59653025E-12  4.01595042E-11
  1.14285285E-01 -4.73285419E-02 -6.69567429E-02  7.91761737E-12 -1.16969238E-11
  6.35508356E-11  5.84228549E-01 -2.14605244E-01 -3.69623305E-01  3.92039403E-12
 -5.41665019E-12 -2.60797700E-11
QEq coupling tensors                       R   N=          24
 -1.63354253E+00 -1.46969403E-18  2.07371833E+00 -9.97929304E-20 -8.38986870E-19
 -4.40175799E-01 -5.08476310E-01 -6.00101230E-18  2.93364499E-01 -6.90292329E-18
 -5.69003370E-17  2.15111810E-01  1.25879265E-01 -3.21629015E-18 -1.42268049E-01
  8.56854494E-20  1.71726394E-01  1.63887843E-02  1.25879265E-01 -4.20033860E-17
 -1.42268049E-01 -2.60820501E-17 -1.71726394E-01  1.63887843E-02
NDeriv for magnetic props                  I                6
ND12 for magnetic props                    I               -2
QEq coupling tensors num derivs            R   N=         288
  0.00000000E+00  8.82946885E-15 -6.01604837E-12 -2.93481051E-01  3.12662670E-13
 -4.33675336E-33  4.99379015E-13 -1.05948535E-16  2.00632863E-12 -7.86240111E-02
  4.62659970E-14 -1.00242993E-12 -1.64501323E-13 -9.02564617E-02  1.82126464E-13
  6.19530478E-02 -1.70376370E-13 -3.52502834E-14 -2.04157891E-13  9.02564617E-02
  2.07829796E-13  6.19530478E-02  2.26189319E-13 -3.94729736E-15 -8.01943948E-12
 -4.27232918E-14  4.00678222E-12 -4.48465045E-14  6.98976424E-01  1.00272369E-11
 -4.00971974E-12 -1.49891992E-14  3.50887196E-12 -4.81946189E-14  7.49759560E-03
 -2.50717641E-12 -8.65266296E-03 -1.54043362E-16  9.63107199E-02 -1.69095087E-15
  3.53370361E-02 -8.76580569E-02  8.65266296E-03  3.27227033E-15 -9.63107199E-02
  1.25226622E-15  3.53370361E-02  8.76580569E-02  3.31859376E-01  3.69337475E-13
 -8.54913749E-02 -5.72582069E-14 -3.86527397E-13 -2.46368001E-01 -5.16363262E-02
 -1.28812811E-14  5.79913032E-02 -2.29789507E-14 -5.29927426E-13 -6.35497699E-03
 -1.21883896E-02  8.50305355E-15  8.77197233E-02 -7.74070535E-15  1.83974633E-02
 -7.55313336E-02 -1.21883896E-02 -5.01716904E-15  8.77197233E-02 -3.24967781E-15
 -1.83974633E-02 -7.55313336E-02 -2.93168748E-02  7.47764027E-15  5.65418719E-01
  4.65830332E-14 -3.09664505E-14 -5.36101844E-01 -2.98932362E-02  1.35801150E-13
  8.72809300E-02  3.11000906E-14  1.89837960E-13 -5.73876938E-02  6.72873332E-03
 -6.59177471E-15 -5.89184918E-02  5.65121616E-15 -1.25680884E-02  5.21897585E-02
  6.72873332E-03 -6.05341264E-15 -5.89184918E-02 -6.09735898E-15  1.25680884E-02
  5.21897585E-02  3.98060159E-01  4.45584046E-14 -5.16039405E-01 -4.68637368E-14
 -1.44323371E-13  1.17979246E-01  1.60626195E-01  3.22190561E-13 -2.86337079E-01
  6.02922181E-14 -7.72585244E-14  1.25710883E-01 -2.93228383E-01 -3.35221250E-15
  3.44839115E-01  2.27116609E-15 -3.95798393E-01 -5.16107312E-02 -2.93228383E-01
 -7.56252519E-15  3.44839115E-01 -1.95885846E-15  3.95798393E-01 -5.16107312E-02
  4.01265726E-12 -2.61628736E-14 -2.00926615E-12  5.21721265E-14  4.71867312E-02
 -2.00485987E-12 -2.50864517E-12 -8.90839189E-15  2.00632863E-12  6.29367647E-14
  2.63881613E-01 -1.00242993E-12 -2.97457361E-01 -2.82139938E-16  3.28697672E-01
 -8.89460234E-16 -4.21269553E-01 -3.12403111E-02  2.97457361E-01  3.85260810E-15
 -3.28697672E-01  3.01010784E-15 -4.21269553E-01  3.12403111E-02 -3.17951130E-01
 -2.86939391E-13  5.91089778E-02  1.14963544E-11 -4.70544214E-11  2.58842151E-01
  1.25434008E-01  1.52036920E-12 -1.04213346E-01 -3.59916512E-12  1.32344439E-11
 -2.12206630E-02 -1.60958853E-01 -9.18312564E-13  1.55900656E-01 -2.11790729E-13
 -1.71019610E-01  5.05819724E-03 -1.60958853E-01  6.20824485E-13  1.55900656E-01
 -5.90477511E-13  1.71019610E-01  5.05819725E-03  6.19478769E-02 -2.21570131E-12
 -1.63047469E-01 -4.29920606E-12  5.35173477E-11  1.01099591E-01  4.86426264E-02
 -2.57109583E-12 -9.13489212E-02  2.87683041E-12  3.00904171E-10  4.27062942E-02
 -8.38395584E-02  5.01760776E-13  1.17967140E-01 -7.52478170E-13 -1.55197264E-01
 -3.41275813E-02 -8.38395584E-02  3.08013928E-13  1.17967140E-01  3.50209920E-13
  1.55197264E-01 -3.41275813E-02  5.74688776E-02 -3.85794266E-11  9.48132428E-02
  5.99286336E-12  3.91723803E-11 -1.52282122E-01  3.25487990E-02  9.74377150E-13
 -2.98352653E-02  2.61458034E-12  3.57164662E-11 -2.71353378E-03 -7.81445267E-02
  5.90948099E-13  7.88407725E-02 -2.46399031E-13 -1.45473001E-01 -6.96245803E-04
 -7.81445267E-02 -5.27866666E-13  7.88407725E-02 -2.74022761E-13  1.45473001E-01
 -6.96245808E-04  8.46479334E-02  5.74650365E-12 -1.65744488E-01  9.58087977E-12
  3.66185469E-13  8.10965548E-02  1.01448806E-01 -9.26960125E-12  1.37314165E-02
 -5.98167552E-12 -2.37072735E-11 -1.15180223E-01 -2.35048866E-02 -7.32182631E-13
  2.68876416E-02  6.20049532E-13 -5.10859069E-02 -3.38275501E-03 -2.35048866E-02
  9.87871294E-13  2.68876416E-02  1.20463036E-13  5.10859069E-02 -3.38275501E-03
  1.59950955E-01 -7.71987635E-13 -2.78886890E-01  9.15707133E-12 -1.92002031E-11
  1.18935933E-01 -2.02171876E-02  6.79641007E-13  2.80814548E-02  3.80006011E-12
 -2.33752138E-11 -7.86426739E-03  6.16461812E-01  5.68540188E-13 -7.36076551E-01
 -1.59100066E-13  8.32144169E-01  1.19614739E-01  6.16461812E-01 -9.74206347E-13
 -7.36076551E-01 -9.34189295E-13 -8.32144169E-01  1.19614739E-01  3.40131969E-01
 -4.23122499E-12 -5.10284134E-01  3.90038967E-12  2.93996763E-11  1.70152165E-01
 -1.01007298E-02  2.08359813E-12 -6.29575694E-02  1.28015489E-11  1.19966344E-11
  7.30582987E-02  6.59096013E-01 -8.21076851E-13 -7.05231751E-01  8.74484117E-13
  9.42700117E-01  4.61357382E-02  6.59096013E-01  5.50041225E-13 -7.05231751E-01
  3.95616929E-14 -9.42700117E-01  4.61357382E-02
Number of Normal Modes                     I                6
Vib-LE2Fix                                 I               14
Vib-NDFDPol                                I                0
Vib-NumROA                                 I                0
Vib-NDim                                   I                4
Vib-NDim0                                  I                4
Vib-LFlags                                 I                8
Vib-IFlags                                 I   N=          48
           0           0           1           0           0           0
           0           0           0           0           2           0
           0           0           0           0           0           0
           3           0           0           0           0           0
           0           0           4           0           0           0
           0           0           0           0           5           0
           0           0           0           0           0           0
           6           0           0           0           0           0
Vib-AtMass                                 R   N=           4
  1.59949146E+01  1.20000000E+01  1.00782504E+00  1.00782504E+00
Vib-E2                                     R   N=          84
  1.19849236E+03  1.27958688E+03  1.56309166E+03  1.84987045E+03  2.91675294E+03
  2.96778781E+03  1.37024376E+00  1.34189190E+00  1.12773667E+00  6.53288600E+00
  1.04467586E+00  1.12206722E+00  1.15962768E+00  1.29451559E+00  1.62340469E+00
  1.31715812E+01  5.23637876E+00  5.82283882E+00  1.44661778E+00  1.25913033E+01
  6.44038443E+00  9.87081797E+01  5.59589207E+01  1.64687853E+02  0.00000000E+00
  0.00000000E+00  0.00000000E+00  0.00000000E+00  0.00000000E+00  0.00000000E+00
  0.00000000E+00  0.00000000E+00  0.00000000E+00  0.00000000E+00  0.00000000E+00
  0.00000000E+00  0.00000000E+00  0.00000000E+00  0.00000000E+00  0.00000000E+00
  0.00000000E+00  0.00000000E+00  0.00000000E+00  0.00000000E+00  0.00000000E+00
  0.00000000E+00  0.00000000E+00  0.00000000E+00  0.00000000E+00  0.00000000E+00
  0.00000000E+00  0.00000000E+00  0.00000000E+00  0.00000000E+00  0.00000000E+00
  0.00000000E+00  0.00000000E+00  0.00000000E+00  0.00000000E+00  0.00000000E+00
  0.00000000E+00  0.00000000E+00  0.00000000E+00  0.00000000E+00  0.00000000E+00
  0.00000000E+00  0.00000000E+00  0.00000000E+00  0.00000000E+00  0.00000000E+00
  0.00000000E+00  0.00000000E+00  0.00000000E+00  0.00000000E+00  0.00000000E+00
  0.00000000E+00  0.00000000E+00  0.00000000E+00  0.00000000E+00  0.00000000E+00
  0.00000000E+00  0.00000000E+00  0.00000000E+00  0.00000000E+00
Vib-Modes                                  R   N=          72
  4.32055620E-02 -2.50798220E-16 -4.61779355E-19 -1.74428964E-01  3.34750765E-16
 -3.90375224E-17  6.95596081E-01 -1.04238818E-15 -2.32256473E-15  6.95596081E-01
  1.03691794E-15  2.79470659E-15  1.35234487E-16  7.92782382E-02  1.05588415E-15
 -5.35414346E-16 -1.47723075E-01  2.74938299E-16  2.09907889E-15  2.50355084E-01
  6.50591084E-01  2.12973854E-15  2.50355084E-01 -6.50591084E-01  1.06978134E-17
  1.09423170E-15 -8.85108704E-02 -5.31251972E-17 -1.95740272E-15  1.50814264E-02
  2.52659888E-16  3.47440739E-01  6.12579889E-01  2.10110670E-16 -3.47440739E-01
  6.12579889E-01 -1.67779428E-17 -4.00957534E-16 -3.81258565E-01  7.19446449E-17
  5.09889150E-16  5.51769758E-01 -3.23087445E-16 -4.55808637E-01 -2.59488933E-01
 -2.67266986E-16  4.55808637E-01 -2.59488933E-01  4.84182348E-17  6.31786772E-17
  1.14240423E-03 -1.89736786E-16 -8.78396812E-16  5.78850631E-02  7.82774092E-16
  6.10929671E-01 -3.53679155E-01  7.07956785E-16 -6.10929671E-01 -3.53679155E-01
 -4.63647764E-17  1.02575581E-03  7.59800919E-17  1.81194900E-16 -1.01939253E-01
 -6.92632829E-16 -7.47469661E-16  5.98746863E-01 -3.69196239E-01 -6.74144318E-16
  5.98746863E-01  3.69196239E-01
Anharmonic Number of Normal Modes          I               27
Anharmonic Vib-LE2Fix                      I               14
Anharmonic Vib-NDFDPol                     I                0
Anharmonic Vib-NumROA                      I                0
Anharmonic Vib-NDim                        I                4
Anharmonic Vib-NDim0                       I                4
Anharmonic Vib-LFlags                      I                8
Anharmonic Vib-IFlags                      I   N=         216
           1           0           4           0           0           0
           0           0           1           0           6           0
           0           0           0           0           1           0
           3           0           0           0           0           0
           1           0           2           0           0           0
           0           0           1           0           1           0
           0           0           0           0           1           0
           5           0           0           0           0           0
           2           0           4           0           0           0
           0           0           3           0           6           4
           0           0           0           0           2           0
           6           0           0           0           0           0
           3           0           4           3           0           0
           0           0           3           0           6           3
           0           0           0           0           2           0
           3           0           0           0           0           0
           3           0           4           2           0           0
           0           0           3           0           6           2
           0           0           0           0           3           0
           3           2           0           0           0           0
           2           0           2           0           0           0
           0           0           3           0           4           1
           0           0           0           0           3           0
           6           1           0           0           0           0
           3           0           3           1           0           0
           0           0           3           0           2           1
           0           0           0           0           2           0
           1           0           0           0           0           0
           3           0           5           4           0           0
           0           0           3           0           6           5
           0           0           0           0           3           0
           5           3           0           0           0           0
           3           0           5           2           0           0
           0           0           3           0           5           1
           0           0           0           0           2           0
           5           0           0           0           0           0
Anharmonic Vib-AtMass                      R   N=           4
  1.59949146E+01  1.20000000E+01  1.00782504E+00  1.00782504E+00
Anharmonic Vib-E2                          R   N=         378
  1.17990804E+03  1.25889812E+03  1.52943889E+03  1.82364594E+03  2.75818474E+03
  2.71876025E+03  2.35403358E+03  2.44644945E+03  2.51431577E+03  2.70922941E+03
  2.84498002E+03  3.05995399E+03  2.99833060E+03  3.08398432E+03  3.34707784E+03
  3.62960921E+03  3.93012557E+03  4.00907153E+03  4.25677596E+03  4.58148885E+03
  5.45038511E+03  3.94023032E+03  4.00852834E+03  4.27426211E+03  4.60476532E+03
  5.40044620E+03  5.48457012E+03  0.00000000E+00  0.00000000E+00  0.00000000E+00
  0.00000000E+00  0.00000000E+00  0.00000000E+00  0.00000000E+00  0.00000000E+00
  0.00000000E+00  0.00000000E+00  0.00000000E+00  0.00000000E+00  0.00000000E+00
  0.00000000E+00  0.00000000E+00  0.00000000E+00  0.00000000E+00  0.00000000E+00
  0.00000000E+00  0.00000000E+00  0.00000000E+00  0.00000000E+00  0.00000000E+00
  0.00000000E+00  0.00000000E+00  0.00000000E+00  0.00000000E+00  0.00000000E+00
  0.00000000E+00  0.00000000E+00  0.00000000E+00  0.00000000E+00  0.00000000E+00
  0.00000000E+00  0.00000000E+00  0.00000000E+00  0.00000000E+00  0.00000000E+00
  0.00000000E+00  0.00000000E+00  0.00000000E+00  0.00000000E+00  0.00000000E+00
  0.00000000E+00  0.00000000E+00  0.00000000E+00  0.00000000E+00  0.00000000E+00
  0.00000000E+00  0.00000000E+00  0.00000000E+00  0.00000000E+00  0.00000000E+00
  0.00000000E+00  1.64512871E+00  1.32127608E+01  5.38875576E+00  1.01846223E+02
  5.84870371E+01  9.44811333E+01  2.56377561E-02  7.33208665E-24  5.90693084E-01
  1.67459195E-02  8.59900226E+01  1.29601855E+00  7.33922163E-01  4.00351276E+00
  1.78505380E-02  3.79893718E+00  3.50161805E-02  3.71937990E-01  2.82659085E-02
  1.70170239E+00  3.56157177E-03  2.32188593E-23  3.41135876E-02  1.96122237E-01
  4.04819342E+00  2.10651300E-01  1.11084735E+00  0.00000000E+00  0.00000000E+00
  0.00000000E+00  0.00000000E+00  0.00000000E+00  0.00000000E+00  0.00000000E+00
  0.00000000E+00  0.00000000E+00  0.00000000E+00  0.00000000E+00  0.00000000E+00
  0.00000000E+00  0.00000000E+00  0.00000000E+00  0.00000000E+00  0.00000000E+00
  0.00000000E+00  0.00000000E+00  0.00000000E+00  0.00000000E+00  0.00000000E+00
  0.00000000E+00  0.00000000E+00  0.00000000E+00  0.00000000E+00  0.00000000E+00
  0.00000000E+00  0.00000000E+00  0.00000000E+00  0.00000000E+00  0.00000000E+00
  0.00000000E+00  0.00000000E+00  0.00000000E+00  0.00000000E+00  0.00000000E+00
  0.00000000E+00  0.00000000E+00  0.00000000E+00  0.00000000E+00  0.00000000E+00
  0.00000000E+00  0.00000000E+00  0.00000000E+00  0.00000000E+00  0.00000000E+00
  0.00000000E+00  0.00000000E+00  0.00000000E+00  0.00000000E+00  0.00000000E+00
  0.00000000E+00  0.00000000E+00  0.00000000E+00  0.00000000E+00  0.00000000E+00
  0.00000000E+00  0.00000000E+00  0.00000000E+00  0.00000000E+00  0.00000000E+00
  0.00000000E+00  0.00000000E+00  0.00000000E+00  0.00000000E+00  0.00000000E+00
  0.00000000E+00  0.00000000E+00  0.00000000E+00  0.00000000E+00  0.00000000E+00
  0.00000000E+00  0.00000000E+00  0.00000000E+00  0.00000000E+00  0.00000000E+00
  0.00000000E+00  0.00000000E+00  0.00000000E+00  0.00000000E+00  5.56236040E+00
  4.18707164E+01  1.40560656E+01  2.22798266E+02  8.45948010E+01  1.38637777E+02
  4.34484973E-02  1.19563535E-23  9.37237098E-01  2.46587252E-02  1.20580268E+02
  1.68967712E+00  9.76512684E-01  5.17888728E+00  2.12761430E-02  4.17551114E+00
  3.55442822E-02  3.70112828E-01  2.64904636E-02  1.48178222E+00  2.60688525E-03
  2.35085951E-23  3.39507865E-02  1.83051415E-01  3.50720503E+00  1.55611577E-01
  8.08014575E-01  0.00000000E+00  0.00000000E+00  0.00000000E+00  0.00000000E+00
  0.00000000E+00  0.00000000E+00  0.00000000E+00  0.00000000E+00  0.00000000E+00
  0.00000000E+00  0.00000000E+00  0.00000000E+00  0.00000000E+00  0.00000000E+00
  0.00000000E+00  0.00000000E+00  0.00000000E+00  0.00000000E+00  0.00000000E+00
  0.00000000E+00  0.00000000E+00  0.00000000E+00  0.00000000E+00  0.00000000E+00
  0.00000000E+00  0.00000000E+00  0.00000000E+00  0.00000000E+00  0.00000000E+00
  0.00000000E+00  0.00000000E+00  0.00000000E+00  0.00000000E+00  0.00000000E+00
  0.00000000E+00  0.00000000E+00  0.00000000E+00  0.00000000E+00  0.00000000E+00
  0.00000000E+00  0.00000000E+00  0.00000000E+00  0.00000000E+00  0.00000000E+00
  0.00000000E+00  0.00000000E+00  0.00000000E+00  0.00000000E+00  0.00000000E+00
  0.00000000E+00  0.00000000E+00  0.00000000E+00  0.00000000E+00  0.00000000E+00
  0.00000000E+00  0.00000000E+00  0.00000000E+00  0.00000000E+00  0.00000000E+00
  0.00000000E+00  0.00000000E+00  0.00000000E+00  0.00000000E+00  0.00000000E+00
  0.00000000E+00  0.00000000E+00  0.00000000E+00  0.00000000E+00  0.00000000E+00
  0.00000000E+00  0.00000000E+00  0.00000000E+00  0.00000000E+00  0.00000000E+00
  0.00000000E+00  0.00000000E+00  0.00000000E+00  0.00000000E+00  0.00000000E+00
  0.00000000E+00  0.00000000E+00  0.00000000E+00  0.00000000E+00  0.00000000E+00
  0.00000000E+00  0.00000000E+00  0.00000000E+00  0.00000000E+00  0.00000000E+00
  0.00000000E+00  0.00000000E+00  0.00000000E+00  0.00000000E+00  0.00000000E+00
  0.00000000E+00  0.00000000E+00  0.00000000E+00  0.00000000E+00  0.00000000E+00
  0.00000000E+00  0.00000000E+00  0.00000000E+00  0.00000000E+00  0.00000000E+00
  0.00000000E+00  0.00000000E+00  0.00000000E+00  0.00000000E+00  0.00000000E+00
  0.00000000E+00  0.00000000E+00  0.00000000E+00  0.00000000E+00  0.00000000E+00
  0.00000000E+00  0.00000000E+00  0.00000000E+00  0.00000000E+00  0.00000000E+00
  0.00000000E+00  0.00000000E+00  0.00000000E+00  0.00000000E+00  0.00000000E+00
  0.00000000E+00  0.00000000E+00  0.00000000E+00  0.00000000E+00  0.00000000E+00
  0.00000000E+00  0.00000000E+00  0.00000000E+00  0.00000000E+00  0.00000000E+00
  0.00000000E+00  0.00000000E+00  0.00000000E+00  0.00000000E+00  0.00000000E+00
  0.00000000E+00  0.00000000E+00  0.00000000E+00  0.00000000E+00  0.00000000E+00
  0.00000000E+00  0.00000000E+00  0.00000000E+00  0.00000000E+00  0.00000000E+00
  0.00000000E+00  0.00000000E+00  0.00000000E+00  0.00000000E+00  0.00000000E+00
  0.00000000E+00  0.00000000E+00  0.00000000E+00  0.00000000E+00  0.00000000E+00
  0.00000000E+00  0.00000000E+00  0.00000000E+00
Anharmonic Vib-Modes                       R   N=         324
  3.69097192E-02 -2.18895446E-16  1.46220117E-18 -1.49011465E-01  3.04716610E-16
 -4.08448487E-17  5.94234975E-01 -9.65245990E-16 -1.95423231E-15  5.94234975E-01
  8.11067094E-16  2.41735873E-15 -1.25391788E-16 -6.84367814E-02 -9.09917983E-16
  4.78389531E-16  1.27434841E-01 -2.40770442E-16 -1.81155190E-15 -2.15601718E-01
 -5.61949170E-01 -1.89449159E-15 -2.15601718E-01  5.61949170E-01 -1.44364888E-17
 -1.03309370E-15  7.93497359E-02  5.19809295E-17  1.85191046E-15 -8.65621982E-03
 -2.57450137E-16 -3.34412545E-01 -5.78134881E-01 -1.32360329E-16  3.34412545E-01
 -5.78134881E-01 -1.85102724E-18  1.40495540E-16  1.50675930E-01 -1.37680169E-17
 -1.58733526E-16 -2.16915178E-01  1.27351143E-16  1.64123384E-01  9.57177533E-02
  6.59594194E-17 -1.64123384E-01  9.57177533E-02  4.74985186E-17  7.52463742E-17
  1.77471036E-04 -1.89154210E-16 -8.82103244E-16  5.66221481E-02  8.61806371E-16
  6.02103742E-01 -3.38503404E-01  6.36584432E-16 -6.02103742E-01 -3.38503404E-01
  4.57071499E-17  3.85083296E-02 -3.96121308E-02 -1.79737534E-16 -1.42566950E-01
 -1.22698138E-02  7.14987770E-16  7.74955653E-01  4.36076510E-01  6.99710606E-16
  3.11409459E-01  3.38691320E-01  7.38194384E-02 -4.69757468E-16 -9.13150963E-04
 -2.98022930E-01  7.81262883E-16 -5.65405007E-03  1.18846995E+00 -1.01785175E-01
  4.09070868E-02  1.18846995E+00  1.01785175E-01  4.09070868E-02  3.69097192E-02
 -6.84376716E-02 -9.08521702E-16 -1.49011465E-01  1.27523309E-01 -2.81016154E-16
  5.94234975E-01 -2.16121339E-01 -5.61628764E-01  5.94234975E-01 -2.16121339E-01
  5.61628764E-01 -2.57688106E-16 -1.36875343E-01 -3.18245297E-03  9.84573813E-16
  2.55046618E-01 -7.53459885E-03 -3.74962550E-15 -5.17092426E-01 -1.05314702E+00
 -3.88382894E-15 -3.47392930E-01  1.19336804E+00  3.74473553E-02 -1.25063444E-15
  8.33475350E-02 -1.51182003E-01  2.15205666E-15 -1.42016422E-02  6.02890749E-01
 -3.27172573E-01 -5.76844669E-01  6.02890749E-01  3.27172573E-01 -5.76844669E-01
 -1.46155591E-16 -5.79344516E-02  8.26841148E-02  5.47209305E-16  4.73784542E-02
 -3.92401355E-02 -2.11526349E-15 -4.60275830E-02 -1.12662142E+00 -2.08066864E-15
  4.01362233E-01  2.81590093E-01 -2.46284098E-17 -2.06085088E-15  1.63842305E-01
  8.63718715E-17  3.62815369E-15 -1.88555249E-02 -4.32875270E-16 -6.10081813E-01
 -1.18789339E+00 -2.04669067E-16  6.10081813E-01 -1.18789339E+00  3.66666016E-02
 -5.72732155E-17  1.49165047E-01 -1.48029954E-01  9.84307116E-17 -2.15876493E-01
  5.90320858E-01  1.78332300E-01  1.01523434E-01  5.90320858E-01 -1.78332300E-01
  1.01523434E-01 -1.12824158E-16 -6.53778755E-02  1.44191675E-01  4.11219753E-16
  1.37103225E-01 -2.12400589E-01 -1.47552843E-15 -1.10122245E-01 -3.58534763E-01
 -1.63019343E-15 -4.84748037E-01  5.99125667E-01 -1.66627694E-17 -8.52768932E-16
  2.26200540E-01  4.00152580E-17  1.63664365E-15 -2.25508865E-01 -1.37731828E-16
 -1.69650208E-01 -4.52435650E-01 -7.42727496E-17  1.69650208E-01 -4.52435650E-01
 -5.13321248E-19  3.25437854E-16  2.85782489E-01 -3.83298352E-17 -4.40896454E-16
 -4.13904920E-01  2.99928141E-16  3.61769009E-01  1.96359740E-01  1.64605419E-16
 -3.61769009E-01  1.96359740E-01  3.83516972E-02 -1.65609410E-16  1.11770971E-03
 -1.54833001E-01 -5.41531902E-16  5.66338036E-02  6.17450371E-01  5.97723647E-01
 -3.46033929E-01  6.17450371E-01 -5.97723647E-01 -3.46033929E-01 -8.12860504E-17
 -7.02955661E-02  1.11770971E-03  3.02183291E-16  1.31303664E-01  5.66338036E-02
 -9.99528883E-16  3.73839353E-01 -9.21707199E-01 -1.30844717E-15 -8.21607940E-01
  2.29639341E-01  3.29345585E-17 -9.76596287E-16  8.41023521E-02 -1.37188819E-16
  1.00186345E-15  4.38610228E-02  6.05236160E-16  2.66492931E-01 -9.28505519E-01
  5.05552251E-16 -2.66492931E-01 -9.28505519E-01  4.64520820E-17  2.29460440E-16
  1.51078202E-01 -2.06220904E-16 -1.07505301E-15 -1.61020967E-01  1.00489771E-15
  7.79521931E-01 -2.40235816E-01  7.13311012E-16 -7.79521931E-01 -2.40235816E-01
  9.46296251E-17  1.23871881E-16  2.41824250E-03 -3.76989722E-16 -1.71655655E-15
  1.13003020E-01  1.71708001E-15  1.19566587E+00 -6.91943427E-01  1.26983119E-15
 -1.19566587E+00 -6.91943427E-01  3.69097192E-02  9.68354888E-04  7.31689981E-17
 -1.49011465E-01 -9.62347693E-02 -6.92583851E-16  5.94234975E-01  5.65241206E-01
 -3.48536151E-01  5.94234975E-01  5.65241206E-01  3.48536151E-01 -1.69464918E-16
 -6.74693167E-02 -1.00070805E-03  6.39318415E-16  3.12885397E-02  3.77461067E-03
 -2.43940678E-15  3.36008997E-01 -9.24695755E-01 -2.48331680E-15  3.62230736E-01
  8.95634076E-01 -5.91017155E-17 -3.90844748E-04  8.33475350E-02  2.14435328E-16
 -9.09939511E-02 -1.42016422E-02 -8.84601169E-16  2.17653613E-01 -9.26311477E-01
 -7.30656427E-16  8.71998759E-01 -2.27377862E-01 -4.39593942E-17  1.91247540E-03
  1.49165047E-01  1.39080012E-16 -1.00282901E-01 -2.15876493E-01 -4.63864319E-16
  7.60181774E-01 -2.47905677E-01 -4.94470064E-16  4.03517174E-01  4.50952545E-01
  1.13899650E-17  8.61092964E-04  1.11770971E-03 -5.76784528E-17 -7.95707409E-02
  5.66338036E-02  3.50653898E-16  1.06460815E+00 -6.33296680E-01  1.55346546E-16
 -1.30839144E-01 -5.87711782E-02 -9.28367566E-17  1.93670978E-03  4.20197868E-04
  3.39848277E-16 -1.92469539E-01 -8.31836752E-03 -1.33333501E-15  1.06303888E+00
 -6.50884037E-01 -1.23979349E-15  1.19792594E+00  7.43260568E-01
Anharmonic number of displacements         I                6
Anharmonic displacement N1                 I                0
Anharmonic displacement flags              I   N=           6
           1           2           3           4           5           6
Anharmonic displacements                   R   N=          72
  3.69097192E-02 -2.14252320E-16 -3.94489634E-19 -1.49011465E-01  2.85971439E-16
 -3.33490394E-17  5.94234975E-01 -8.90493108E-16 -1.98412445E-15  5.94234975E-01
  8.85819976E-16  2.38746659E-15 -1.16742420E-16 -6.84376716E-02 -9.11501749E-16
  4.62201381E-16  1.27523309E-01 -2.37343026E-16 -1.81204924E-15 -2.16121339E-01
 -5.61628764E-01 -1.83851647E-15 -2.16121339E-01  5.61628764E-01 -1.00737500E-17
 -1.03039903E-15  8.33475350E-02  5.00261066E-17  1.84321644E-15 -1.42016422E-02
 -2.37920820E-16 -3.27172573E-01 -5.76844669E-01 -1.97853736E-16  3.27172573E-01
 -5.76844669E-01  6.56426596E-18  1.56872146E-16  1.49165047E-01 -2.81478957E-17
 -1.99490965E-16 -2.15876493E-01  1.26405957E-16  1.78332300E-01  1.01523434E-01
  1.04566549E-16 -1.78332300E-01  1.01523434E-01  4.73716129E-17  6.18129895E-17
  1.11770971E-03 -1.85635384E-16 -8.59409145E-16  5.66338036E-02  7.65853432E-16
  5.97723647E-01 -3.46033929E-01  6.92653396E-16 -5.97723647E-01 -3.46033929E-01
 -4.37702203E-17  9.68354888E-04  7.17282736E-17  1.71055299E-16 -9.62347693E-02
 -6.53873347E-16 -7.05641530E-16  5.65241206E-01 -3.48536151E-01 -6.36419447E-16
  5.65241206E-01  3.48536151E-01
ClPar MaxAn                                I              200
ClPar NIntPar                              I               12
ClPar NRealPar                             I               16
ClPar NBits                                I               30
ClPar LenBitVec                            I                1
ClPar Read BitMap                          I   N=         200
           0           0           0           0           0           0
           0           0           0           0           0           0
           0           0           0           0           0           0
           0           0           0           0           0           0
           0           0           0           0           0           0
           0           0           0           0           0           0
           0           0           0           0           0           0
           0           0           0           0           0           0
           0           0           0           0           0           0
           0           0           0           0           0           0
           0           0           0           0           0           0
           0           0           0           0           0           0
           0           0           0           0           0           0
           0           0           0           0           0           0
           0           0           0           0           0           0
           0           0           0           0           0           0
           0           0           0           0           0           0
           0           0           0           0           0           0
           0           0           0           0           0           0
           0           0           0           0           0           0
           0           0           0           0           0           0
           0           0           0           0           0           0
           0           0           0           0           0           0
           0           0           0           0           0           0
           0           0           0           0           0           0
           0           0           0           0           0           0
           0           0           0           0           0           0
           0           0           0           0           0           0
           0           0           0           0           0           0
           0           0           0           0           0           0
           0           0           0           0           0           0
           0           0           0           0           0           0
           0           0           0           0           0           0
           0           0
ClPar Default BitMap                       I   N=         200
      516096      516096      516096      516096      516096      516096
      516096      516096      516096      516096      516096      516096
      516096      516096      516096      516096      516096      516096
      516096      516096      516096      516096      516096      516096
      516096      516096      516096      516096      516096      516096
      516096      516096      516096      516096      516096      516096
      516096      516096      516096      516096      516096      516096
      516096      516096      516096      516096      516096      516096
      516096      516096      516096      516096      516096      516096
      516096      516096      516096      516096      516096      516096
      516096      516096      516096      516096      516096      516096
      516096      516096      516096      516096      516096      516096
      516096      516096      516096      516096      516096      516096
      516096      516096      516096      516096      516096      516096
      516096      516096      122880      122880      122880      122880
      122880      122880      122880      122880      122880      122880
      122880      122880      122880      122880      122880      122880
      122880      122880      122880      122880      122880      122880
      122880      122880      122880      122880      122880      122880
      122880      122880      122880      122880      122880      122880
      122880      122880      122880      122880      122880      122880
      122880      122880      122880      122880      122880      122880
      122880      122880      122880      122880      122880      122880
      122880      122880      122880      122880      122880      122880
      122880      122880      122880      122880      122880      122880
      122880      122880      122880      122880      122880      122880
      122880      122880      122880      122880      122880      122880
      122880      122880      122880      122880      122880      122880
      122880      122880      122880      122880      122880      122880
      122880      122880      122880      122880      122880      122880
      122880      122880      122880      122880      122880      122880
      122880      122880      122880      122880      122880      122880
      122880      122880      122880      122880      122880      122880
      122880      122880
ClPar Int Params                           I   N=        2400
           0           0           0           0           0           0
           0           0           0           0           0           0
           0           0           0           0           0           0
           0           0           0           0           0           0
           0           0           0           0           0           0
           0           0           0           0           0           0
           0           0           0           0           0           0
           0           0           0           0           0           0
           0           0           0           0           0           0
           0           0           0           0           0           0
           0           0           0           0           0           0
           0           0           0           0           0           0
           0           0           0           0           0           0
           0           0           0           0           0           0
           0           0           0           0           0           0
           0           0           0           0           0           0
           0           0           0           0           0           0
           0           0           0           0           0           0
           0           0           0           0           0           0
           0           0           0           0           0           0
           0           0           0           0           0           0
           0           0           0           0           0           0
           0           0           0           0           0           0
           0           0           0           0           0           0
           0           0           0           0           0           0
           0           0           0           0           0           0
           0           0           0           0           0           0
           0           0           0           0           0           0
           0           0           0           0           0           0
           0           0           0           0           0           0
           0           0           0           0           0           0
           0           0           0           0           0           0
           0           0           0           0           0           0
           0           0           0           0           0           0
           0           0           0           0           0           0
           0           0           0           0           0           0
           0           0           0           0           0           0
           0           0           0           0           0           0
           0           0           0           0           0           0
           0           0           0           0           0           0
           0           0           0           0           0           0
           0           0           0           0           0           0
           0           0           0           0           0           0
           0           0           0           0           0           0
           0           0           0           0           0           0
           0           0           0           0           0           0
           0           0           0           0           0           0
           0           0           0           0           0           0
           0           0           0           0           0           0
           0           0           0           0           0           0
           0           0           0           0           0           0
           0           0           0           0           0           0
           0           0           0           0           0           0
           0           0           0           0           0           0
           0           0           0           0           0           0
           0           0           0           0           0           0
           0           0           0           0           0           0
           0           0           0           0           0           0
           0           0           0           0           0           0
           0           0           0           0           0           0
           0           0           0           0           0           0
           0           0           0           0           0           0
           0           0           0           0           0           0
           0           0           0           0           0           0
           0           0           0           0           0           0
           0           0           0           0           0           0
           0           0           0           0           0           0
           0           0           0           0           0           0
           0           0           0           0           0           0
           0           0           0           0           0           0
           0           0           0           0           0           0
           0           0           0           0           0           0
           0           0           0           0           0           0
           0           0           0           0           0           0
           0           0           0           0           0           0
           0           0           0           0           0           0
           0           0           0           0           0           0
           0           0           0           0           0           0
           0           0           0           0           0           0
           0           0           0           0           0           0
           0           0           0           0           0           0
           0           0           0           0           0           0
           0           0           0           0           0           0
           0           0           0           0           0           0
           0           0           0           0           0           0
           0           0           0           0           0           0
           0           0           0           0           0           0
           0           0           0           0           0           0
           0           0           0           0           0           0
           0           0           0           0           0           0
           0           0           0           0           0           0
           0           0           0           0           0           0
           0           0           0           0           0           0
           0           0           0           0           0           0
           0           0           0           0           0           0
           0           0           0           0           0           0
           0           0           0           0           0           0
           0           0           0           0           0           0
           0           0           0           0           0           0
           0           0           0           0           0           0
           0           0           0           0           0           0
           0           0           0           0           0           0
           0           0           0           0           0           0
           0           0           0           0           0           0
           0           0           0           0           0           0
           0           0           0           0           0           0
           0           0           0           0           0           0
           0           0           0           0           0           0
           0           0           0           0           0           0
           0           0           0           0           0           0
           0           0           0           0           0           0
           0           0           0           0           0           0
           0           0           0           0           0           0
           0           0           0           0           0           0
           0           0           0           0           0           0
           0           0           0           0           0           0
           0           0           0           0           0           0
           0           0           0           0           0           0
           0           0           0           0           0           0
           0           0           0           0           0           0
           0           0           0           0           0           0
           0           0           0           0           0           0
           0           0           0           0           0           0
           0           0           0           0           0           0
           0           0           0           0           0           0
           0           0           0           0           0           0
           0           0           0           0           0           0
           0           0           0           0           0           0
           0           0           0           0           0           0
           0           0           0           0           0           0
           0           0           0           0           0           0
           0           0           0           0           0           0
           0           0           0           0           0           0
           0           0           0           0           0           0
           0           0           0           0           0           0
           0           0           0           0           0           0
           0           0           0           0           0           0
           0           0           0           0           0           0
           0           0           0           0           0           0
           0           0           0           0           0           0
           0           0           0           0           0           0
           0           0           0           0           0           0
           0           0           0           0           0           0
           0           0           0           0           0           0
           0           0           0           0           0           0
           0           0           0           0           0           0
           0           0           0           0           0           0
           0           0           0           0           0           0
           0           0           0           0           0           0
           0           0           0           0           0           0
           0           0           0           0           0           0
           0           0           0           0           0           0
           0           0           0           0           0           0
           0           0           0           0           0           0
           0           0           0           0           0           0
           0           0           0           0           0           0
           0           0           0           0           0           0
           0           0           0           0           0           0
           0           0           0           0           0           0
           0           0           0           0           0           0
           0           0           0           0           0           0
           0           0           0           0           0           0
           0           0           0           0           0           0
           0           0           0           0           0           0
           0           0           0           0           0           0
           0           0           0           0           0           0
           0           0           0           0           0           0
           0           0           0           0           0           0
           0           0           0           0           0           0
           0           0           0           0           0           0
           0           0           0           0           0           0
           0           0           0           0           0           0
           0           0           0           0           0           0
           0           0           0           0           0           0
           0           0           0           0           0           0
           0           0           0           0           0           0
           0           0           0           0           0           0
           0           0           0           0           0           0
           0           0           0           0           0           0
           0           0           0           0           0           0
           0           0           0           0           0           0
           0           0           0           0           0           0
           0           0           0           0           0           0
           0           0           0           0           0           0
           0           0           0           0           0           0
           0           0           0           0           0           0
           0           0           0           0           0           0
           0           0           0           0           0           0
           0           0           0           0           0           0
           0           0           0           0           0           0
           0           0           0           0           0           0
           0           0           0           0           0           0
           0           0           0           0           0           0
           0           0           0           0           0           0
           0           0           0           0           0           0
           0           0           0           0           0           0
           0           0           0           0           0           0
           0           0           0           0           0           0
           0           0           0           0           0           0
           0           0           0           0           0           0
           0           0           0           0           0           0
           0           0           0           0           0           0
           0           0           0           0           0           0
           0           0           0           0           0           0
           0           0           0           0           0           0
           0           0           0           0           0           0
           0           0           0           0           0           0
           0           0           0           0           0           0
           0           0           0           0           0           0
           0           0           0           0           0           0
           0           0           0           0           0           0
           0           0           0           0           0           0
           0           0           0           0           0           0
           0           0           0           0           0           0
           0           0           0           0           0           0
           0           0           0           0           0           0
           0           0           0           0           0           0
           0           0           0           0           0           0
           0           0           0           0           0           0
           0           0           0           0           0           0
           0           0           0           0           0           0
           0           0           0           0           0           0
           0           0           0           0           0           0
           0           0           0           0           0           0
           0           0           0           0           0           0
           0           0           0           0           0           0
           0           0           0           0           0           0
           0           0           0           0           0           0
           0           0           0           0           0           0
           0           0           0           0           0           0
           0           0           0           0           0           0
           0           0           0           0           0           0
           0           0           0           0           0           0
           0           0           0           0           0           0
           0           0           0           0           0           0
           0           0           0           0           0           0
           0           0           0           0           0           0
           0           0           0           0           0           0
           0           0           0           0           0           0
           0           0           0           0           0           0
           0           0           0           0           0           0
           0           0           0           0           0           0
           0           0           0           0           0           0
           0           0           0           0           0           0
           0           0           0           0           0           0
           0           0           0           0           0           0
           0           0           0           0           0           0
           0           0           0           0           0           0
           0           0           0           0           0           0
           0           0           0           0           0           0
           0           0           0           0           0           0
           0           0           0           0           0           0
           0           0           0           0           0           0
           0           0           0           0           0           0
           0           0           0           0           0           0
           0           0           0           0           0           0
           0           0           0           0           0           0
           0           0           0           0           0           0
           0           0           0           0           0           0
           0           0           0           0           0           0
           0           0           0           0           0           0
           0           0           0           0           0           0
           0           0           0           0           0           0
           0           0           0           0           0           0
           0           0           0           0           0           0
           0           0           0           0           0           0
           0           0           0           0           0           0
           0           0           0           0           0           0
           0           0           0           0           0           0
           0           0           0           0           0           0
           0           0           0           0           0           0
           0           0           0           0           0           0
           0           0           0           0           0           0
           0           0           0           0           0           0
           0           0           0           0           0           0
           0           0           0           0           0           0
           0           0           0           0           0           0
           0           0           0           0           0           0
           0           0           0           0           0           0
           0           0           0           0           0           0
           0           0           0           0           0           0
           0           0           0           0           0           0
           0           0           0           0           0           0
           0           0           0           0           0           0
           0           0           0           0           0           0
           0           0           0           0           0           0
           0           0           0           0           0           0
           0           0           0           0           0           0
           0           0           0           0           0           0
           0           0           0           0           0           0
           0           0           0           0           0           0
           0           0           0           0           0           0
           0           0           0           0           0           0
           0           0           0           0           0           0
           0           0           0           0           0           0
           0           0           0           0           0           0
           0           0           0           0           0           0
           0           0           0           0           0           0
           0           0           0           0           0           0
           0           0           0           0           0           0
           0           0           0           0           0           0
           0           0           0           0           0           0
           0           0           0           0           0           0
           0           0           0           0           0           0
           0           0           0           0           0           0
           0           0           0           0           0           0
           0           0           0           0           0           0
           0           0           0           0           0           0
           0           0           0           0           0           0
           0           0           0           0           0           0
           0           0           0           0           0           0
           0           0           0           0           0           0
           0           0           0           0           0           0
           0           0           0           0           0           0
           0           0           0           0           0           0
           0           0           0           0           0           0
           0           0           0           0           0           0
           0           0           0           0           0           0
           0           0           0           0           0           0
           0           0           0           0           0           0
           0           0           0           0           0           0
           0           0           0           0           0           0
           0           0           0           0           0           0
           0           0           0           0           0           0
           0           0           0           0           0           0
           0           0           0           0           0           0
           0           0           0           0           0           0
           0           0           0           0           0           0
           0           0           0           0           0           0
           0           0           0           0           0           0
           0           0           0           0           0           0
           0           0           0           0           0           0
           0           0           0           0           0           0
           0           0           0           0           0           0
           0           0           0           0           0           0
           0           0           0           0           0           0
           0           0           0           0           0           0
           0           0           0           0           0           0
           0           0           0           0           0           0
           0           0           0           0           0           0
           0           0           0           0           0           0
           0           0           0           0           0           0
           0           0           0           0           0           0
           0           0           0           0           0           0
           0           0           0           0           0           0
           0           0           0           0           0           0
           0           0           0           0           0           0
           0           0           0           0           0           0
           0           0           0           0           0           0
           0           0           0           0           0           0
           0           0           0           0           0           0
           0           0           0           0           0           0
           0           0           0           0           0           0
           0           0           0           0           0           0
           0           0           0           0           0           0
           0           0           0           0           0           0
           0           0           0           0           0           0
           0           0           0           0           0           0
           0           0           0           0           0           0
           0           0           0           0           0           0
           0           0           0           0           0           0
           0           0           0           0           0           0
           0           0           0           0           0           0
           0           0           0           0           0           0
           0           0           0           0           0           0
           0           0           0           0           0           0
           0           0           0           0           0           0
           0           0           0           0           0           0
           0           0           0           0           0           0
           0           0           0           0           0           0
           0           0           0           0           0           0
           0           0           0           0           0           0
           0           0           0           0           0           0
           0           0           0           0           0           0
           0           0           0           0           0           0
           0           0           0           0           0           0
           0           0           0           0           0           0
           0           0           0           0           0           0
           0           0           0           0           0           0
           0           0           0           0           0           0
           0           0           0           0           0           0
           0           0           0           0           0           0
           0           0           0           0           0           0
           0           0           0           0           0           0
           0           0           0           0           0           0
           0           0           0           0           0           0
           0           0           0           0           0           0
           0           0           0           0           0           0
           0           0           0           0           0           0
           0           0           0           0           0           0
           0           0           0           0           0           0
           0           0           0           0           0           0
           0           0           0           0           0           0
           0           0           0           0           0           0
           0           0           0           0           0           0
           0           0           0           0           0           0
           0           0           0           0           0           0
           0           0           0           0           0           0
           0           0           0           0           0           0
           0           0           0           0           0           0
ClPar Real Params                          R   N=        3200
  0.00000000E+00  0.00000000E+00  0.00000000E+00  0.00000000E+00  0.00000000E+00
  0.00000000E+00  0.00000000E+00  0.00000000E+00  0.00000000E+00  0.00000000E+00
  0.00000000E+00  0.00000000E+00  0.00000000E+00  0.00000000E+00  0.00000000E+00
  0.00000000E+00  0.00000000E+00  0.00000000E+00  0.00000000E+00  0.00000000E+00
  0.00000000E+00  0.00000000E+00  0.00000000E+00  0.00000000E+00  0.00000000E+00
  0.00000000E+00  0.00000000E+00  0.00000000E+00  0.00000000E+00  0.00000000E+00
  0.00000000E+00  0.00000000E+00  0.00000000E+00  0.00000000E+00  0.00000000E+00
  0.00000000E+00  0.00000000E+00  0.00000000E+00  0.00000000E+00  0.00000000E+00
  0.00000000E+00  0.00000000E+00  0.00000000E+00  0.00000000E+00  0.00000000E+00
  0.00000000E+00  0.00000000E+00  0.00000000E+00  0.00000000E+00  0.00000000E+00
  0.00000000E+00  0.00000000E+00  0.00000000E+00  0.00000000E+00  0.00000000E+00
  0.00000000E+00  0.00000000E+00  0.00000000E+00  0.00000000E+00  0.00000000E+00
  0.00000000E+00  0.00000000E+00  0.00000000E+00  0.00000000E+00  0.00000000E+00
  0.00000000E+00  0.00000000E+00  0.00000000E+00  0.00000000E+00  0.00000000E+00
  0.00000000E+00  0.00000000E+00  0.00000000E+00  0.00000000E+00  0.00000000E+00
  0.00000000E+00  0.00000000E+00  0.00000000E+00  0.00000000E+00  0.00000000E+00
  0.00000000E+00  0.00000000E+00  0.00000000E+00  0.00000000E+00  0.00000000E+00
  0.00000000E+00  0.00000000E+00  0.00000000E+00  0.00000000E+00  0.00000000E+00
  0.00000000E+00  0.00000000E+00  0.00000000E+00  0.00000000E+00  0.00000000E+00
  0.00000000E+00  0.00000000E+00  0.00000000E+00  0.00000000E+00  0.00000000E+00
  0.00000000E+00  0.00000000E+00  0.00000000E+00  0.00000000E+00  0.00000000E+00
  0.00000000E+00  0.00000000E+00  0.00000000E+00  0.00000000E+00  0.00000000E+00
  0.00000000E+00  0.00000000E+00  0.00000000E+00  0.00000000E+00  0.00000000E+00
  0.00000000E+00  0.00000000E+00  0.00000000E+00  0.00000000E+00  0.00000000E+00
  0.00000000E+00  0.00000000E+00  0.00000000E+00  0.00000000E+00  0.00000000E+00
  0.00000000E+00  0.00000000E+00  0.00000000E+00  0.00000000E+00  0.00000000E+00
  0.00000000E+00  0.00000000E+00  0.00000000E+00  0.00000000E+00  0.00000000E+00
  0.00000000E+00  0.00000000E+00  0.00000000E+00  0.00000000E+00  0.00000000E+00
  0.00000000E+00  0.00000000E+00  0.00000000E+00  0.00000000E+00  0.00000000E+00
  0.00000000E+00  0.00000000E+00  0.00000000E+00  0.00000000E+00  0.00000000E+00
  0.00000000E+00  0.00000000E+00  0.00000000E+00  0.00000000E+00  0.00000000E+00
  0.00000000E+00  0.00000000E+00  0.00000000E+00  0.00000000E+00  0.00000000E+00
  0.00000000E+00  0.00000000E+00  0.00000000E+00  0.00000000E+00  0.00000000E+00
  0.00000000E+00  0.00000000E+00  0.00000000E+00  0.00000000E+00  0.00000000E+00
  0.00000000E+00  0.00000000E+00  0.00000000E+00  0.00000000E+00  0.00000000E+00
  0.00000000E+00  0.00000000E+00  0.00000000E+00  0.00000000E+00  0.00000000E+00
  0.00000000E+00  0.00000000E+00  0.00000000E+00  0.00000000E+00  0.00000000E+00
  0.00000000E+00  0.00000000E+00  0.00000000E+00  0.00000000E+00  0.00000000E+00
  0.00000000E+00  0.00000000E+00  0.00000000E+00  0.00000000E+00  0.00000000E+00
  0.00000000E+00  0.00000000E+00  0.00000000E+00  0.00000000E+00  0.00000000E+00
  2.26000000E-01  4.43000000E-01  1.01000000E-01  1.47000000E-01  1.92000000E-01
  2.40000000E-01  2.75000000E-01  3.03000000E-01  3.25000000E-01  4.13000000E-01
  9.60000000E-02  1.35000000E-01  1.73000000E-01  2.11000000E-01  2.48000000E-01
  2.86000000E-01  3.23000000E-01  3.60000000E-01  8.20000000E-02  1.04000000E-01
  1.17000000E-01  1.23000000E-01  1.29000000E-01  1.34000000E-01  1.40000000E-01
  1.44000000E-01  1.48000000E-01  1.52000000E-01  1.55000000E-01  1.76000000E-01
  1.98000000E-01  2.19000000E-01  2.39000000E-01  2.60000000E-01  2.80000000E-01
  3.00000000E-01  7.90000000E-02  9.90000000E-02  1.19000000E-01  1.26000000E-01
  1.33000000E-01  1.40000000E-01  1.47000000E-01  1.53000000E-01  1.58000000E-01
  1.63000000E-01  1.57000000E-01  1.70000000E-01  1.87000000E-01  2.03000000E-01
  2.19000000E-01  2.34000000E-01  2.50000000E-01  2.65000000E-01  7.40000000E-02
  9.20000000E-02  1.05000000E-01  1.06000000E-01  1.07000000E-01  1.08000000E-01
  1.09000000E-01  1.10000000E-01  1.11000000E-01  1.12000000E-01  1.13000000E-01
  1.14000000E-01  1.15000000E-01  1.16000000E-01  1.17000000E-01  1.17000000E-01
  1.26000000E-01  1.36000000E-01  1.46000000E-01  1.55000000E-01  1.65000000E-01
  1.73000000E-01  1.82000000E-01  1.90000000E-01  1.62000000E-01  1.78000000E-01
  1.10000000E-01  1.35000000E-01  1.59000000E-01  1.83000000E-01  2.07000000E-01
  2.31000000E-01  6.90000000E-02  9.40000000E-02  1.02000000E-01  1.03000000E-01
  1.05000000E-01  1.07000000E-01  1.09000000E-01  1.11000000E-01  1.13000000E-01
  1.15000000E-01  1.17000000E-01  1.19000000E-01  1.20000000E-01  1.22000000E-01
  1.24000000E-01  1.26000000E-01  1.28000000E-01  1.28000000E-01  1.28000000E-01
  1.28000000E-01  1.28000000E-01  1.28000000E-01  1.28000000E-01  1.28000000E-01
  1.28000000E-01  1.28000000E-01  1.28000000E-01  1.28000000E-01  1.28000000E-01
  1.28000000E-01  1.28000000E-01  1.28000000E-01  1.28000000E-01  1.28000000E-01
  1.28000000E-01  1.28000000E-01  1.28000000E-01  1.28000000E-01  1.28000000E-01
  1.28000000E-01  1.28000000E-01  1.28000000E-01  1.28000000E-01  1.28000000E-01
  1.28000000E-01  1.28000000E-01  1.28000000E-01  1.28000000E-01  1.28000000E-01
  1.28000000E-01  1.28000000E-01  1.28000000E-01  1.28000000E-01  1.28000000E-01
  1.28000000E-01  1.28000000E-01  1.28000000E-01  1.28000000E-01  1.28000000E-01
  1.28000000E-01  1.28000000E-01  1.28000000E-01  1.28000000E-01  1.28000000E-01
  1.28000000E-01  1.28000000E-01  1.28000000E-01  1.28000000E-01  1.28000000E-01
  1.28000000E-01  1.28000000E-01  1.28000000E-01  1.28000000E-01  1.28000000E-01
  1.28000000E-01  1.28000000E-01  1.28000000E-01  1.28000000E-01  1.28000000E-01
  1.28000000E-01  1.28000000E-01  1.28000000E-01  1.28000000E-01  1.28000000E-01
  1.28000000E-01  1.28000000E-01  1.28000000E-01  1.28000000E-01  1.28000000E-01
  1.28000000E-01  1.28000000E-01  1.28000000E-01  1.28000000E-01  1.28000000E-01
  1.28000000E-01  1.28000000E-01  1.28000000E-01  1.28000000E-01  1.28000000E-01
  1.28000000E-01  1.28000000E-01  1.28000000E-01  1.28000000E-01  1.28000000E-01
  1.28000000E-01  1.28000000E-01  1.28000000E-01  1.28000000E-01  1.28000000E-01
  1.28000000E-01  1.28000000E-01  1.28000000E-01  1.28000000E-01  1.28000000E-01
  5.47000000E-01  5.92000000E-01  5.99000000E-01  6.68000000E-01  6.98000000E-01
  7.18000000E-01  7.26000000E-01  7.36000000E-01  7.43000000E-01  7.45000000E-01
  6.07000000E-01  6.66000000E-01  6.93000000E-01  7.09000000E-01  7.20000000E-01
  7.29000000E-01  7.35000000E-01  7.40000000E-01  6.08000000E-01  7.34000000E-01
  7.46000000E-01  7.55000000E-01  7.61000000E-01  7.65000000E-01  7.67000000E-01
  7.60000000E-01  7.49000000E-01  7.33000000E-01  7.08000000E-01  6.48000000E-01
  6.88000000E-01  7.09000000E-01  7.22000000E-01  7.31000000E-01  7.38000000E-01
  7.44000000E-01  6.09000000E-01  7.30000000E-01  7.41000000E-01  7.52000000E-01
  7.58000000E-01  7.63000000E-01  7.66000000E-01  7.58000000E-01  7.48000000E-01
  7.33000000E-01  7.01000000E-01  6.45000000E-01  6.86000000E-01  7.08000000E-01
  7.22000000E-01  7.31000000E-01  7.38000000E-01  7.44000000E-01  6.08000000E-01
  7.28000000E-01  7.32000000E-01  7.32000000E-01  7.32000000E-01  7.32000000E-01
  7.32000000E-01  7.32000000E-01  7.32000000E-01  7.32000000E-01  7.32000000E-01
  7.31000000E-01  7.31000000E-01  7.31000000E-01  7.31000000E-01  7.46000000E-01
  7.37000000E-01  7.46000000E-01  7.51000000E-01  7.55000000E-01  7.58000000E-01
  7.47000000E-01  7.32000000E-01  7.11000000E-01  7.41000000E-01  7.07000000E-01
  7.47000000E-01  7.43000000E-01  7.42000000E-01  7.42000000E-01  7.43000000E-01
  7.44000000E-01  6.05000000E-01  7.24000000E-01  7.26000000E-01  7.26000000E-01
  7.27000000E-01  7.27000000E-01  7.27000000E-01  7.28000000E-01  7.28000000E-01
  7.28000000E-01  7.28000000E-01  7.28000000E-01  7.29000000E-01  7.29000000E-01
  7.29000000E-01  7.29000000E-01  7.29000000E-01  7.29000000E-01  7.29000000E-01
  7.29000000E-01  7.29000000E-01  7.29000000E-01  7.29000000E-01  7.29000000E-01
  7.29000000E-01  7.29000000E-01  7.29000000E-01  7.29000000E-01  7.29000000E-01
  7.29000000E-01  7.29000000E-01  7.29000000E-01  7.29000000E-01  7.29000000E-01
  7.29000000E-01  7.29000000E-01  7.29000000E-01  7.29000000E-01  7.29000000E-01
  7.29000000E-01  7.29000000E-01  7.29000000E-01  7.29000000E-01  7.29000000E-01
  7.29000000E-01  7.29000000E-01  7.29000000E-01  7.29000000E-01  7.29000000E-01
  7.29000000E-01  7.29000000E-01  7.29000000E-01  7.29000000E-01  7.29000000E-01
  7.29000000E-01  7.29000000E-01  7.29000000E-01  7.29000000E-01  7.29000000E-01
  7.29000000E-01  7.29000000E-01  7.29000000E-01  7.29000000E-01  7.29000000E-01
  7.29000000E-01  7.29000000E-01  7.29000000E-01  7.29000000E-01  7.29000000E-01
  7.29000000E-01  7.29000000E-01  7.29000000E-01  7.29000000E-01  7.29000000E-01
  7.29000000E-01  7.29000000E-01  7.29000000E-01  7.29000000E-01  7.29000000E-01
  7.29000000E-01  7.29000000E-01  7.29000000E-01  7.29000000E-01  7.29000000E-01
  7.29000000E-01  7.29000000E-01  7.29000000E-01  7.29000000E-01  7.29000000E-01
  7.29000000E-01  7.29000000E-01  7.29000000E-01  7.29000000E-01  7.29000000E-01
  7.29000000E-01  7.29000000E-01  7.29000000E-01  7.29000000E-01  7.29000000E-01
  7.29000000E-01  7.29000000E-01  7.29000000E-01  7.29000000E-01  7.29000000E-01
  7.29000000E-01  7.29000000E-01  7.29000000E-01  7.29000000E-01  7.29000000E-01
  7.29000000E-01  7.29000000E-01  7.29000000E-01  7.29000000E-01  7.29000000E-01
  1.00000000E+00  1.70400000E+00  3.23000000E-01  3.89000000E-01  4.67000000E-01
  5.67000000E-01  6.36000000E-01  6.64000000E-01  6.96000000E-01  8.79000000E-01
  3.07000000E-01  3.48000000E-01  4.00000000E-01  4.54000000E-01  5.09000000E-01
  5.65000000E-01  6.21000000E-01  6.77000000E-01  2.56000000E-01  3.50000000E-01
  3.64000000E-01  3.62000000E-01  3.62000000E-01  3.62000000E-01  3.62000000E-01
  3.65000000E-01  3.69000000E-01  3.75000000E-01  3.86000000E-01  4.46000000E-01
  4.55000000E-01  4.74000000E-01  4.96000000E-01  5.20000000E-01  5.45000000E-01
  5.70000000E-01  2.45000000E-01  3.22000000E-01  3.55000000E-01  3.59000000E-01
  3.64000000E-01  3.70000000E-01  3.76000000E-01  3.85000000E-01  3.95000000E-01
  4.08000000E-01  3.76000000E-01  4.23000000E-01  4.22000000E-01  4.32000000E-01
  4.45000000E-01  4.59000000E-01  4.75000000E-01  4.91000000E-01  2.28000000E-01
  2.92000000E-01  2.89000000E-01  2.92000000E-01  2.95000000E-01  2.98000000E-01
  3.00000000E-01  3.03000000E-01  3.06000000E-01  3.09000000E-01  3.12000000E-01
  3.15000000E-01  3.18000000E-01  3.21000000E-01  3.24000000E-01  3.61000000E-01
  3.69000000E-01  3.70000000E-01  3.72000000E-01  3.75000000E-01  3.78000000E-01
  3.85000000E-01  3.94000000E-01  4.07000000E-01  5.26000000E-01  6.21000000E-01
  3.36000000E-01  3.54000000E-01  3.71000000E-01  3.86000000E-01  4.02000000E-01
  4.17000000E-01  2.09000000E-01  2.94000000E-01  2.65000000E-01  2.72000000E-01
  2.78000000E-01  2.84000000E-01  2.91000000E-01  2.97000000E-01  3.03000000E-01
  3.10000000E-01  3.16000000E-01  3.22000000E-01  3.29000000E-01  3.35000000E-01
  3.41000000E-01  3.48000000E-01  3.54000000E-01  3.54000000E-01  3.54000000E-01
  3.54000000E-01  3.54000000E-01  3.54000000E-01  3.54000000E-01  3.54000000E-01
  3.54000000E-01  3.54000000E-01  3.54000000E-01  3.54000000E-01  3.54000000E-01
  3.54000000E-01  3.54000000E-01  3.54000000E-01  3.54000000E-01  3.54000000E-01
  3.54000000E-01  3.54000000E-01  3.54000000E-01  3.54000000E-01  3.54000000E-01
  3.54000000E-01  3.54000000E-01  3.54000000E-01  3.54000000E-01  3.54000000E-01
  3.54000000E-01  3.54000000E-01  3.54000000E-01  3.54000000E-01  3.54000000E-01
  3.54000000E-01  3.54000000E-01  3.54000000E-01  3.54000000E-01  3.54000000E-01
  3.54000000E-01  3.54000000E-01  3.54000000E-01  3.54000000E-01  3.54000000E-01
  3.54000000E-01  3.54000000E-01  3.54000000E-01  3.54000000E-01  3.54000000E-01
  3.54000000E-01  3.54000000E-01  3.54000000E-01  3.54000000E-01  3.54000000E-01
  3.54000000E-01  3.54000000E-01  3.54000000E-01  3.54000000E-01  3.54000000E-01
  3.54000000E-01  3.54000000E-01  3.54000000E-01  3.54000000E-01  3.54000000E-01
  3.54000000E-01  3.54000000E-01  3.54000000E-01  3.54000000E-01  3.54000000E-01
  3.54000000E-01  3.54000000E-01  3.54000000E-01  3.54000000E-01  3.54000000E-01
  3.54000000E-01  3.54000000E-01  3.54000000E-01  3.54000000E-01  3.54000000E-01
  3.54000000E-01  3.54000000E-01  3.54000000E-01  3.54000000E-01  3.54000000E-01
  3.54000000E-01  3.54000000E-01  3.54000000E-01  3.54000000E-01  3.54000000E-01
  3.54000000E-01  3.54000000E-01  3.54000000E-01  3.54000000E-01  3.54000000E-01
  3.54000000E-01  3.54000000E-01  3.54000000E-01  3.54000000E-01  3.54000000E-01
  2.74000000E-01  2.96000000E-01  5.80000000E-02  4.40000000E-02  3.90000000E-02
  3.90000000E-02  3.60000000E-02  3.20000000E-02  2.90000000E-02  3.30000000E-02
  5.50000000E-02  3.90000000E-02  3.30000000E-02  3.00000000E-02  2.80000000E-02
  2.60000000E-02  2.50000000E-02  2.50000000E-02  4.50000000E-02  4.40000000E-02
  3.30000000E-02  2.50000000E-02  2.10000000E-02  1.80000000E-02  1.50000000E-02
  1.80000000E-02  2.10000000E-02  2.50000000E-02  3.30000000E-02  5.00000000E-02
  3.80000000E-02  3.10000000E-02  2.70000000E-02  2.40000000E-02  2.20000000E-02
  2.10000000E-02  4.30000000E-02  4.00000000E-02  3.20000000E-02  2.50000000E-02
  2.10000000E-02  1.80000000E-02  1.60000000E-02  1.90000000E-02  2.20000000E-02
  2.80000000E-02  3.10000000E-02  4.70000000E-02  3.40000000E-02  2.80000000E-02
  2.40000000E-02  2.10000000E-02  1.90000000E-02  1.80000000E-02  3.90000000E-02
  3.60000000E-02  2.50000000E-02  2.50000000E-02  2.50000000E-02  2.60000000E-02
  2.60000000E-02  2.60000000E-02  2.70000000E-02  2.70000000E-02  2.70000000E-02
  2.70000000E-02  2.80000000E-02  2.80000000E-02  2.80000000E-02  3.30000000E-02
  3.30000000E-02  2.60000000E-02  2.10000000E-02  1.80000000E-02  1.60000000E-02
  1.80000000E-02  2.20000000E-02  2.60000000E-02  4.90000000E-02  8.20000000E-02
  3.00000000E-02  2.40000000E-02  2.10000000E-02  1.80000000E-02  1.60000000E-02
  1.50000000E-02  3.50000000E-02  3.60000000E-02  2.20000000E-02  2.30000000E-02
  2.40000000E-02  2.40000000E-02  2.50000000E-02  2.50000000E-02  2.60000000E-02
  2.70000000E-02  2.70000000E-02  2.80000000E-02  2.80000000E-02  2.90000000E-02
  3.00000000E-02  3.00000000E-02  3.10000000E-02  3.10000000E-02  3.10000000E-02
  3.10000000E-02  3.10000000E-02  3.10000000E-02  3.10000000E-02  3.10000000E-02
  3.10000000E-02  3.10000000E-02  3.10000000E-02  3.10000000E-02  3.10000000E-02
  3.10000000E-02  3.10000000E-02  3.10000000E-02  3.10000000E-02  3.10000000E-02
  3.10000000E-02  3.10000000E-02  3.10000000E-02  3.10000000E-02  3.10000000E-02
  3.10000000E-02  3.10000000E-02  3.10000000E-02  3.10000000E-02  3.10000000E-02
  3.10000000E-02  3.10000000E-02  3.10000000E-02  3.10000000E-02  3.10000000E-02
  3.10000000E-02  3.10000000E-02  3.10000000E-02  3.10000000E-02  3.10000000E-02
  3.10000000E-02  3.10000000E-02  3.10000000E-02  3.10000000E-02  3.10000000E-02
  3.10000000E-02  3.10000000E-02  3.10000000E-02  3.10000000E-02  3.10000000E-02
  3.10000000E-02  3.10000000E-02  3.10000000E-02  3.10000000E-02  3.10000000E-02
  3.10000000E-02  3.10000000E-02  3.10000000E-02  3.10000000E-02  3.10000000E-02
  3.10000000E-02  3.10000000E-02  3.10000000E-02  3.10000000E-02  3.10000000E-02
  3.10000000E-02  3.10000000E-02  3.10000000E-02  3.10000000E-02  3.10000000E-02
  3.10000000E-02  3.10000000E-02  3.10000000E-02  3.10000000E-02  3.10000000E-02
  3.10000000E-02  3.10000000E-02  3.10000000E-02  3.10000000E-02  3.10000000E-02
  3.10000000E-02  3.10000000E-02  3.10000000E-02  3.10000000E-02  3.10000000E-02
  3.10000000E-02  3.10000000E-02  3.10000000E-02  3.10000000E-02  3.10000000E-02
  3.10000000E-02  3.10000000E-02  3.10000000E-02  3.10000000E-02  3.10000000E-02
  3.10000000E-02  3.10000000E-02  3.10000000E-02  3.10000000E-02  3.10000000E-02
 -5.92770000E-01 -9.17860000E-01 -2.48668000E+00 -8.36430000E-01 -3.18470000E-01
 -4.55790000E-01 -5.70730000E-01 -6.77940000E-01 -7.69860000E-01 -8.51140000E-01
 -1.51908000E+00 -3.18830000E-01 -2.17900000E-01 -3.01260000E-01 -3.72750000E-01
 -4.15890000E-01 -4.45930000E-01 -5.91320000E-01 -9.56370000E-01 -2.88450000E-01
 -4.87320000E-01 -6.34280000E-01 -7.17490000E-01 -7.91980000E-01 -8.68490000E-01
 -9.17520000E-01 -9.54890000E-01 -9.88460000E-01 -1.50055000E+00 -2.92560000E-01
 -2.14960000E-01 -2.91180000E-01 -3.42080000E-01 -3.84480000E-01 -4.34940000E-01
 -5.24310000E-01 -8.10070000E-01 -2.58460000E-01 -4.35550000E-01 -5.32740000E-01
 -6.08450000E-01 -6.10260000E-01 -7.58920000E-01 -8.90130000E-01 -8.45780000E-01
 -8.69340000E-01 -1.38234000E+00 -2.64850000E-01 -1.97280000E-01 -2.65040000E-01
 -2.94470000E-01 -3.16570000E-01 -3.63590000E-01 -4.57840000E-01 -8.61830000E-01
 -1.33004000E+00 -6.82880000E-01 -6.25540000E-01 -6.35430000E-01 -8.79690000E-01
 -9.02690000E-01 -9.59650000E-01 -1.01869000E+00 -6.81170000E-01 -7.96500000E-01
 -9.04950000E-01 -8.34790000E-01 -9.01560000E-01 -9.74130000E-01 -1.03326000E+00
 -7.15490000E-01 -7.83960000E-01 -8.28380000E-01 -5.61040000E-01 -1.03841000E+00
 -8.62500000E-01 -9.59300000E-01 -1.01755000E+00 -7.64900000E-01 -1.29467000E+00
 -1.92740000E-01 -2.56010000E-01 -3.19820000E-01 -1.94660000E-01 -2.60090000E-01
 -4.27990000E-01  0.00000000E+00  0.00000000E+00  0.00000000E+00  0.00000000E+00
  0.00000000E+00  0.00000000E+00  0.00000000E+00  0.00000000E+00  0.00000000E+00
  0.00000000E+00  0.00000000E+00  0.00000000E+00  0.00000000E+00  0.00000000E+00
  0.00000000E+00  0.00000000E+00  0.00000000E+00  0.00000000E+00  0.00000000E+00
  0.00000000E+00  0.00000000E+00  0.00000000E+00  0.00000000E+00  0.00000000E+00
  0.00000000E+00  0.00000000E+00  0.00000000E+00  0.00000000E+00  0.00000000E+00
  0.00000000E+00  0.00000000E+00  0.00000000E+00  0.00000000E+00  0.00000000E+00
  0.00000000E+00  0.00000000E+00  0.00000000E+00  0.00000000E+00  0.00000000E+00
  0.00000000E+00  0.00000000E+00  0.00000000E+00  0.00000000E+00  0.00000000E+00
  0.00000000E+00  0.00000000E+00  0.00000000E+00  0.00000000E+00  0.00000000E+00
  0.00000000E+00  0.00000000E+00  0.00000000E+00  0.00000000E+00  0.00000000E+00
  0.00000000E+00  0.00000000E+00  0.00000000E+00  0.00000000E+00  0.00000000E+00
  0.00000000E+00  0.00000000E+00  0.00000000E+00  0.00000000E+00  0.00000000E+00
  0.00000000E+00  0.00000000E+00  0.00000000E+00  0.00000000E+00  0.00000000E+00
  0.00000000E+00  0.00000000E+00  0.00000000E+00  0.00000000E+00  0.00000000E+00
  0.00000000E+00  0.00000000E+00  0.00000000E+00  0.00000000E+00  0.00000000E+00
  0.00000000E+00  0.00000000E+00  0.00000000E+00  0.00000000E+00  0.00000000E+00
  0.00000000E+00  0.00000000E+00  0.00000000E+00  0.00000000E+00  0.00000000E+00
  0.00000000E+00  0.00000000E+00  0.00000000E+00  0.00000000E+00  0.00000000E+00
  0.00000000E+00  0.00000000E+00  0.00000000E+00  0.00000000E+00  0.00000000E+00
  0.00000000E+00  0.00000000E+00  0.00000000E+00  0.00000000E+00  0.00000000E+00
  0.00000000E+00  0.00000000E+00  0.00000000E+00  0.00000000E+00  0.00000000E+00
  0.00000000E+00  0.00000000E+00  0.00000000E+00  0.00000000E+00  0.00000000E+00
  1.90440000E+00  1.36430000E+00  4.84000000E-01  7.31600000E+00  9.24030000E+00
  8.78200000E+00  5.61290000E+00  4.83340000E+00  3.24870000E+00  2.71090000E+00
  2.01130000E+00  1.50282000E+01  1.46788000E+01  2.13546000E+01  2.38290000E+01
  1.98022000E+01  1.50468000E+01  1.09745000E+01  1.27219000E+01  1.51949000E+01
  1.57342000E+01  2.79222000E+01  1.61366000E+01  2.21252000E+01  2.45676000E+01
  1.96016000E+01  1.79818000E+01  1.72396000E+01  5.01500000E+00  1.92898000E+01
  2.34477000E+01  2.23993000E+01  2.96586000E+01  2.60081000E+01  2.15580000E+01
  1.69594000E+01  1.56479000E+01  1.86897000E+01  1.93530000E+01  3.43444000E+01
  1.98480000E+01  2.72140000E+01  3.02182000E+01  2.41099000E+01  2.21176000E+01
  2.12047000E+01  7.56690000E+00  2.37264000E+01  2.93879000E+01  3.01278000E+01
  4.19382000E+01  3.85203000E+01  3.39511000E+01  2.75774000E+01  1.56460000E+01
  1.04460000E+01  2.01830000E+01  4.99540000E+01  4.76430000E+01  1.18690000E+01
  1.08670000E+01  9.96100000E+00  9.18700000E+00  3.67980000E+01  1.34070000E+01
  9.38200000E+00  9.81700000E+00  8.90800000E+00  8.40700000E+00  8.05800000E+00
  1.29600000E+01  2.67920000E+01  2.49300000E+01  3.45630000E+01  1.11860000E+01
  1.09440000E+01  1.01270000E+01  9.40400000E+00  1.36660000E+01  7.81000000E+00
  6.93600000E+01  5.86630000E+01  4.79690000E+01  4.52740000E+01  3.92290000E+01
  3.30660000E+01  0.00000000E+00  0.00000000E+00  0.00000000E+00  0.00000000E+00
  0.00000000E+00  0.00000000E+00  0.00000000E+00  0.00000000E+00  0.00000000E+00
  0.00000000E+00  0.00000000E+00  0.00000000E+00  0.00000000E+00  0.00000000E+00
  0.00000000E+00  0.00000000E+00  0.00000000E+00  0.00000000E+00  0.00000000E+00
  0.00000000E+00  0.00000000E+00  0.00000000E+00  0.00000000E+00  0.00000000E+00
  0.00000000E+00  0.00000000E+00  0.00000000E+00  0.00000000E+00  0.00000000E+00
  0.00000000E+00  0.00000000E+00  0.00000000E+00  0.00000000E+00  0.00000000E+00
  0.00000000E+00  0.00000000E+00  0.00000000E+00  0.00000000E+00  0.00000000E+00
  0.00000000E+00  0.00000000E+00  0.00000000E+00  0.00000000E+00  0.00000000E+00
  0.00000000E+00  0.00000000E+00  0.00000000E+00  0.00000000E+00  0.00000000E+00
  0.00000000E+00  0.00000000E+00  0.00000000E+00  0.00000000E+00  0.00000000E+00
  0.00000000E+00  0.00000000E+00  0.00000000E+00  0.00000000E+00  0.00000000E+00
  0.00000000E+00  0.00000000E+00  0.00000000E+00  0.00000000E+00  0.00000000E+00
  0.00000000E+00  0.00000000E+00  0.00000000E+00  0.00000000E+00  0.00000000E+00
  0.00000000E+00  0.00000000E+00  0.00000000E+00  0.00000000E+00  0.00000000E+00
  0.00000000E+00  0.00000000E+00  0.00000000E+00  0.00000000E+00  0.00000000E+00
  0.00000000E+00  0.00000000E+00  0.00000000E+00  0.00000000E+00  0.00000000E+00
  0.00000000E+00  0.00000000E+00  0.00000000E+00  0.00000000E+00  0.00000000E+00
  0.00000000E+00  0.00000000E+00  0.00000000E+00  0.00000000E+00  0.00000000E+00
  0.00000000E+00  0.00000000E+00  0.00000000E+00  0.00000000E+00  0.00000000E+00
  0.00000000E+00  0.00000000E+00  0.00000000E+00  0.00000000E+00  0.00000000E+00
  0.00000000E+00  0.00000000E+00  0.00000000E+00  0.00000000E+00  0.00000000E+00
  0.00000000E+00  0.00000000E+00  0.00000000E+00  0.00000000E+00  0.00000000E+00
  0.00000000E+00  0.00000000E+00  0.00000000E+00  0.00000000E+00  0.00000000E+00
  0.00000000E+00  0.00000000E+00  0.00000000E+00  0.00000000E+00  0.00000000E+00
  0.00000000E+00  0.00000000E+00  0.00000000E+00  0.00000000E+00  0.00000000E+00
  0.00000000E+00  0.00000000E+00  0.00000000E+00  0.00000000E+00  0.00000000E+00
  0.00000000E+00  0.00000000E+00  0.00000000E+00  0.00000000E+00  0.00000000E+00
  0.00000000E+00  0.00000000E+00  0.00000000E+00  0.00000000E+00  0.00000000E+00
  0.00000000E+00  0.00000000E+00  0.00000000E+00  0.00000000E+00  0.00000000E+00
  0.00000000E+00  0.00000000E+00  0.00000000E+00  0.00000000E+00  0.00000000E+00
  0.00000000E+00  0.00000000E+00  0.00000000E+00  0.00000000E+00  0.00000000E+00
  0.00000000E+00  0.00000000E+00  0.00000000E+00  0.00000000E+00  0.00000000E+00
  0.00000000E+00  0.00000000E+00  0.00000000E+00  0.00000000E+00  0.00000000E+00
  0.00000000E+00  0.00000000E+00  0.00000000E+00  0.00000000E+00  0.00000000E+00
  0.00000000E+00  0.00000000E+00  0.00000000E+00  0.00000000E+00  0.00000000E+00
  0.00000000E+00  0.00000000E+00  0.00000000E+00  0.00000000E+00  0.00000000E+00
  0.00000000E+00  0.00000000E+00  0.00000000E+00  0.00000000E+00  0.00000000E+00
  0.00000000E+00  0.00000000E+00  0.00000000E+00  0.00000000E+00  0.00000000E+00
  0.00000000E+00  0.00000000E+00  0.00000000E+00  0.00000000E+00  0.00000000E+00
  0.00000000E+00  0.00000000E+00  0.00000000E+00  0.00000000E+00  0.00000000E+00
  0.00000000E+00  0.00000000E+00  0.00000000E+00  0.00000000E+00  0.00000000E+00
  0.00000000E+00  0.00000000E+00  0.00000000E+00  0.00000000E+00  0.00000000E+00
  0.00000000E+00  0.00000000E+00  0.00000000E+00  0.00000000E+00  0.00000000E+00
  0.00000000E+00  0.00000000E+00  0.00000000E+00  0.00000000E+00  0.00000000E+00
  0.00000000E+00  0.00000000E+00  0.00000000E+00  0.00000000E+00  0.00000000E+00
  0.00000000E+00  0.00000000E+00  0.00000000E+00  0.00000000E+00  0.00000000E+00
  0.00000000E+00  0.00000000E+00  0.00000000E+00  0.00000000E+00  0.00000000E+00
  0.00000000E+00  0.00000000E+00  0.00000000E+00  0.00000000E+00  0.00000000E+00
  0.00000000E+00  0.00000000E+00  0.00000000E+00  0.00000000E+00  0.00000000E+00
  0.00000000E+00  0.00000000E+00  0.00000000E+00  0.00000000E+00  0.00000000E+00
  0.00000000E+00  0.00000000E+00  0.00000000E+00  0.00000000E+00  0.00000000E+00
  0.00000000E+00  0.00000000E+00  0.00000000E+00  0.00000000E+00  0.00000000E+00
  0.00000000E+00  0.00000000E+00  0.00000000E+00  0.00000000E+00  0.00000000E+00
  0.00000000E+00  0.00000000E+00  0.00000000E+00  0.00000000E+00  0.00000000E+00
  0.00000000E+00  0.00000000E+00  0.00000000E+00  0.00000000E+00  0.00000000E+00
  0.00000000E+00  0.00000000E+00  0.00000000E+00  0.00000000E+00  0.00000000E+00
  0.00000000E+00  0.00000000E+00  0.00000000E+00  0.00000000E+00  0.00000000E+00
  0.00000000E+00  0.00000000E+00  0.00000000E+00  0.00000000E+00  0.00000000E+00
  0.00000000E+00  0.00000000E+00  0.00000000E+00  0.00000000E+00  0.00000000E+00
  0.00000000E+00  0.00000000E+00  0.00000000E+00  0.00000000E+00  0.00000000E+00
  0.00000000E+00  0.00000000E+00  0.00000000E+00  0.00000000E+00  0.00000000E+00
  0.00000000E+00  0.00000000E+00  0.00000000E+00  0.00000000E+00  0.00000000E+00
  0.00000000E+00  0.00000000E+00  0.00000000E+00  0.00000000E+00  0.00000000E+00
  0.00000000E+00  0.00000000E+00  0.00000000E+00  0.00000000E+00  0.00000000E+00
  0.00000000E+00  0.00000000E+00  0.00000000E+00  0.00000000E+00  0.00000000E+00
  0.00000000E+00  0.00000000E+00  0.00000000E+00  0.00000000E+00  0.00000000E+00
  0.00000000E+00  0.00000000E+00  0.00000000E+00  0.00000000E+00  0.00000000E+00
  0.00000000E+00  0.00000000E+00  0.00000000E+00  0.00000000E+00  0.00000000E+00
  0.00000000E+00  0.00000000E+00  0.00000000E+00  0.00000000E+00  0.00000000E+00
  0.00000000E+00  0.00000000E+00  0.00000000E+00  0.00000000E+00  0.00000000E+00
  0.00000000E+00  0.00000000E+00  0.00000000E+00  0.00000000E+00  0.00000000E+00
  0.00000000E+00  0.00000000E+00  0.00000000E+00  0.00000000E+00  0.00000000E+00
  0.00000000E+00  0.00000000E+00  0.00000000E+00  0.00000000E+00  0.00000000E+00
  0.00000000E+00  0.00000000E+00  0.00000000E+00  0.00000000E+00  0.00000000E+00
  0.00000000E+00  0.00000000E+00  0.00000000E+00  0.00000000E+00  0.00000000E+00
  0.00000000E+00  0.00000000E+00  0.00000000E+00  0.00000000E+00  0.00000000E+00
  0.00000000E+00  0.00000000E+00  0.00000000E+00  0.00000000E+00  0.00000000E+00
  0.00000000E+00  0.00000000E+00  0.00000000E+00  0.00000000E+00  0.00000000E+00
  0.00000000E+00  0.00000000E+00  0.00000000E+00  0.00000000E+00  0.00000000E+00
  0.00000000E+00  0.00000000E+00  0.00000000E+00  0.00000000E+00  0.00000000E+00
  0.00000000E+00  0.00000000E+00  0.00000000E+00  0.00000000E+00  0.00000000E+00
  0.00000000E+00  0.00000000E+00  0.00000000E+00  0.00000000E+00  0.00000000E+00
  0.00000000E+00  0.00000000E+00  0.00000000E+00  0.00000000E+00  0.00000000E+00
  0.00000000E+00  0.00000000E+00  0.00000000E+00  0.00000000E+00  0.00000000E+00
  0.00000000E+00  0.00000000E+00  0.00000000E+00  0.00000000E+00  0.00000000E+00
  0.00000000E+00  0.00000000E+00  0.00000000E+00  0.00000000E+00  0.00000000E+00
  0.00000000E+00  0.00000000E+00  0.00000000E+00  0.00000000E+00  0.00000000E+00
  0.00000000E+00  0.00000000E+00  0.00000000E+00  0.00000000E+00  0.00000000E+00
  0.00000000E+00  0.00000000E+00  0.00000000E+00  0.00000000E+00  0.00000000E+00
  0.00000000E+00  0.00000000E+00  0.00000000E+00  0.00000000E+00  0.00000000E+00
  0.00000000E+00  0.00000000E+00  0.00000000E+00  0.00000000E+00  0.00000000E+00
  0.00000000E+00  0.00000000E+00  0.00000000E+00  0.00000000E+00  0.00000000E+00
  0.00000000E+00  0.00000000E+00  0.00000000E+00  0.00000000E+00  0.00000000E+00
  0.00000000E+00  0.00000000E+00  0.00000000E+00  0.00000000E+00  0.00000000E+00
  0.00000000E+00  0.00000000E+00  0.00000000E+00  0.00000000E+00  0.00000000E+00
  0.00000000E+00  0.00000000E+00  0.00000000E+00  0.00000000E+00  0.00000000E+00
  0.00000000E+00  0.00000000E+00  0.00000000E+00  0.00000000E+00  0.00000000E+00
  0.00000000E+00  0.00000000E+00  0.00000000E+00  0.00000000E+00  0.00000000E+00
  0.00000000E+00  0.00000000E+00  0.00000000E+00  0.00000000E+00  0.00000000E+00
  0.00000000E+00  0.00000000E+00  0.00000000E+00  0.00000000E+00  0.00000000E+00
  0.00000000E+00  0.00000000E+00  0.00000000E+00  0.00000000E+00  0.00000000E+00
  0.00000000E+00  0.00000000E+00  0.00000000E+00  0.00000000E+00  0.00000000E+00
  0.00000000E+00  0.00000000E+00  0.00000000E+00  0.00000000E+00  0.00000000E+00
  0.00000000E+00  0.00000000E+00  0.00000000E+00  0.00000000E+00  0.00000000E+00
  0.00000000E+00  0.00000000E+00  0.00000000E+00  0.00000000E+00  0.00000000E+00
  0.00000000E+00  0.00000000E+00  0.00000000E+00  0.00000000E+00  0.00000000E+00
  0.00000000E+00  0.00000000E+00  0.00000000E+00  0.00000000E+00  0.00000000E+00
  0.00000000E+00  0.00000000E+00  0.00000000E+00  0.00000000E+00  0.00000000E+00
  0.00000000E+00  0.00000000E+00  0.00000000E+00  0.00000000E+00  0.00000000E+00
  0.00000000E+00  0.00000000E+00  0.00000000E+00  0.00000000E+00  0.00000000E+00
  0.00000000E+00  0.00000000E+00  0.00000000E+00  0.00000000E+00  0.00000000E+00
  0.00000000E+00  0.00000000E+00  0.00000000E+00  0.00000000E+00  0.00000000E+00
  0.00000000E+00  0.00000000E+00  0.00000000E+00  0.00000000E+00  0.00000000E+00
  0.00000000E+00  0.00000000E+00  0.00000000E+00  0.00000000E+00  0.00000000E+00
  0.00000000E+00  0.00000000E+00  0.00000000E+00  0.00000000E+00  0.00000000E+00
  0.00000000E+00  0.00000000E+00  0.00000000E+00  0.00000000E+00  0.00000000E+00
  0.00000000E+00  0.00000000E+00  0.00000000E+00  0.00000000E+00  0.00000000E+00
  0.00000000E+00  0.00000000E+00  0.00000000E+00  0.00000000E+00  0.00000000E+00
  0.00000000E+00  0.00000000E+00  0.00000000E+00  0.00000000E+00  0.00000000E+00
  0.00000000E+00  0.00000000E+00  0.00000000E+00  0.00000000E+00  0.00000000E+00
  0.00000000E+00  0.00000000E+00  0.00000000E+00  0.00000000E+00  0.00000000E+00
  0.00000000E+00  0.00000000E+00  0.00000000E+00  0.00000000E+00  0.00000000E+00
  0.00000000E+00  0.00000000E+00  0.00000000E+00  0.00000000E+00  0.00000000E+00
  0.00000000E+00  0.00000000E+00  0.00000000E+00  0.00000000E+00  0.00000000E+00
  0.00000000E+00  0.00000000E+00  0.00000000E+00  0.00000000E+00  0.00000000E+00
  0.00000000E+00  0.00000000E+00  0.00000000E+00  0.00000000E+00  0.00000000E+00
  0.00000000E+00  0.00000000E+00  0.00000000E+00  0.00000000E+00  0.00000000E+00
  0.00000000E+00  0.00000000E+00  0.00000000E+00  0.00000000E+00  0.00000000E+00
  0.00000000E+00  0.00000000E+00  0.00000000E+00  0.00000000E+00  0.00000000E+00
  0.00000000E+00  0.00000000E+00  0.00000000E+00  0.00000000E+00  0.00000000E+00
  0.00000000E+00  0.00000000E+00  0.00000000E+00  0.00000000E+00  0.00000000E+00
  0.00000000E+00  0.00000000E+00  0.00000000E+00  0.00000000E+00  0.00000000E+00
  0.00000000E+00  0.00000000E+00  0.00000000E+00  0.00000000E+00  0.00000000E+00
  0.00000000E+00  0.00000000E+00  0.00000000E+00  0.00000000E+00  0.00000000E+00
  0.00000000E+00  0.00000000E+00  0.00000000E+00  0.00000000E+00  0.00000000E+00
  0.00000000E+00  0.00000000E+00  0.00000000E+00  0.00000000E+00  0.00000000E+00
  0.00000000E+00  0.00000000E+00  0.00000000E+00  0.00000000E+00  0.00000000E+00
  0.00000000E+00  0.00000000E+00  0.00000000E+00  0.00000000E+00  0.00000000E+00
  0.00000000E+00  0.00000000E+00  0.00000000E+00  0.00000000E+00  0.00000000E+00
  0.00000000E+00  0.00000000E+00  0.00000000E+00  0.00000000E+00  0.00000000E+00
  0.00000000E+00  0.00000000E+00  0.00000000E+00  0.00000000E+00  0.00000000E+00
  0.00000000E+00  0.00000000E+00  0.00000000E+00  0.00000000E+00  0.00000000E+00
  0.00000000E+00  0.00000000E+00  0.00000000E+00  0.00000000E+00  0.00000000E+00
  0.00000000E+00  0.00000000E+00  0.00000000E+00  0.00000000E+00  0.00000000E+00
  0.00000000E+00  0.00000000E+00  0.00000000E+00  0.00000000E+00  0.00000000E+00
  0.00000000E+00  0.00000000E+00  0.00000000E+00  0.00000000E+00  0.00000000E+00
  0.00000000E+00  0.00000000E+00  0.00000000E+00  0.00000000E+00  0.00000000E+00
  0.00000000E+00  0.00000000E+00  0.00000000E+00  0.00000000E+00  0.00000000E+00
  0.00000000E+00  0.00000000E+00  0.00000000E+00  0.00000000E+00  0.00000000E+00
  0.00000000E+00  0.00000000E+00  0.00000000E+00  0.00000000E+00  0.00000000E+00
  0.00000000E+00  0.00000000E+00  0.00000000E+00  0.00000000E+00  0.00000000E+00
  0.00000000E+00  0.00000000E+00  0.00000000E+00  0.00000000E+00  0.00000000E+00
  0.00000000E+00  0.00000000E+00  0.00000000E+00  0.00000000E+00  0.00000000E+00
  0.00000000E+00  0.00000000E+00  0.00000000E+00  0.00000000E+00  0.00000000E+00
  0.00000000E+00  0.00000000E+00  0.00000000E+00  0.00000000E+00  0.00000000E+00
  0.00000000E+00  0.00000000E+00  0.00000000E+00  0.00000000E+00  0.00000000E+00
  0.00000000E+00  0.00000000E+00  0.00000000E+00  0.00000000E+00  0.00000000E+00
  0.00000000E+00  0.00000000E+00  0.00000000E+00  0.00000000E+00  0.00000000E+00
  0.00000000E+00  0.00000000E+00  0.00000000E+00  0.00000000E+00  0.00000000E+00
  0.00000000E+00  0.00000000E+00  0.00000000E+00  0.00000000E+00  0.00000000E+00
  0.00000000E+00  0.00000000E+00  0.00000000E+00  0.00000000E+00  0.00000000E+00
  0.00000000E+00  0.00000000E+00  0.00000000E+00  0.00000000E+00  0.00000000E+00
  0.00000000E+00  0.00000000E+00  0.00000000E+00  0.00000000E+00  0.00000000E+00
  0.00000000E+00  0.00000000E+00  0.00000000E+00  0.00000000E+00  0.00000000E+00
  0.00000000E+00  0.00000000E+00  0.00000000E+00  0.00000000E+00  0.00000000E+00
  0.00000000E+00  0.00000000E+00  0.00000000E+00  0.00000000E+00  0.00000000E+00
  0.00000000E+00  0.00000000E+00  0.00000000E+00  0.00000000E+00  0.00000000E+00
  0.00000000E+00  0.00000000E+00  0.00000000E+00  0.00000000E+00  0.00000000E+00
  0.00000000E+00  0.00000000E+00  0.00000000E+00  0.00000000E+00  0.00000000E+00
  0.00000000E+00  0.00000000E+00  0.00000000E+00  0.00000000E+00  0.00000000E+00
  0.00000000E+00  0.00000000E+00  0.00000000E+00  0.00000000E+00  0.00000000E+00
  0.00000000E+00  0.00000000E+00  0.00000000E+00  0.00000000E+00  0.00000000E+00
  0.00000000E+00  0.00000000E+00  0.00000000E+00  0.00000000E+00  0.00000000E+00
  0.00000000E+00  0.00000000E+00  0.00000000E+00  0.00000000E+00  0.00000000E+00
  0.00000000E+00  0.00000000E+00  0.00000000E+00  0.00000000E+00  0.00000000E+00
  0.00000000E+00  0.00000000E+00  0.00000000E+00  0.00000000E+00  0.00000000E+00
  0.00000000E+00  0.00000000E+00  0.00000000E+00  0.00000000E+00  0.00000000E+00
  0.00000000E+00  0.00000000E+00  0.00000000E+00  0.00000000E+00  0.00000000E+00
  0.00000000E+00  0.00000000E+00  0.00000000E+00  0.00000000E+00  0.00000000E+00
  0.00000000E+00  0.00000000E+00  0.00000000E+00  0.00000000E+00  0.00000000E+00
  0.00000000E+00  0.00000000E+00  0.00000000E+00  0.00000000E+00  0.00000000E+00
  0.00000000E+00  0.00000000E+00  0.00000000E+00  0.00000000E+00  0.00000000E+00
  0.00000000E+00  0.00000000E+00  0.00000000E+00  0.00000000E+00  0.00000000E+00
  0.00000000E+00  0.00000000E+00  0.00000000E+00  0.00000000E+00  0.00000000E+00
  0.00000000E+00  0.00000000E+00  0.00000000E+00  0.00000000E+00  0.00000000E+00
  0.00000000E+00  0.00000000E+00  0.00000000E+00  0.00000000E+00  0.00000000E+00
  0.00000000E+00  0.00000000E+00  0.00000000E+00  0.00000000E+00  0.00000000E+00
  0.00000000E+00  0.00000000E+00  0.00000000E+00  0.00000000E+00  0.00000000E+00
  0.00000000E+00  0.00000000E+00  0.00000000E+00  0.00000000E+00  0.00000000E+00
  0.00000000E+00  0.00000000E+00  0.00000000E+00  0.00000000E+00  0.00000000E+00
  0.00000000E+00  0.00000000E+00  0.00000000E+00  0.00000000E+00  0.00000000E+00
  0.00000000E+00  0.00000000E+00  0.00000000E+00  0.00000000E+00  0.00000000E+00
  0.00000000E+00  0.00000000E+00  0.00000000E+00  0.00000000E+00  0.00000000E+00
  0.00000000E+00  0.00000000E+00  0.00000000E+00  0.00000000E+00  0.00000000E+00
  0.00000000E+00  0.00000000E+00  0.00000000E+00  0.00000000E+00  0.00000000E+00
  0.00000000E+00  0.00000000E+00  0.00000000E+00  0.00000000E+00  0.00000000E+00
  0.00000000E+00  0.00000000E+00  0.00000000E+00  0.00000000E+00  0.00000000E+00
  0.00000000E+00  0.00000000E+00  0.00000000E+00  0.00000000E+00  0.00000000E+00
  0.00000000E+00  0.00000000E+00  0.00000000E+00  0.00000000E+00  0.00000000E+00
  0.00000000E+00  0.00000000E+00  0.00000000E+00  0.00000000E+00  0.00000000E+00
  0.00000000E+00  0.00000000E+00  0.00000000E+00  0.00000000E+00  0.00000000E+00
  0.00000000E+00  0.00000000E+00  0.00000000E+00  0.00000000E+00  0.00000000E+00
  0.00000000E+00  0.00000000E+00  0.00000000E+00  0.00000000E+00  0.00000000E+00
  0.00000000E+00  0.00000000E+00  0.00000000E+00  0.00000000E+00  0.00000000E+00
  0.00000000E+00  0.00000000E+00  0.00000000E+00  0.00000000E+00  0.00000000E+00
  0.00000000E+00  0.00000000E+00  0.00000000E+00  0.00000000E+00  0.00000000E+00
  0.00000000E+00  0.00000000E+00  0.00000000E+00  0.00000000E+00  0.00000000E+00
  0.00000000E+00  0.00000000E+00  0.00000000E+00  0.00000000E+00  0.00000000E+00
  0.00000000E+00  0.00000000E+00  0.00000000E+00  0.00000000E+00  0.00000000E+00
  0.00000000E+00  0.00000000E+00  0.00000000E+00  0.00000000E+00  0.00000000E+00
  0.00000000E+00  0.00000000E+00  0.00000000E+00  0.00000000E+00  0.00000000E+00
  0.00000000E+00  0.00000000E+00  0.00000000E+00  0.00000000E+00  0.00000000E+00
  0.00000000E+00  0.00000000E+00  0.00000000E+00  0.00000000E+00  0.00000000E+00
  0.00000000E+00  0.00000000E+00  0.00000000E+00  0.00000000E+00  0.00000000E+00
  0.00000000E+00  0.00000000E+00  0.00000000E+00  0.00000000E+00  0.00000000E+00
  0.00000000E+00  0.00000000E+00  0.00000000E+00  0.00000000E+00  0.00000000E+00
  0.00000000E+00  0.00000000E+00  0.00000000E+00  0.00000000E+00  0.00000000E+00
  0.00000000E+00  0.00000000E+00  0.00000000E+00  0.00000000E+00  0.00000000E+00
  0.00000000E+00  0.00000000E+00  0.00000000E+00  0.00000000E+00  0.00000000E+00
  0.00000000E+00  0.00000000E+00  0.00000000E+00  0.00000000E+00  0.00000000E+00
  0.00000000E+00  0.00000000E+00  0.00000000E+00  0.00000000E+00  0.00000000E+00
  0.00000000E+00  0.00000000E+00  0.00000000E+00  0.00000000E+00  0.00000000E+00
  0.00000000E+00  0.00000000E+00  0.00000000E+00  0.00000000E+00  0.00000000E+00
  0.00000000E+00  0.00000000E+00  0.00000000E+00  0.00000000E+00  0.00000000E+00
  0.00000000E+00  0.00000000E+00  0.00000000E+00  0.00000000E+00  0.00000000E+00
  0.00000000E+00  0.00000000E+00  0.00000000E+00  0.00000000E+00  0.00000000E+00
  0.00000000E+00  0.00000000E+00  0.00000000E+00  0.00000000E+00  0.00000000E+00
  0.00000000E+00  0.00000000E+00  0.00000000E+00  0.00000000E+00  0.00000000E+00
  0.00000000E+00  0.00000000E+00  0.00000000E+00  0.00000000E+00  0.00000000E+00
  0.00000000E+00  0.00000000E+00  0.00000000E+00  0.00000000E+00  0.00000000E+00
  0.00000000E+00  0.00000000E+00  0.00000000E+00  0.00000000E+00  0.00000000E+00
  0.00000000E+00  0.00000000E+00  0.00000000E+00  0.00000000E+00  0.00000000E+00
  0.00000000E+00  0.00000000E+00  0.00000000E+00  0.00000000E+00  0.00000000E+00
  0.00000000E+00  0.00000000E+00  0.00000000E+00  0.00000000E+00  0.00000000E+00
  0.00000000E+00  0.00000000E+00  0.00000000E+00  0.00000000E+00  0.00000000E+00
  0.00000000E+00  0.00000000E+00  0.00000000E+00  0.00000000E+00  0.00000000E+00
  0.00000000E+00  0.00000000E+00  0.00000000E+00  0.00000000E+00  0.00000000E+00
  0.00000000E+00  0.00000000E+00  0.00000000E+00  0.00000000E+00  0.00000000E+00
  0.00000000E+00  0.00000000E+00  0.00000000E+00  0.00000000E+00  0.00000000E+00
  0.00000000E+00  0.00000000E+00  0.00000000E+00  0.00000000E+00  0.00000000E+00
  0.00000000E+00  0.00000000E+00  0.00000000E+00  0.00000000E+00  0.00000000E+00
  0.00000000E+00  0.00000000E+00  0.00000000E+00  0.00000000E+00  0.00000000E+00
  0.00000000E+00  0.00000000E+00  0.00000000E+00  0.00000000E+00  0.00000000E+00
  0.00000000E+00  0.00000000E+00  0.00000000E+00  0.00000000E+00  0.00000000E+00
  0.00000000E+00  0.00000000E+00  0.00000000E+00  0.00000000E+00  0.00000000E+00
  0.00000000E+00  0.00000000E+00  0.00000000E+00  0.00000000E+00  0.00000000E+00
  0.00000000E+00  0.00000000E+00  0.00000000E+00  0.00000000E+00  0.00000000E+00
  0.00000000E+00  0.00000000E+00  0.00000000E+00  0.00000000E+00  0.00000000E+00
  0.00000000E+00  0.00000000E+00  0.00000000E+00  0.00000000E+00  0.00000000E+00
  0.00000000E+00  0.00000000E+00  0.00000000E+00  0.00000000E+00  0.00000000E+00
  0.00000000E+00  0.00000000E+00  0.00000000E+00  0.00000000E+00  0.00000000E+00
  0.00000000E+00  0.00000000E+00  0.00000000E+00  0.00000000E+00  0.00000000E+00
  0.00000000E+00  0.00000000E+00  0.00000000E+00  0.00000000E+00  0.00000000E+00
  0.00000000E+00  0.00000000E+00  0.00000000E+00  0.00000000E+00  0.00000000E+00
  0.00000000E+00  0.00000000E+00  0.00000000E+00  0.00000000E+00  0.00000000E+00
  0.00000000E+00  0.00000000E+00  0.00000000E+00  0.00000000E+00  0.00000000E+00
  0.00000000E+00  0.00000000E+00  0.00000000E+00  0.00000000E+00  0.00000000E+00
  0.00000000E+00  0.00000000E+00  0.00000000E+00  0.00000000E+00  0.00000000E+00
  0.00000000E+00  0.00000000E+00  0.00000000E+00  0.00000000E+00  0.00000000E+00
  0.00000000E+00  0.00000000E+00  0.00000000E+00  0.00000000E+00  0.00000000E+00
  0.00000000E+00  0.00000000E+00  0.00000000E+00  0.00000000E+00  0.00000000E+00
  0.00000000E+00  0.00000000E+00  0.00000000E+00  0.00000000E+00  0.00000000E+00
  0.00000000E+00  0.00000000E+00  0.00000000E+00  0.00000000E+00  0.00000000E+00
  0.00000000E+00  0.00000000E+00  0.00000000E+00  0.00000000E+00  0.00000000E+00
  0.00000000E+00  0.00000000E+00  0.00000000E+00  0.00000000E+00  0.00000000E+00
  0.00000000E+00  0.00000000E+00  0.00000000E+00  0.00000000E+00  0.00000000E+00
  0.00000000E+00  0.00000000E+00  0.00000000E+00  0.00000000E+00  0.00000000E+00
  0.00000000E+00  0.00000000E+00  0.00000000E+00  0.00000000E+00  0.00000000E+00
  0.00000000E+00  0.00000000E+00  0.00000000E+00  0.00000000E+00  0.00000000E+00
  0.00000000E+00  0.00000000E+00  0.00000000E+00  0.00000000E+00  0.00000000E+00
  0.00000000E+00  0.00000000E+00  0.00000000E+00  0.00000000E+00  0.00000000E+00
  0.00000000E+00  0.00000000E+00  0.00000000E+00  0.00000000E+00  0.00000000E+00
  0.00000000E+00  0.00000000E+00  0.00000000E+00  0.00000000E+00  0.00000000E+00
  0.00000000E+00  0.00000000E+00  0.00000000E+00  0.00000000E+00  0.00000000E+00
  0.00000000E+00  0.00000000E+00  0.00000000E+00  0.00000000E+00  0.00000000E+00
  0.00000000E+00  0.00000000E+00  0.00000000E+00  0.00000000E+00  0.00000000E+00
  0.00000000E+00  0.00000000E+00  0.00000000E+00  0.00000000E+00  0.00000000E+00
  0.00000000E+00  0.00000000E+00  0.00000000E+00  0.00000000E+00  0.00000000E+00
  0.00000000E+00  0.00000000E+00  0.00000000E+00  0.00000000E+00  0.00000000E+00
  0.00000000E+00  0.00000000E+00  0.00000000E+00  0.00000000E+00  0.00000000E+00
  0.00000000E+00  0.00000000E+00  0.00000000E+00  0.00000000E+00  0.00000000E+00
  0.00000000E+00  0.00000000E+00  0.00000000E+00  0.00000000E+00  0.00000000E+00
  0.00000000E+00  0.00000000E+00  0.00000000E+00  0.00000000E+00  0.00000000E+00
  0.00000000E+00  0.00000000E+00  0.00000000E+00  0.00000000E+00  0.00000000E+00
  0.00000000E+00  0.00000000E+00  0.00000000E+00  0.00000000E+00  0.00000000E+00
  0.00000000E+00  0.00000000E+00  0.00000000E+00  0.00000000E+00  0.00000000E+00
  0.00000000E+00  0.00000000E+00  0.00000000E+00  0.00000000E+00  0.00000000E+00
  0.00000000E+00  0.00000000E+00  0.00000000E+00  0.00000000E+00  0.00000000E+00
  0.00000000E+00  0.00000000E+00  0.00000000E+00  0.00000000E+00  0.00000000E+00
  0.00000000E+00  0.00000000E+00  0.00000000E+00  0.00000000E+00  0.00000000E+00
  0.00000000E+00  0.00000000E+00  0.00000000E+00  0.00000000E+00  0.00000000E+00
  0.00000000E+00  0.00000000E+00  0.00000000E+00  0.00000000E+00  0.00000000E+00
  0.00000000E+00  0.00000000E+00  0.00000000E+00  0.00000000E+00  0.00000000E+00
  0.00000000E+00  0.00000000E+00  0.00000000E+00  0.00000000E+00  0.00000000E+00
  0.00000000E+00  0.00000000E+00  0.00000000E+00  0.00000000E+00  0.00000000E+00
  0.00000000E+00  0.00000000E+00  0.00000000E+00  0.00000000E+00  0.00000000E+00
  0.00000000E+00  0.00000000E+00  0.00000000E+00  0.00000000E+00  0.00000000E+00
  0.00000000E+00  0.00000000E+00  0.00000000E+00  0.00000000E+00  0.00000000E+00
  0.00000000E+00  0.00000000E+00  0.00000000E+00  0.00000000E+00  0.00000000E+00
  0.00000000E+00  0.00000000E+00  0.00000000E+00  0.00000000E+00  0.00000000E+00
  0.00000000E+00  0.00000000E+00  0.00000000E+00  0.00000000E+00  0.00000000E+00
  0.00000000E+00  0.00000000E+00  0.00000000E+00  0.00000000E+00  0.00000000E+00
  0.00000000E+00  0.00000000E+00  0.00000000E+00  0.00000000E+00  0.00000000E+00
  0.00000000E+00  0.00000000E+00  0.00000000E+00  0.00000000E+00  0.00000000E+00
  0.00000000E+00  0.00000000E+00  0.00000000E+00  0.00000000E+00  0.00000000E+00
  0.00000000E+00  0.00000000E+00  0.00000000E+00  0.00000000E+00  0.00000000E+00
  0.00000000E+00  0.00000000E+00  0.00000000E+00  0.00000000E+00  0.00000000E+00
  0.00000000E+00  0.00000000E+00  0.00000000E+00  0.00000000E+00  0.00000000E+00
  0.00000000E+00  0.00000000E+00  0.00000000E+00  0.00000000E+00  0.00000000E+00
  0.00000000E+00  0.00000000E+00  0.00000000E+00  0.00000000E+00  0.00000000E+00
  0.00000000E+00  0.00000000E+00  0.00000000E+00  0.00000000E+00  0.00000000E+00
  0.00000000E+00  0.00000000E+00  0.00000000E+00  0.00000000E+00  0.00000000E+00
  0.00000000E+00  0.00000000E+00  0.00000000E+00  0.00000000E+00  0.00000000E+00
  0.00000000E+00  0.00000000E+00  0.00000000E+00  0.00000000E+00  0.00000000E+00
  0.00000000E+00  0.00000000E+00  0.00000000E+00  0.00000000E+00  0.00000000E+00
  0.00000000E+00  0.00000000E+00  0.00000000E+00  0.00000000E+00  0.00000000E+00
  0.00000000E+00  0.00000000E+00  0.00000000E+00  0.00000000E+00  0.00000000E+00
  0.00000000E+00  0.00000000E+00  0.00000000E+00  0.00000000E+00  0.00000000E+00
  0.00000000E+00  0.00000000E+00  0.00000000E+00  0.00000000E+00  0.00000000E+00
  0.00000000E+00  0.00000000E+00  0.00000000E+00  0.00000000E+00  0.00000000E+00
  0.00000000E+00  0.00000000E+00  0.00000000E+00  0.00000000E+00  0.00000000E+00
  0.00000000E+00  0.00000000E+00  0.00000000E+00  0.00000000E+00  0.00000000E+00
  0.00000000E+00  0.00000000E+00  0.00000000E+00  0.00000000E+00  0.00000000E+00
  0.00000000E+00  0.00000000E+00  0.00000000E+00  0.00000000E+00  0.00000000E+00
  0.00000000E+00  0.00000000E+00  0.00000000E+00  0.00000000E+00  0.00000000E+00
  0.00000000E+00  0.00000000E+00  0.00000000E+00  0.00000000E+00  0.00000000E+00
  0.00000000E+00  0.00000000E+00  0.00000000E+00  0.00000000E+00  0.00000000E+00
  0.00000000E+00  0.00000000E+00  0.00000000E+00  0.00000000E+00  0.00000000E+00
  0.00000000E+00  0.00000000E+00  0.00000000E+00  0.00000000E+00  0.00000000E+00
  0.00000000E+00  0.00000000E+00  0.00000000E+00  0.00000000E+00  0.00000000E+00
  0.00000000E+00  0.00000000E+00  0.00000000E+00  0.00000000E+00  0.00000000E+00
  0.00000000E+00  0.00000000E+00  0.00000000E+00  0.00000000E+00  0.00000000E+00
  0.00000000E+00  0.00000000E+00  0.00000000E+00  0.00000000E+00  0.00000000E+00
  0.00000000E+00  0.00000000E+00  0.00000000E+00  0.00000000E+00  0.00000000E+00
  0.00000000E+00  0.00000000E+00  0.00000000E+00  0.00000000E+00  0.00000000E+00
  0.00000000E+00  0.00000000E+00  0.00000000E+00  0.00000000E+00  0.00000000E+00
  0.00000000E+00  0.00000000E+00  0.00000000E+00  0.00000000E+00  0.00000000E+00
  0.00000000E+00  0.00000000E+00  0.00000000E+00  0.00000000E+00  0.00000000E+00
  0.00000000E+00  0.00000000E+00  0.00000000E+00  0.00000000E+00  0.00000000E+00
  0.00000000E+00  0.00000000E+00  0.00000000E+00  0.00000000E+00  0.00000000E+00
  0.00000000E+00  0.00000000E+00  0.00000000E+00  0.00000000E+00  0.00000000E+00
  0.00000000E+00  0.00000000E+00  0.00000000E+00  0.00000000E+00  0.00000000E+00
  0.00000000E+00  0.00000000E+00  0.00000000E+00  0.00000000E+00  0.00000000E+00
  0.00000000E+00  0.00000000E+00  0.00000000E+00  0.00000000E+00  0.00000000E+00
  0.00000000E+00  0.00000000E+00  0.00000000E+00  0.00000000E+00  0.00000000E+00
  0.00000000E+00  0.00000000E+00  0.00000000E+00  0.00000000E+00  0.00000000E+00
  0.00000000E+00  0.00000000E+00  0.00000000E+00  0.00000000E+00  0.00000000E+00
  0.00000000E+00  0.00000000E+00  0.00000000E+00  0.00000000E+00  0.00000000E+00
  0.00000000E+00  0.00000000E+00  0.00000000E+00  0.00000000E+00  0.00000000E+00
  0.00000000E+00  0.00000000E+00  0.00000000E+00  0.00000000E+00  0.00000000E+00
  0.00000000E+00  0.00000000E+00  0.00000000E+00  0.00000000E+00  0.00000000E+00
  0.00000000E+00  0.00000000E+00  0.00000000E+00  0.00000000E+00  0.00000000E+00
  0.00000000E+00  0.00000000E+00  0.00000000E+00  0.00000000E+00  0.00000000E+00
  0.00000000E+00  0.00000000E+00  0.00000000E+00  0.00000000E+00  0.00000000E+00
  0.00000000E+00  0.00000000E+00  0.00000000E+00  0.00000000E+00  0.00000000E+00
  0.00000000E+00  0.00000000E+00  0.00000000E+00  0.00000000E+00  0.00000000E+00
  0.00000000E+00  0.00000000E+00  0.00000000E+00  0.00000000E+00  0.00000000E+00
  0.00000000E+00  0.00000000E+00  0.00000000E+00  0.00000000E+00  0.00000000E+00
  0.00000000E+00  0.00000000E+00  0.00000000E+00  0.00000000E+00  0.00000000E+00
  0.00000000E+00  0.00000000E+00  0.00000000E+00  0.00000000E+00  0.00000000E+00
  0.00000000E+00  0.00000000E+00  0.00000000E+00  0.00000000E+00  0.00000000E+00
  0.00000000E+00  0.00000000E+00  0.00000000E+00  0.00000000E+00  0.00000000E+00
  0.00000000E+00  0.00000000E+00  0.00000000E+00  0.00000000E+00  0.00000000E+00
  0.00000000E+00  0.00000000E+00  0.00000000E+00  0.00000000E+00  0.00000000E+00
  0.00000000E+00  0.00000000E+00  0.00000000E+00  0.00000000E+00  0.00000000E+00
  0.00000000E+00  0.00000000E+00  0.00000000E+00  0.00000000E+00  0.00000000E+00
  0.00000000E+00  0.00000000E+00  0.00000000E+00  0.00000000E+00  0.00000000E+00
  0.00000000E+00  0.00000000E+00  0.00000000E+00  0.00000000E+00  0.00000000E+00
  0.00000000E+00  0.00000000E+00  0.00000000E+00  0.00000000E+00  0.00000000E+00
  0.00000000E+00  0.00000000E+00  0.00000000E+00  0.00000000E+00  0.00000000E+00
  0.00000000E+00  0.00000000E+00  0.00000000E+00  0.00000000E+00  0.00000000E+00
  0.00000000E+00  0.00000000E+00  0.00000000E+00  0.00000000E+00  0.00000000E+00
  0.00000000E+00  0.00000000E+00  0.00000000E+00  0.00000000E+00  0.00000000E+00
  0.00000000E+00  0.00000000E+00  0.00000000E+00  0.00000000E+00  0.00000000E+00
  0.00000000E+00  0.00000000E+00  0.00000000E+00  0.00000000E+00  0.00000000E+00
  0.00000000E+00  0.00000000E+00  0.00000000E+00  0.00000000E+00  0.00000000E+00
  0.00000000E+00  0.00000000E+00  0.00000000E+00  0.00000000E+00  0.00000000E+00
  0.00000000E+00  0.00000000E+00  0.00000000E+00  0.00000000E+00  0.00000000E+00
  0.00000000E+00  0.00000000E+00  0.00000000E+00  0.00000000E+00  0.00000000E+00
  0.00000000E+00  0.00000000E+00  0.00000000E+00  0.00000000E+00  0.00000000E+00
  0.00000000E+00  0.00000000E+00  0.00000000E+00  0.00000000E+00  0.00000000E+00
  0.00000000E+00  0.00000000E+00  0.00000000E+00  0.00000000E+00  0.00000000E+00
Gaussian Version                           C   N=           2
AppleM1-GDVRevJ.32+     
