 Entering Gaussian System, Link 0=gdv
 Input=h2co.gjf
 Output=h2co.log
 Initial command:
 "/Users/vincenzobarone/gdv_j32p/gdv/l1.exe" -scrdir="/Users/vincenzobarone/Documents/GAUSSIAN_SCRATCH/" "/Users/vincenzobarone/Documents/GAUSSIAN_SCRATCH/Gau-28355.inp" "h2co.log" 
 Entering Link 1 = /Users/vincenzobarone/gdv_j32p/gdv/l1.exe PID=     28356.
  
 Copyright (c) 1988-2025, Gaussian, Inc.  All Rights Reserved.
  
 This is the private, development version of
 the Gaussian(R) DV system of programs. It is based on
 the Gaussian(R) 16 system (copyright 2016, Gaussian, Inc.),
 the Gaussian(R) 09 system (copyright 2009, Gaussian, Inc.),
 the Gaussian(R) 03 system (copyright 2003, Gaussian, Inc.),
 the Gaussian(R) 98 system (copyright 1998, Gaussian, Inc.),
 the Gaussian(R) 94 system (copyright 1995, Gaussian, Inc.),
 the Gaussian 92(TM) system (copyright 1992, Gaussian, Inc.),
 the Gaussian 90(TM) system (copyright 1990, Gaussian, Inc.),
 the Gaussian 88(TM) system (copyright 1988, Gaussian, Inc.),
 the Gaussian 86(TM) system (copyright 1986, Carnegie Mellon
 University), and the Gaussian 82(TM) system (copyright 1983,
 Carnegie Mellon University). Gaussian is a federally registered
 trademark of Gaussian, Inc.
  
 This software contains proprietary and confidential information,
 including trade secrets, belonging to Gaussian, Inc.
  
 This software is provided under written license and may be
 used, copied, transmitted, or stored only in accord with that
 written license.
  
 The following legend is applicable only to US Government
 contracts under FAR:
  
                    RESTRICTED RIGHTS LEGEND
  
 Use, reproduction and disclosure by the US Government is
 subject to restrictions as set forth in subparagraphs (a)
 and (c) of the Commercial Computer Software - Restricted
 Rights clause in FAR 52.227-19.
  
 Gaussian, Inc.
 340 Quinnipiac St., Bldg. 40, Wallingford CT 06492
  
  
 ---------------------------------------------------------------
 Warning -- This program may not be used in any manner that
 competes with the business of Gaussian, Inc. or will provide
 assistance to any competitor of Gaussian, Inc.  The licensee
 of this program is prohibited from giving any competitor of
 Gaussian, Inc. access to this program.  By using this program,
 the user acknowledges that Gaussian, Inc. is engaged in the
 business of creating and licensing software in the field of
 computational chemistry and represents and warrants to the
 licensee that it is not a competitor of Gaussian, Inc. and that
 it will not use this program in any manner prohibited above.
 ---------------------------------------------------------------
  

 Cite this work as:
 Gaussian Development Version, Revision J.32+,
 M. J. Frisch, G. W. Trucks, G. Scalmani, J. R. Cheeseman, X. Li, 
 J. Bloino, B. G. Janesko, A. V. Marenich, J. Zheng, F. Lipparini, 
 A. Jenkins, A. Liu, H. Liu, H. B. Schlegel, G. E. Scuseria, 
 M. A. Robb, V. Barone, G. A. Petersson, H. Nakatsuji, B. Mennucci, 
 C. Adamo, N. Rega, M. Caricato, H. P. Hratchian, J. V. Ortiz, 
 F. Pawlowski, A. F. Izmaylov, H. Hu, C. Liao, J. L. Sonnenberg, 
 D. Williams-Young, F. Ding, R. Gomperts, F. Egidi, J. Goings, 
 B. Peng, A. Petrone, T. Henderson, D. Ranasinghe, V. G. Zakrzewski, 
 J. Gao, G. Zheng, M. Mendolicchio, W. Liang, M. Hada, M. Ehara, 
 K. Toyota, R. Fukuda, J. Hasegawa, M. Ishida, T. Nakajima, Y. Honda, 
 O. Kitao, H. Nakai, T. Vreven, K. Throssell, J. A. Montgomery, Jr., 
 J. E. Peralta, F. Ogliaro, M. J. Bearpark, J. J. Heyd, 
 E. N. Brothers, K. N. Kudin, V. N. Staroverov, T. A. Keith, 
 R. Kobayashi, J. Normand, K. Raghavachari, A. P. Rendell, 
 J. C. Burant, S. S. Iyengar, M. Cossi, J. M. Millam, M. Klene, 
 R. Cammi, R. L. Martin, O. Farkas, J. B. Foresman, and D. J. Fox, 
 Gaussian, Inc., Wallingford CT, 2024.
 
 *********************************************
 Gaussian DV:  AppleM1-GDVRevJ.32+ 19-Oct-2025
                  12-Mar-2026 
 *********************************************
 %nproc=16
 Will use up to   16 processors via shared memory.
 %mem=128GB
 %chk=h2co
 ----------------------------------------------------
 #B3LYP 6-31G* freq=anharm output=pickett iop(7/8=10)
 ----------------------------------------------------
 1/10=4,30=1,37=210000000,38=21,80=1/1,6,3;
 2/12=2/2;
 3/5=1,6=6,7=1,11=2,25=1,30=1,71=2,74=-5/1,2,3;
 4/69=2/1;
 5/5=2,8=3,13=1,38=5,98=1/2,8;
 8/6=4,10=90,11=11/1;
 11/6=1,8=1,9=11,15=111,16=1/1,2,10;
 10/6=1,60=-2/2;
 6/7=2,8=2,9=2,10=2,28=1/1;
 7/8=10,10=1,25=1,71=2/1,2,3,16;
 1/38=20,80=1/6(3);
 7/8=10,25=202,44=-1,71=1,92=10/16,17;
 1/10=4,30=1,38=20,80=1/3;
 99/10=1024/99;
 3/5=1,6=6,7=1,11=2,25=1,30=1,71=2,74=-5/1,2,3;
 4/5=5,16=3,69=2/1;
 5/5=2,8=3,13=1,38=5,98=1/2,8;
 8/6=4,10=90,11=11/1;
 11/6=1,8=1,9=11,15=111,16=1/1,2,10;
 10/6=1,60=-2/2;
 6/7=2,8=2,9=2,10=2,28=1/1;
 7/7=1,8=10,10=1,25=1,71=1/1,2,3,16;
 1/38=20,80=1/6(-8);
 7/8=10,25=202,44=-1,71=1,92=10/16,17;
 1/10=4,30=1,38=20,80=1/3;
 99/10=1024/99;
 ----
 h2co
 ----
 Symbolic Z-matrix:
 Charge =     0 Multiplicity =     1
 8                    -0.60339   0.        0. 
 6                     0.60308   0.        0. 
 1                     1.19774   0.9378    0. 
 1                     1.19774  -0.9378    0. 
 
 Numerical evaluation of third derivatives.
 Nuclear step= 0.010000 Angstroms, electric field step= 0.003333 atomic units, NStep=1.

 GradGradGradGradGradGradGradGradGradGradGradGradGradGradGradGradGradGrad
 Berny optimization.
 Initialization pass.
 Trust Radius=3.00D-01 FncErr=1.00D-07 GrdErr=1.00D-07 EigMax=2.50D+02 EigMin=1.00D-04
 Number of steps in this run=      2 maximum allowed number of steps=      2.
 GradGradGradGradGradGradGradGradGradGradGradGradGradGradGradGradGradGrad

                          Input orientation:                          
 ---------------------------------------------------------------------
 Center     Atomic      Atomic             Coordinates (Angstroms)
 Number     Number       Type             X           Y           Z
 ---------------------------------------------------------------------
      1          8           0       -0.603394    0.000000    0.000000
      2          6           0        0.603084    0.000000    0.000000
      3          1           0        1.197744    0.937795    0.000000
      4          1           0        1.197744   -0.937795    0.000000
 ---------------------------------------------------------------------
                    Distance matrix (angstroms):
                    1          2          3          4
     1  O    0.000000
     2  C    1.206478   0.000000
     3  H    2.030654   1.110441   0.000000
     4  H    2.030654   1.110441   1.875590   0.000000
 Stoichiometry    CH2O
 Framework group  C2V[C2(CO),SGV(H2)]
 Deg. of freedom     3
 Full point group                 C2V     NOp   4
 Largest Abelian subgroup         C2V     NOp   4
 Largest concise Abelian subgroup C2      NOp   2
                         Standard orientation:                         
 ---------------------------------------------------------------------
 Center     Atomic      Atomic             Coordinates (Angstroms)
 Number     Number       Type             X           Y           Z
 ---------------------------------------------------------------------
      1          8           0        0.000000    0.000000    0.677571
      2          6           0        0.000000    0.000000   -0.528906
      3          1           0        0.000000    0.937795   -1.123567
      4          1           0        0.000000   -0.937795   -1.123567
 ---------------------------------------------------------------------
 Rotational constants (GHZ):         285.0927906          38.6385605          34.0269023
 Standard basis: 6-31G(d) (6D, 7F)
 There are    18 symmetry adapted cartesian basis functions of A1  symmetry.
 There are     2 symmetry adapted cartesian basis functions of A2  symmetry.
 There are     6 symmetry adapted cartesian basis functions of B1  symmetry.
 There are     8 symmetry adapted cartesian basis functions of B2  symmetry.
 There are    18 symmetry adapted basis functions of A1  symmetry.
 There are     2 symmetry adapted basis functions of A2  symmetry.
 There are     6 symmetry adapted basis functions of B1  symmetry.
 There are     8 symmetry adapted basis functions of B2  symmetry.
    34 basis functions,    64 primitive gaussians,    34 cartesian basis functions
     8 alpha electrons        8 beta electrons
       nuclear repulsion energy        31.2236456447 Hartrees.
 NAtoms=    4 NActive=    4 NUniq=    3 SFac= 1.78D+00 NAtFMM=   60 NAOKFM=F Big=F
 Integral buffers will be    131072 words long.
 Raffenetti 2 integral format.
 Two-electron integral symmetry is turned on.
 One-electron integrals computed using PRISM.
 NBasis=    34 RedAO= T EigKep=  9.04D-03  NBF=    18     2     6     8
 NBsUse=    34 1.00D-06 EigRej= -1.00D+00 NBFU=    18     2     6     8
 ExpMin= 1.61D-01 ExpMax= 5.48D+03 ExpMxC= 8.25D+02 IAcc=3 Grid=UltraFine AccDes= 0.00D+00
 Harris functional with IExCor= 4002 and Grid=UltraFine diagonalized for initial guess.
 HarFok:  IExCor=    4002 AccDes= 0.00D+00 Grid=UltraFine IDoV= 1 UseB2=F ITyADJ=14 ICtDFT=  3500011
 FoFCou: FMM=F IPFlag=           0 FMFlag=      100000 FMFlg1=           0
         NFxFlg=           0 DoJE=T BraDBF=F KetDBF=T FulRan=T
         wScrn=  0.000000 ICntrl=       500 IOpCl=  0 I1Cent=   200000004 NGrid=           0
         NMat0=    1 NMatS0=      1 NMatT0=    0 NMatD0=    1 NMtDS0=    0 NMtDT0=    0
 Petite list used in FoFCou.
 Initial guess orbital symmetries:
       Occupied  (A1) (A1) (A1) (A1) (B2) (A1) (B1) (B2)
       Virtual   (B1) (A1) (B2) (A1) (B1) (A1) (B2) (A1) (B2) (A1)
                 (A1) (B1) (B2) (A1) (B1) (A2) (A1) (B2) (A2) (A1)
                 (A1) (B1) (B2) (A1) (A1) (A1)
 The electronic state of the initial guess is 1-A1.
 Keep R1 ints in memory in symmetry-blocked form, NReq=14023130.
 Requested convergence on RMS density matrix=1.00D-08 within  48 cycles.
 Requested convergence on MAX density matrix=1.00D-06.
 Requested convergence on             energy=1.00D-06.
 No special actions if energy rises.
 Integral accuracy reduced to 1.0D-05 until final iterations.
 Initial convergence to 1.0D-05 achieved.  Increase integral accuracy.
 SCF Done:  E(RB3LYP) =  -114.500472761     A.U. after   11 cycles
            NFock= 11  Conv=0.69D-08     -V/T= 2.0090
 QCSCF skips out because SCF is already converged.
 DoSCS=F DFT=T ScalE2(SS,OS)=  1.000000  1.000000
 Range of M.O.s used for correlation:     1    34
 NBasis=    34 NAE=     8 NBE=     8 NFC=     0 NFV=     0
 NROrb=     34 NOA=     8 NOB=     8 NVA=    26 NVB=    26
 Symmetrizing basis deriv contribution to polar:
 IMax=3 JMax=2 DiffMx= 0.00D+00
 G2DrvN: will do     5 centers at a time, making    1 passes.
 Calling FoFCou, ICntrl=  3107 FMM=F I1Cent=   0 AccDes= 0.00D+00.
 End of G2Drv FD prop file    721 does not exist.
 End of G2Drv FD prop file    722 does not exist.
 End of G2Drv FD prop file    788 does not exist.
 End of G2Drv FD prop file    804 does not exist.
          IDoAtm=1111
          Differentiating once with respect to electric field.
                with respect to dipole field.
          Differentiating once with respect to nuclear coordinates.
 Keep R1 ints in memory in symmetry-blocked form, NReq=13988200.
          There are    12 degrees of freedom in the 1st order CPHF.  IDoFFX=4 NUNeed=    12.
     12 vectors produced by pass  0 Test12= 1.73D-15 8.33D-09 XBig12= 1.70D+01 3.15D+00.
 AX will form    12 AO Fock derivatives at one time.
     12 vectors produced by pass  1 Test12= 1.73D-15 8.33D-09 XBig12= 4.31D+00 8.54D-01.
     12 vectors produced by pass  2 Test12= 1.73D-15 8.33D-09 XBig12= 2.75D-02 6.52D-02.
     12 vectors produced by pass  3 Test12= 1.73D-15 8.33D-09 XBig12= 5.17D-05 2.68D-03.
     12 vectors produced by pass  4 Test12= 1.73D-15 8.33D-09 XBig12= 3.73D-08 5.77D-05.
      6 vectors produced by pass  5 Test12= 1.73D-15 8.33D-09 XBig12= 3.60D-11 2.23D-06.
      1 vectors produced by pass  6 Test12= 1.73D-15 8.33D-09 XBig12= 4.35D-14 8.64D-08.
 InvSVY:  IOpt=1 It=  1 EMax= 8.88D-16
 Solved reduced A of dimension    67 with    12 vectors.
 Isotropic polarizability for W=    0.000000       13.08 Bohr**3.
 End of Minotr FD prop file    721 does not exist.
 End of Minotr FD prop file    722 does not exist.
 End of Minotr FD prop file    788 does not exist.
 End of Minotr FD prop file    804 does not exist.
 
 **********************************************************************
 
               Population analysis using the SCF Density.
 
 **********************************************************************
 
 Orbital symmetries:
       Occupied  (A1) (A1) (A1) (A1) (B2) (A1) (B1) (B2)
       Virtual   (B1) (A1) (B2) (A1) (B1) (A1) (B2) (A1) (B2) (A1)
                 (A1) (B1) (B2) (A1) (A2) (B1) (A1) (B2) (A2) (A1)
                 (A1) (B1) (B2) (A1) (A1) (A1)
 The electronic state is 1-A1.
 Alpha  occ. eigenvalues --      -19.16976     -10.28908      -1.06086      -0.63755      -0.49533
 Alpha  occ. eigenvalues --       -0.44956      -0.39920      -0.26849
 Alpha virt. eigenvalues --       -0.04211       0.10125       0.18204       0.21875       0.50658
 Alpha virt. eigenvalues --        0.62358       0.62678       0.69401       0.81388       0.83714
 Alpha virt. eigenvalues --        0.89054       0.96010       1.05916       1.37730       1.50575
 Alpha virt. eigenvalues --        1.51007       1.68170       1.84995       1.93140       2.12620
 Alpha virt. eigenvalues --        2.27917       2.54107       2.65690       2.91080       3.68307
 Alpha virt. eigenvalues --        4.05552
          Condensed to atoms (all electrons):
               1          2          3          4
     1  O    7.875491   0.557420  -0.055021  -0.055021
     2  C    0.557420   4.699928   0.331097   0.331097
     3  H   -0.055021   0.331097   0.697714  -0.094997
     4  H   -0.055021   0.331097  -0.094997   0.697714
 Mulliken charges:
               1
     1  O   -0.322870
     2  C    0.080458
     3  H    0.121206
     4  H    0.121206
 Sum of Mulliken charges=   0.00000
 Mulliken charges with hydrogens summed into heavy atoms:
               1
     1  O   -0.322870
     2  C    0.322870
 APT charges:
               1
     1  O   -0.534320
     2  C    0.684771
     3  H   -0.075226
     4  H   -0.075226
 Sum of APT charges=   0.00000
 APT charges with hydrogens summed into heavy atoms:
               1
     1  O   -0.534320
     2  C    0.534320
 Electronic spatial extent (au):  <R**2>=             60.3105
 Charge=              0.0000 electrons
 Dipole moment (field-independent basis, Debye):
    X=              0.0000    Y=              0.0000    Z=             -2.1864  Tot=              2.1864
 Quadrupole moment (field-independent basis, Debye-Ang):
   XX=            -11.4047   YY=            -11.5084   ZZ=            -11.9278
   XY=              0.0000   XZ=              0.0000   YZ=              0.0000
 Traceless Quadrupole moment (field-independent basis, Debye-Ang):
   XX=              0.2089   YY=              0.1052   ZZ=             -0.3141
   XY=              0.0000   XZ=              0.0000   YZ=              0.0000
 Octapole moment (field-independent basis, Debye-Ang**2):
  XXX=              0.0000  YYY=              0.0000  ZZZ=              1.2468  XYY=              0.0000
  XXY=              0.0000  XXZ=              0.9140  XZZ=              0.0000  YZZ=              0.0000
  YYZ=              0.0677  XYZ=              0.0000
 Hexadecapole moment (field-independent basis, Debye-Ang**3):
 XXXX=             -9.1914 YYYY=            -17.9929 ZZZZ=            -44.3995 XXXY=              0.0000
 XXXZ=              0.0000 YYYX=              0.0000 YYYZ=              0.0000 ZZZX=              0.0000
 ZZZY=              0.0000 XXYY=             -4.7345 XXZZ=             -8.9019 YYZZ=            -10.1690
 XXYZ=              0.0000 YYXZ=              0.0000 ZZXY=              0.0000
 N-N=          31.223646 E-N=        -330.849194  KE=         113.484775
 Symmetry A1   KE=         103.133937
 Symmetry A2   KE=           0.000000
 Symmetry B1   KE=           3.635325
 Symmetry B2   KE=           6.715513
 Calling FoFJK, ICntrl=    100127 FMM=F ISym2X=1 I1Cent= 0 IOpClX= 0 NMat=1 NMatS=1 NMatT=0.
 Full mass-weighted force constant matrix:
 Low frequencies ---   -0.0015   -0.0003    0.0013    1.7651    5.2972   10.6806
 Low frequencies --- 1198.4924 1279.5869 1563.0917
 Diagonal vibrational polarizability:
        0.0271029       0.7101360       1.0242033
 Harmonic frequencies (cm**-1), IR intensities (KM/Mole), Raman scattering
 activities (A**4/AMU), depolarization ratios for plane and unpolarized
 incident light, reduced masses (AMU), force constants (mDyne/A),
 and normal coordinates:
                           1         2         3         4         5
                          B1        B2        A1        A1        A1
       Frequencies ---  1198.4924 1279.5869 1563.0917 1849.8705 2916.7529
    Reduced masses ---     1.3702    1.3419    1.1277    6.5329    1.0447
   Force constants ---     1.1596    1.2945    1.6234   13.1716    5.2364
    IR Intensities ---     1.4466   12.5913    6.4404   98.7082   55.9589
 Coord Atom Element:
   1     1     8          0.04321   0.00000   0.00000   0.00000   0.00000
   2     1     8          0.00000   0.07928   0.00000   0.00000   0.00000
   3     1     8          0.00000   0.00000  -0.08851  -0.38126   0.00114
   1     2     6         -0.17443   0.00000   0.00000   0.00000   0.00000
   2     2     6          0.00000  -0.14772   0.00000   0.00000   0.00000
   3     2     6          0.00000   0.00000   0.01508   0.55177   0.05789
   1     3     1          0.69560   0.00000   0.00000   0.00000   0.00000
   2     3     1          0.00000   0.25036   0.34744  -0.45581   0.61093
   3     3     1          0.00000   0.65059   0.61258  -0.25949  -0.35368
   1     4     1          0.69560   0.00000   0.00000   0.00000   0.00000
   2     4     1          0.00000   0.25036  -0.34744   0.45581  -0.61093
   3     4     1          0.00000  -0.65059   0.61258  -0.25949  -0.35368
                           6
                          B2
       Frequencies ---  2967.7878
    Reduced masses ---     1.1221
   Force constants ---     5.8228
    IR Intensities ---   164.6879
 Coord Atom Element:
   1     1     8          0.00000
   2     1     8          0.00103
   3     1     8          0.00000
   1     2     6          0.00000
   2     2     6         -0.10194
   3     2     6          0.00000
   1     3     1          0.00000
   2     3     1          0.59875
   3     3     1         -0.36920
   1     4     1          0.00000
   2     4     1          0.59875
   3     4     1          0.36920
 Harmonic frequencies (cm**-1), IR intensities (KM/Mole), Raman scattering
 activities (A**4/AMU), depolarization ratios for plane and unpolarized
 incident light, reduced masses (AMU), force constants (mDyne/A),
 and normal coordinates:
                      1                      2                      3
                     B1                     B2                     A1
 Frequencies --   1198.4924              1279.5869              1563.0917
 Red. masses --      1.3702                 1.3419                 1.1277
 Frc consts  --      1.1596                 1.2945                 1.6234
 IR Inten    --      1.4466                12.5913                 6.4404
  Atom  AN      X      Y      Z        X      Y      Z        X      Y      Z
     1   8     0.04   0.00   0.00     0.00   0.08   0.00     0.00   0.00  -0.09
     2   6    -0.17   0.00   0.00     0.00  -0.15   0.00     0.00   0.00   0.02
     3   1     0.70   0.00   0.00     0.00   0.25   0.65     0.00   0.35   0.61
     4   1     0.70   0.00   0.00     0.00   0.25  -0.65     0.00  -0.35   0.61
                      4                      5                      6
                     A1                     A1                     B2
 Frequencies --   1849.8705              2916.7529              2967.7878
 Red. masses --      6.5329                 1.0447                 1.1221
 Frc consts  --     13.1716                 5.2364                 5.8228
 IR Inten    --     98.7082                55.9589               164.6879
  Atom  AN      X      Y      Z        X      Y      Z        X      Y      Z
     1   8     0.00   0.00  -0.38     0.00   0.00   0.00     0.00   0.00   0.00
     2   6     0.00   0.00   0.55     0.00   0.00   0.06     0.00  -0.10   0.00
     3   1     0.00  -0.46  -0.26     0.00   0.61  -0.35     0.00   0.60  -0.37
     4   1     0.00   0.46  -0.26     0.00  -0.61  -0.35     0.00   0.60   0.37

 -------------------
 - Thermochemistry -
 -------------------
 Temperature 298.150 Kelvin.  Pressure 1.00000 Atm.
 Atom     1 has atomic number  8 and mass  15.99491
 Atom     2 has atomic number  6 and mass  12.00000
 Atom     3 has atomic number  1 and mass   1.00783
 Atom     4 has atomic number  1 and mass   1.00783
 Molecular mass:    30.01056 amu.
 Principal axes and moments of inertia in atomic units:
                                 1                 2                 3
     Eigenvalues --            6.330364         46.708293         53.038657
           X                   0.000000          0.000000          1.000000
           Y                   0.000000          1.000000          0.000000
           Z                   1.000000          0.000000          0.000000
 This molecule is an asymmetric top.
 Rotational symmetry number  2.
 Rotational temperatures (Kelvin)     13.68230     1.85436     1.63303
 Rotational constants (GHZ):         285.09279    38.63856    34.02690
 Zero-point vibrational energy      70433.6 (Joules/Mol)
                                   16.83404 (Kcal/Mol)
 Vibrational temperatures:   1724.36  1841.04  2248.94  2661.55  4196.56
          (Kelvin)           4269.98
 
 Zero-point correction=                           0.026827 (Hartree/Particle)
 Thermal correction to Energy=                    0.029693
 Thermal correction to Enthalpy=                  0.030637
 Thermal correction to Gibbs Free Energy=         0.005818
 Sum of electronic and zero-point Energies=           -114.473646
 Sum of electronic and thermal Energies=              -114.470780
 Sum of electronic and thermal Enthalpies=            -114.469835
 Sum of electronic and thermal Free Energies=         -114.494655
 
                     E (Thermal)             CV                S
                      KCal/Mol        Cal/Mol-Kelvin    Cal/Mol-Kelvin
 Total                   18.633              6.407             52.237
 Electronic               0.000              0.000              0.000
 Translational            0.889              2.981             36.130
 Rotational               0.889              2.981             16.024
 Vibrational             16.855              0.446              0.083
                       Q            Log10(Q)             Ln(Q)
 Total Bot       0.210854D-02         -2.676017         -6.161757
 Total V=0       0.460702D+10          9.663420         22.250847
 Vib (Bot)       0.460357D-12        -12.336906        -28.406775
 Vib (V=0)       0.100585D+01          0.002532          0.005830
 Electronic      0.100000D+01          0.000000          0.000000
 Translational   0.646197D+07          6.810365         15.681445
 Rotational      0.708799D+03          2.850523          6.563572

     ==================================================
      Anharmonic Data: Displacement Vectors Definition
     ==================================================

 Framework definition based on atomic masses: C2V 
 ***** Axes restored to original set *****
 -------------------------------------------------------------------
 Center     Atomic                   Forces (Hartrees/Bohr)
 Number     Number              X              Y              Z
 -------------------------------------------------------------------
      1        8          -0.000001079    0.000000000    0.000000000
      2        6           0.000001063    0.000000000    0.000000000
      3        1           0.000000008   -0.000000615    0.000000000
      4        1           0.000000008    0.000000615    0.000000000
 -------------------------------------------------------------------
 Cartesian Forces:  Max     0.000001079 RMS     0.000000504
 NDeriv=      6 NFrqRd=  0 NDerD0=      0 MskFDP=       0 MskDFD=       0 MskDF0=       0
 At 1st pt FD prop file    721 does not exist.
 At 1st pt FD prop file    722 does not exist.
 D2Numr ... symmetry will not be used.
 Standard basis: 6-31G(d) (6D, 7F)
    34 basis functions,    64 primitive gaussians,    34 cartesian basis functions
     8 alpha electrons        8 beta electrons
       nuclear repulsion energy        31.2234768524 Hartrees.
 NAtoms=    4 NActive=    4 NUniq=    4 SFac= 1.00D+00 NAtFMM=   60 NAOKFM=F Big=F
 Integral buffers will be    131072 words long.
 Raffenetti 2 integral format.
 Two-electron integral symmetry is turned off.
 One-electron integrals computed using PRISM.
 NBasis=    34 RedAO= T EigKep=  9.04D-03  NBF=    34
 NBsUse=    34 1.00D-06 EigRej= -1.00D+00 NBFU=    34
 Initial guess from the checkpoint file:  "h2co.chk"
 B after Tr=     0.000696    0.000000    0.000000
         Rot=    1.000000    0.000000    0.000420    0.000000 Ang=   0.05 deg.
 Keep R1 ints in memory in canonical form, NReq=14020494.
 Requested convergence on RMS density matrix=1.00D-08 within  48 cycles.
 Requested convergence on MAX density matrix=1.00D-06.
 Requested convergence on             energy=1.00D-06.
 No special actions if energy rises.
 SCF Done:  E(RB3LYP) =  -114.500463055     A.U. after    8 cycles
            NFock=  8  Conv=0.27D-08     -V/T= 2.0090
 QCSCF skips out because SCF is already converged.
 DoSCS=F DFT=T ScalE2(SS,OS)=  1.000000  1.000000
 Range of M.O.s used for correlation:     1    34
 NBasis=    34 NAE=     8 NBE=     8 NFC=     0 NFV=     0
 NROrb=     34 NOA=     8 NOB=     8 NVA=    26 NVB=    26
 Symmetrizing basis deriv contribution to polar:
 IMax=3 JMax=2 DiffMx= 0.00D+00
 G2DrvN: will do     5 centers at a time, making    1 passes.
 Calling FoFCou, ICntrl=  3107 FMM=F I1Cent=   0 AccDes= 0.00D+00.
 End of G2Drv FD prop file    721 does not exist.
 End of G2Drv FD prop file    722 does not exist.
 End of G2Drv FD prop file    788 does not exist.
 End of G2Drv FD prop file    804 does not exist.
          IDoAtm=1111
          Differentiating once with respect to electric field.
                with respect to dipole field.
          Differentiating once with respect to nuclear coordinates.
 Keep R1 ints in memory in canonical form, NReq=13985552.
          There are    15 degrees of freedom in the 1st order CPHF.  IDoFFX=6 NUNeed=     3.
     12 vectors produced by pass  0 Test12= 1.39D-15 6.67D-09 XBig12= 1.70D+01 3.15D+00.
 AX will form    12 AO Fock derivatives at one time.
     12 vectors produced by pass  1 Test12= 1.39D-15 6.67D-09 XBig12= 4.30D+00 8.53D-01.
     12 vectors produced by pass  2 Test12= 1.39D-15 6.67D-09 XBig12= 2.74D-02 6.49D-02.
     12 vectors produced by pass  3 Test12= 1.39D-15 6.67D-09 XBig12= 5.13D-05 2.66D-03.
     12 vectors produced by pass  4 Test12= 1.39D-15 6.67D-09 XBig12= 3.70D-08 5.73D-05.
      6 vectors produced by pass  5 Test12= 1.39D-15 6.67D-09 XBig12= 3.33D-11 2.01D-06.
      1 vectors produced by pass  6 Test12= 1.39D-15 6.67D-09 XBig12= 3.71D-14 7.78D-08.
 InvSVY:  IOpt=1 It=  1 EMax= 8.88D-16
 Solved reduced A of dimension    67 with    12 vectors.
 Isotropic polarizability for W=    0.000000       13.08 Bohr**3.
 End of Minotr FD prop file    721 does not exist.
 End of Minotr FD prop file    722 does not exist.
 End of Minotr FD prop file    788 does not exist.
 End of Minotr FD prop file    804 does not exist.
 
 **********************************************************************
 
               Population analysis using the SCF Density.
 
 **********************************************************************
 
 Alpha  occ. eigenvalues --      -19.16977     -10.28908      -1.06087      -0.63754      -0.49532
 Alpha  occ. eigenvalues --       -0.44956      -0.39920      -0.26849
 Alpha virt. eigenvalues --       -0.04212       0.10125       0.18203       0.21875       0.50658
 Alpha virt. eigenvalues --        0.62361       0.62676       0.69401       0.81386       0.83713
 Alpha virt. eigenvalues --        0.89052       0.96010       1.05912       1.37730       1.50577
 Alpha virt. eigenvalues --        1.51007       1.68169       1.84977       1.93161       2.12614
 Alpha virt. eigenvalues --        2.27917       2.54108       2.65687       2.91079       3.68306
 Alpha virt. eigenvalues --        4.05551
          Condensed to atoms (all electrons):
               1          2          3          4
     1  O    7.875496   0.557403  -0.055020  -0.055020
     2  C    0.557403   4.699952   0.331098   0.331098
     3  H   -0.055020   0.331098   0.697710  -0.094995
     4  H   -0.055020   0.331098  -0.094995   0.697710
 Mulliken charges:
               1
     1  O   -0.322860
     2  C    0.080448
     3  H    0.121206
     4  H    0.121206
 Sum of Mulliken charges=   0.00000
 Mulliken charges with hydrogens summed into heavy atoms:
               1
     1  O   -0.322860
     2  C    0.322860
 APT charges:
               1
     1  O   -0.534307
     2  C    0.684761
     3  H   -0.075227
     4  H   -0.075227
 Sum of APT charges=   0.00000
 APT charges with hydrogens summed into heavy atoms:
               1
     1  O   -0.534307
     2  C    0.534307
 Electronic spatial extent (au):  <R**2>=             60.3110
 Charge=              0.0000 electrons
 Dipole moment (field-independent basis, Debye):
    X=              0.0019    Y=              0.0000    Z=             -2.1863  Tot=              2.1863
 Quadrupole moment (field-independent basis, Debye-Ang):
   XX=            -11.4047   YY=            -11.5085   ZZ=            -11.9278
   XY=              0.0000   XZ=             -0.0041   YZ=              0.0000
 Traceless Quadrupole moment (field-independent basis, Debye-Ang):
   XX=              0.2090   YY=              0.1052   ZZ=             -0.3142
   XY=              0.0000   XZ=             -0.0041   YZ=              0.0000
 Octapole moment (field-independent basis, Debye-Ang**2):
  XXX=             -0.0122  YYY=              0.0000  ZZZ=              1.2470  XYY=              0.0035
  XXY=              0.0000  XXZ=              0.9140  XZZ=              0.0053  YZZ=              0.0000
  YYZ=              0.0679  XYZ=              0.0000
 Hexadecapole moment (field-independent basis, Debye-Ang**3):
 XXXX=             -9.1919 YYYY=            -17.9933 ZZZZ=            -44.3999 XXXY=              0.0000
 XXXZ=              0.0188 YYYX=              0.0000 YYYZ=              0.0000 ZZZX=              0.0053
 ZZZY=              0.0000 XXYY=             -4.7346 XXZZ=             -8.9020 YYZZ=            -10.1692
 XXYZ=              0.0000 YYXZ=             -0.0029 ZZXY=              0.0000
 N-N=          31.223477 E-N=        -330.848788  KE=         113.484713
 Calling FoFJK, ICntrl=    100127 FMM=F ISym2X=0 I1Cent= 0 IOpClX= 0 NMat=1 NMatS=1 NMatT=0.
 -------------------------------------------------------------------
 Center     Atomic                   Forces (Hartrees/Bohr)
 Number     Number              X              Y              Z
 -------------------------------------------------------------------
      1        8          -0.000606344    0.000000000    0.000000950
      2        6           0.001836826    0.000000000   -0.000012300
      3        1          -0.000615241   -0.000007535    0.000005675
      4        1          -0.000615241    0.000007535    0.000005675
 -------------------------------------------------------------------
 Cartesian Forces:  Max     0.001836826 RMS     0.000612301
 NDeriv=      6 NFrqRd=  0 NDerD0=      0 MskFDP=       0 MskDFD=       0 MskDF0=       0
 Re-enter D2Numr:  normal mode      1 step-up   number 1
 Standard basis: 6-31G(d) (6D, 7F)
    34 basis functions,    64 primitive gaussians,    34 cartesian basis functions
     8 alpha electrons        8 beta electrons
       nuclear repulsion energy        31.2234768524 Hartrees.
 NAtoms=    4 NActive=    4 NUniq=    4 SFac= 1.00D+00 NAtFMM=   60 NAOKFM=F Big=F
 Integral buffers will be    131072 words long.
 Raffenetti 2 integral format.
 Two-electron integral symmetry is turned off.
 One-electron integrals computed using PRISM.
 NBasis=    34 RedAO= T EigKep=  9.04D-03  NBF=    34
 NBsUse=    34 1.00D-06 EigRej= -1.00D+00 NBFU=    34
 Initial guess from the checkpoint file:  "h2co.chk"
 B after Tr=    -0.000696    0.000000    0.000000
         Rot=    1.000000    0.000000   -0.000420    0.000000 Ang=  -0.05 deg.
 Keep R1 ints in memory in canonical form, NReq=14020494.
 Requested convergence on RMS density matrix=1.00D-08 within  48 cycles.
 Requested convergence on MAX density matrix=1.00D-06.
 Requested convergence on             energy=1.00D-06.
 No special actions if energy rises.
 SCF Done:  E(RB3LYP) =  -114.500463055     A.U. after    8 cycles
            NFock=  8  Conv=0.27D-08     -V/T= 2.0090
 QCSCF skips out because SCF is already converged.
 DoSCS=F DFT=T ScalE2(SS,OS)=  1.000000  1.000000
 Range of M.O.s used for correlation:     1    34
 NBasis=    34 NAE=     8 NBE=     8 NFC=     0 NFV=     0
 NROrb=     34 NOA=     8 NOB=     8 NVA=    26 NVB=    26
 Symmetrizing basis deriv contribution to polar:
 IMax=3 JMax=2 DiffMx= 0.00D+00
 G2DrvN: will do     5 centers at a time, making    1 passes.
 Calling FoFCou, ICntrl=  3107 FMM=F I1Cent=   0 AccDes= 0.00D+00.
 End of G2Drv FD prop file    721 does not exist.
 End of G2Drv FD prop file    722 does not exist.
 End of G2Drv FD prop file    788 does not exist.
 End of G2Drv FD prop file    804 does not exist.
          IDoAtm=1111
          Differentiating once with respect to electric field.
                with respect to dipole field.
          Differentiating once with respect to nuclear coordinates.
 Keep R1 ints in memory in canonical form, NReq=13985552.
          There are    15 degrees of freedom in the 1st order CPHF.  IDoFFX=6 NUNeed=     3.
     12 vectors produced by pass  0 Test12= 1.39D-15 6.67D-09 XBig12= 1.70D+01 3.15D+00.
 AX will form    12 AO Fock derivatives at one time.
     12 vectors produced by pass  1 Test12= 1.39D-15 6.67D-09 XBig12= 4.30D+00 8.53D-01.
     12 vectors produced by pass  2 Test12= 1.39D-15 6.67D-09 XBig12= 2.74D-02 6.49D-02.
     12 vectors produced by pass  3 Test12= 1.39D-15 6.67D-09 XBig12= 5.13D-05 2.66D-03.
     12 vectors produced by pass  4 Test12= 1.39D-15 6.67D-09 XBig12= 3.70D-08 5.73D-05.
      6 vectors produced by pass  5 Test12= 1.39D-15 6.67D-09 XBig12= 3.33D-11 2.01D-06.
      1 vectors produced by pass  6 Test12= 1.39D-15 6.67D-09 XBig12= 3.71D-14 7.78D-08.
 InvSVY:  IOpt=1 It=  1 EMax= 4.44D-16
 Solved reduced A of dimension    67 with    12 vectors.
 Isotropic polarizability for W=    0.000000       13.08 Bohr**3.
 End of Minotr FD prop file    721 does not exist.
 End of Minotr FD prop file    722 does not exist.
 End of Minotr FD prop file    788 does not exist.
 End of Minotr FD prop file    804 does not exist.
 
 **********************************************************************
 
               Population analysis using the SCF Density.
 
 **********************************************************************
 
 Alpha  occ. eigenvalues --      -19.16977     -10.28908      -1.06087      -0.63754      -0.49532
 Alpha  occ. eigenvalues --       -0.44956      -0.39920      -0.26849
 Alpha virt. eigenvalues --       -0.04212       0.10125       0.18203       0.21875       0.50658
 Alpha virt. eigenvalues --        0.62361       0.62676       0.69401       0.81386       0.83713
 Alpha virt. eigenvalues --        0.89052       0.96010       1.05912       1.37730       1.50577
 Alpha virt. eigenvalues --        1.51007       1.68169       1.84977       1.93161       2.12614
 Alpha virt. eigenvalues --        2.27917       2.54108       2.65687       2.91079       3.68306
 Alpha virt. eigenvalues --        4.05551
          Condensed to atoms (all electrons):
               1          2          3          4
     1  O    7.875496   0.557403  -0.055020  -0.055020
     2  C    0.557403   4.699952   0.331098   0.331098
     3  H   -0.055020   0.331098   0.697710  -0.094995
     4  H   -0.055020   0.331098  -0.094995   0.697710
 Mulliken charges:
               1
     1  O   -0.322860
     2  C    0.080448
     3  H    0.121206
     4  H    0.121206
 Sum of Mulliken charges=   0.00000
 Mulliken charges with hydrogens summed into heavy atoms:
               1
     1  O   -0.322860
     2  C    0.322860
 APT charges:
               1
     1  O   -0.534307
     2  C    0.684761
     3  H   -0.075227
     4  H   -0.075227
 Sum of APT charges=   0.00000
 APT charges with hydrogens summed into heavy atoms:
               1
     1  O   -0.534307
     2  C    0.534307
 Electronic spatial extent (au):  <R**2>=             60.3110
 Charge=              0.0000 electrons
 Dipole moment (field-independent basis, Debye):
    X=             -0.0019    Y=              0.0000    Z=             -2.1863  Tot=              2.1863
 Quadrupole moment (field-independent basis, Debye-Ang):
   XX=            -11.4047   YY=            -11.5085   ZZ=            -11.9278
   XY=              0.0000   XZ=              0.0041   YZ=              0.0000
 Traceless Quadrupole moment (field-independent basis, Debye-Ang):
   XX=              0.2090   YY=              0.1052   ZZ=             -0.3142
   XY=              0.0000   XZ=              0.0041   YZ=              0.0000
 Octapole moment (field-independent basis, Debye-Ang**2):
  XXX=              0.0122  YYY=              0.0000  ZZZ=              1.2470  XYY=             -0.0035
  XXY=              0.0000  XXZ=              0.9140  XZZ=             -0.0053  YZZ=              0.0000
  YYZ=              0.0679  XYZ=              0.0000
 Hexadecapole moment (field-independent basis, Debye-Ang**3):
 XXXX=             -9.1919 YYYY=            -17.9933 ZZZZ=            -44.3999 XXXY=              0.0000
 XXXZ=             -0.0188 YYYX=              0.0000 YYYZ=              0.0000 ZZZX=             -0.0053
 ZZZY=              0.0000 XXYY=             -4.7346 XXZZ=             -8.9020 YYZZ=            -10.1692
 XXYZ=              0.0000 YYXZ=              0.0029 ZZXY=              0.0000
 N-N=          31.223477 E-N=        -330.848788  KE=         113.484713
 Calling FoFJK, ICntrl=    100127 FMM=F ISym2X=0 I1Cent= 0 IOpClX= 0 NMat=1 NMatS=1 NMatT=0.
 -------------------------------------------------------------------
 Center     Atomic                   Forces (Hartrees/Bohr)
 Number     Number              X              Y              Z
 -------------------------------------------------------------------
      1        8           0.000606344    0.000000000    0.000000950
      2        6          -0.001836826    0.000000000   -0.000012300
      3        1           0.000615241   -0.000007535    0.000005675
      4        1           0.000615241    0.000007535    0.000005675
 -------------------------------------------------------------------
 Cartesian Forces:  Max     0.001836826 RMS     0.000612301
 NDeriv=      6 NFrqRd=  0 NDerD0=      0 MskFDP=       0 MskDFD=       0 MskDF0=       0
 Re-enter D2Numr:  normal mode      1 step-down number 1
 Standard basis: 6-31G(d) (6D, 7F)
    34 basis functions,    64 primitive gaussians,    34 cartesian basis functions
     8 alpha electrons        8 beta electrons
       nuclear repulsion energy        31.2235233567 Hartrees.
 NAtoms=    4 NActive=    4 NUniq=    4 SFac= 1.00D+00 NAtFMM=   60 NAOKFM=F Big=F
 Integral buffers will be    131072 words long.
 Raffenetti 2 integral format.
 Two-electron integral symmetry is turned off.
 One-electron integrals computed using PRISM.
 NBasis=    34 RedAO= T EigKep=  9.04D-03  NBF=    34
 NBsUse=    34 1.00D-06 EigRej= -1.00D+00 NBFU=    34
 Initial guess from the checkpoint file:  "h2co.chk"
 B after Tr=     0.000000   -0.000253    0.000000
         Rot=    1.000000    0.000396    0.000000    0.000000 Ang=   0.05 deg.
 Keep R1 ints in memory in canonical form, NReq=14020494.
 Requested convergence on RMS density matrix=1.00D-08 within  48 cycles.
 Requested convergence on MAX density matrix=1.00D-06.
 Requested convergence on             energy=1.00D-06.
 No special actions if energy rises.
 SCF Done:  E(RB3LYP) =  -114.500461697     A.U. after    8 cycles
            NFock=  8  Conv=0.90D-09     -V/T= 2.0090
 QCSCF skips out because SCF is already converged.
 DoSCS=F DFT=T ScalE2(SS,OS)=  1.000000  1.000000
 Range of M.O.s used for correlation:     1    34
 NBasis=    34 NAE=     8 NBE=     8 NFC=     0 NFV=     0
 NROrb=     34 NOA=     8 NOB=     8 NVA=    26 NVB=    26
 Symmetrizing basis deriv contribution to polar:
 IMax=3 JMax=2 DiffMx= 0.00D+00
 G2DrvN: will do     5 centers at a time, making    1 passes.
 Calling FoFCou, ICntrl=  3107 FMM=F I1Cent=   0 AccDes= 0.00D+00.
 End of G2Drv FD prop file    721 does not exist.
 End of G2Drv FD prop file    722 does not exist.
 End of G2Drv FD prop file    788 does not exist.
 End of G2Drv FD prop file    804 does not exist.
          IDoAtm=1111
          Differentiating once with respect to electric field.
                with respect to dipole field.
          Differentiating once with respect to nuclear coordinates.
 Keep R1 ints in memory in canonical form, NReq=13985552.
          There are    15 degrees of freedom in the 1st order CPHF.  IDoFFX=6 NUNeed=     3.
     12 vectors produced by pass  0 Test12= 1.39D-15 6.67D-09 XBig12= 1.70D+01 3.15D+00.
 AX will form    12 AO Fock derivatives at one time.
     12 vectors produced by pass  1 Test12= 1.39D-15 6.67D-09 XBig12= 4.30D+00 8.53D-01.
     12 vectors produced by pass  2 Test12= 1.39D-15 6.67D-09 XBig12= 2.74D-02 6.49D-02.
     12 vectors produced by pass  3 Test12= 1.39D-15 6.67D-09 XBig12= 5.15D-05 2.67D-03.
     12 vectors produced by pass  4 Test12= 1.39D-15 6.67D-09 XBig12= 3.71D-08 5.72D-05.
      6 vectors produced by pass  5 Test12= 1.39D-15 6.67D-09 XBig12= 3.50D-11 2.16D-06.
      1 vectors produced by pass  6 Test12= 1.39D-15 6.67D-09 XBig12= 4.10D-14 8.37D-08.
 InvSVY:  IOpt=1 It=  1 EMax= 6.66D-16
 Solved reduced A of dimension    67 with    12 vectors.
 Isotropic polarizability for W=    0.000000       13.08 Bohr**3.
 End of Minotr FD prop file    721 does not exist.
 End of Minotr FD prop file    722 does not exist.
 End of Minotr FD prop file    788 does not exist.
 End of Minotr FD prop file    804 does not exist.
 
 **********************************************************************
 
               Population analysis using the SCF Density.
 
 **********************************************************************
 
 Alpha  occ. eigenvalues --      -19.16976     -10.28908      -1.06086      -0.63754      -0.49532
 Alpha  occ. eigenvalues --       -0.44956      -0.39920      -0.26849
 Alpha virt. eigenvalues --       -0.04211       0.10125       0.18199       0.21878       0.50658
 Alpha virt. eigenvalues --        0.62355       0.62681       0.69400       0.81386       0.83718
 Alpha virt. eigenvalues --        0.89053       0.96009       1.05914       1.37731       1.50575
 Alpha virt. eigenvalues --        1.51007       1.68170       1.84987       1.93140       2.12619
 Alpha virt. eigenvalues --        2.27922       2.54107       2.65689       2.91080       3.68308
 Alpha virt. eigenvalues --        4.05552
          Condensed to atoms (all electrons):
               1          2          3          4
     1  O    7.875516   0.557407  -0.054478  -0.055568
     2  C    0.557407   4.699944   0.330192   0.331992
     3  H   -0.054478   0.330192   0.697704  -0.094994
     4  H   -0.055568   0.331992  -0.094994   0.697734
 Mulliken charges:
               1
     1  O   -0.322876
     2  C    0.080465
     3  H    0.121575
     4  H    0.120836
 Sum of Mulliken charges=   0.00000
 Mulliken charges with hydrogens summed into heavy atoms:
               1
     1  O   -0.322876
     2  C    0.322876
 APT charges:
               1
     1  O   -0.534318
     2  C    0.684773
     3  H   -0.074928
     4  H   -0.075527
 Sum of APT charges=   0.00000
 APT charges with hydrogens summed into heavy atoms:
               1
     1  O   -0.534318
     2  C    0.534318
 Electronic spatial extent (au):  <R**2>=             60.3109
 Charge=              0.0000 electrons
 Dipole moment (field-independent basis, Debye):
    X=              0.0000    Y=              0.0055    Z=             -2.1864  Tot=              2.1864
 Quadrupole moment (field-independent basis, Debye-Ang):
   XX=            -11.4048   YY=            -11.5084   ZZ=            -11.9278
   XY=              0.0000   XZ=              0.0000   YZ=             -0.0126
 Traceless Quadrupole moment (field-independent basis, Debye-Ang):
   XX=              0.2089   YY=              0.1052   ZZ=             -0.3141
   XY=              0.0000   XZ=              0.0000   YZ=             -0.0126
 Octapole moment (field-independent basis, Debye-Ang**2):
  XXX=              0.0000  YYY=             -0.0015  ZZZ=              1.2467  XYY=              0.0000
  XXY=              0.0022  XXZ=              0.9141  XZZ=              0.0000  YZZ=              0.0195
  YYZ=              0.0679  XYZ=              0.0000
 Hexadecapole moment (field-independent basis, Debye-Ang**3):
 XXXX=             -9.1915 YYYY=            -17.9933 ZZZZ=            -44.3996 XXXY=              0.0000
 XXXZ=              0.0000 YYYX=              0.0000 YYYZ=              0.0247 ZZZX=              0.0000
 ZZZY=             -0.0089 XXYY=             -4.7346 XXZZ=             -8.9021 YYZZ=            -10.1692
 XXYZ=              0.0077 YYXZ=              0.0000 ZZXY=              0.0000
 N-N=          31.223523 E-N=        -330.848907  KE=         113.484732
 Calling FoFJK, ICntrl=    100127 FMM=F ISym2X=0 I1Cent= 0 IOpClX= 0 NMat=1 NMatS=1 NMatT=0.
 -------------------------------------------------------------------
 Center     Atomic                   Forces (Hartrees/Bohr)
 Number     Number              X              Y              Z
 -------------------------------------------------------------------
      1        8           0.000000000    0.001281673    0.000006594
      2        6           0.000000000   -0.001791801   -0.000009179
      3        1           0.000000000    0.000247626    0.000664115
      4        1           0.000000000    0.000262502   -0.000661530
 -------------------------------------------------------------------
 Cartesian Forces:  Max     0.001791801 RMS     0.000698943
 NDeriv=      6 NFrqRd=  0 NDerD0=      0 MskFDP=       0 MskDFD=       0 MskDF0=       0
 Re-enter D2Numr:  normal mode      2 step-up   number 1
 Standard basis: 6-31G(d) (6D, 7F)
    34 basis functions,    64 primitive gaussians,    34 cartesian basis functions
     8 alpha electrons        8 beta electrons
       nuclear repulsion energy        31.2235233567 Hartrees.
 NAtoms=    4 NActive=    4 NUniq=    4 SFac= 1.00D+00 NAtFMM=   60 NAOKFM=F Big=F
 Integral buffers will be    131072 words long.
 Raffenetti 2 integral format.
 Two-electron integral symmetry is turned off.
 One-electron integrals computed using PRISM.
 NBasis=    34 RedAO= T EigKep=  9.04D-03  NBF=    34
 NBsUse=    34 1.00D-06 EigRej= -1.00D+00 NBFU=    34
 Initial guess from the checkpoint file:  "h2co.chk"
 B after Tr=     0.000000    0.000253    0.000000
         Rot=    1.000000   -0.000396    0.000000    0.000000 Ang=  -0.05 deg.
 Keep R1 ints in memory in canonical form, NReq=14020494.
 Requested convergence on RMS density matrix=1.00D-08 within  48 cycles.
 Requested convergence on MAX density matrix=1.00D-06.
 Requested convergence on             energy=1.00D-06.
 No special actions if energy rises.
 SCF Done:  E(RB3LYP) =  -114.500461697     A.U. after    8 cycles
            NFock=  8  Conv=0.90D-09     -V/T= 2.0090
 QCSCF skips out because SCF is already converged.
 DoSCS=F DFT=T ScalE2(SS,OS)=  1.000000  1.000000
 Range of M.O.s used for correlation:     1    34
 NBasis=    34 NAE=     8 NBE=     8 NFC=     0 NFV=     0
 NROrb=     34 NOA=     8 NOB=     8 NVA=    26 NVB=    26
 Symmetrizing basis deriv contribution to polar:
 IMax=3 JMax=2 DiffMx= 0.00D+00
 G2DrvN: will do     5 centers at a time, making    1 passes.
 Calling FoFCou, ICntrl=  3107 FMM=F I1Cent=   0 AccDes= 0.00D+00.
 End of G2Drv FD prop file    721 does not exist.
 End of G2Drv FD prop file    722 does not exist.
 End of G2Drv FD prop file    788 does not exist.
 End of G2Drv FD prop file    804 does not exist.
          IDoAtm=1111
          Differentiating once with respect to electric field.
                with respect to dipole field.
          Differentiating once with respect to nuclear coordinates.
 Keep R1 ints in memory in canonical form, NReq=13985552.
          There are    15 degrees of freedom in the 1st order CPHF.  IDoFFX=6 NUNeed=     3.
     12 vectors produced by pass  0 Test12= 1.39D-15 6.67D-09 XBig12= 1.70D+01 3.15D+00.
 AX will form    12 AO Fock derivatives at one time.
     12 vectors produced by pass  1 Test12= 1.39D-15 6.67D-09 XBig12= 4.30D+00 8.53D-01.
     12 vectors produced by pass  2 Test12= 1.39D-15 6.67D-09 XBig12= 2.74D-02 6.49D-02.
     12 vectors produced by pass  3 Test12= 1.39D-15 6.67D-09 XBig12= 5.15D-05 2.67D-03.
     12 vectors produced by pass  4 Test12= 1.39D-15 6.67D-09 XBig12= 3.71D-08 5.72D-05.
      6 vectors produced by pass  5 Test12= 1.39D-15 6.67D-09 XBig12= 3.50D-11 2.16D-06.
      1 vectors produced by pass  6 Test12= 1.39D-15 6.67D-09 XBig12= 4.10D-14 8.37D-08.
 InvSVY:  IOpt=1 It=  1 EMax= 4.44D-16
 Solved reduced A of dimension    67 with    12 vectors.
 Isotropic polarizability for W=    0.000000       13.08 Bohr**3.
 End of Minotr FD prop file    721 does not exist.
 End of Minotr FD prop file    722 does not exist.
 End of Minotr FD prop file    788 does not exist.
 End of Minotr FD prop file    804 does not exist.
 
 **********************************************************************
 
               Population analysis using the SCF Density.
 
 **********************************************************************
 
 Alpha  occ. eigenvalues --      -19.16976     -10.28908      -1.06086      -0.63754      -0.49532
 Alpha  occ. eigenvalues --       -0.44956      -0.39920      -0.26849
 Alpha virt. eigenvalues --       -0.04211       0.10125       0.18199       0.21878       0.50658
 Alpha virt. eigenvalues --        0.62355       0.62681       0.69400       0.81386       0.83718
 Alpha virt. eigenvalues --        0.89053       0.96009       1.05914       1.37731       1.50575
 Alpha virt. eigenvalues --        1.51007       1.68170       1.84987       1.93140       2.12619
 Alpha virt. eigenvalues --        2.27922       2.54107       2.65689       2.91080       3.68308
 Alpha virt. eigenvalues --        4.05552
          Condensed to atoms (all electrons):
               1          2          3          4
     1  O    7.875516   0.557407  -0.055568  -0.054478
     2  C    0.557407   4.699944   0.331992   0.330192
     3  H   -0.055568   0.331992   0.697734  -0.094994
     4  H   -0.054478   0.330192  -0.094994   0.697704
 Mulliken charges:
               1
     1  O   -0.322876
     2  C    0.080465
     3  H    0.120836
     4  H    0.121575
 Sum of Mulliken charges=   0.00000
 Mulliken charges with hydrogens summed into heavy atoms:
               1
     1  O   -0.322876
     2  C    0.322876
 APT charges:
               1
     1  O   -0.534318
     2  C    0.684773
     3  H   -0.075527
     4  H   -0.074928
 Sum of APT charges=   0.00000
 APT charges with hydrogens summed into heavy atoms:
               1
     1  O   -0.534318
     2  C    0.534318
 Electronic spatial extent (au):  <R**2>=             60.3109
 Charge=              0.0000 electrons
 Dipole moment (field-independent basis, Debye):
    X=              0.0000    Y=             -0.0055    Z=             -2.1864  Tot=              2.1864
 Quadrupole moment (field-independent basis, Debye-Ang):
   XX=            -11.4048   YY=            -11.5084   ZZ=            -11.9278
   XY=              0.0000   XZ=              0.0000   YZ=              0.0126
 Traceless Quadrupole moment (field-independent basis, Debye-Ang):
   XX=              0.2089   YY=              0.1052   ZZ=             -0.3141
   XY=              0.0000   XZ=              0.0000   YZ=              0.0126
 Octapole moment (field-independent basis, Debye-Ang**2):
  XXX=              0.0000  YYY=              0.0015  ZZZ=              1.2467  XYY=              0.0000
  XXY=             -0.0022  XXZ=              0.9141  XZZ=              0.0000  YZZ=             -0.0195
  YYZ=              0.0679  XYZ=              0.0000
 Hexadecapole moment (field-independent basis, Debye-Ang**3):
 XXXX=             -9.1915 YYYY=            -17.9933 ZZZZ=            -44.3996 XXXY=              0.0000
 XXXZ=              0.0000 YYYX=              0.0000 YYYZ=             -0.0247 ZZZX=              0.0000
 ZZZY=              0.0089 XXYY=             -4.7346 XXZZ=             -8.9021 YYZZ=            -10.1692
 XXYZ=             -0.0077 YYXZ=              0.0000 ZZXY=              0.0000
 N-N=          31.223523 E-N=        -330.848907  KE=         113.484732
 Calling FoFJK, ICntrl=    100127 FMM=F ISym2X=0 I1Cent= 0 IOpClX= 0 NMat=1 NMatS=1 NMatT=0.
 -------------------------------------------------------------------
 Center     Atomic                   Forces (Hartrees/Bohr)
 Number     Number              X              Y              Z
 -------------------------------------------------------------------
      1        8           0.000000000   -0.001281673    0.000006594
      2        6           0.000000000    0.001791801   -0.000009179
      3        1           0.000000000   -0.000262502   -0.000661530
      4        1           0.000000000   -0.000247626    0.000664115
 -------------------------------------------------------------------
 Cartesian Forces:  Max     0.001791801 RMS     0.000698943
 NDeriv=      6 NFrqRd=  0 NDerD0=      0 MskFDP=       0 MskDFD=       0 MskDF0=       0
 Re-enter D2Numr:  normal mode      2 step-down number 1
 Standard basis: 6-31G(d) (6D, 7F)
    34 basis functions,    64 primitive gaussians,    34 cartesian basis functions
     8 alpha electrons        8 beta electrons
       nuclear repulsion energy        31.1973195249 Hartrees.
 NAtoms=    4 NActive=    4 NUniq=    4 SFac= 1.00D+00 NAtFMM=   60 NAOKFM=F Big=F
 Integral buffers will be    131072 words long.
 Raffenetti 2 integral format.
 Two-electron integral symmetry is turned off.
 One-electron integrals computed using PRISM.
 NBasis=    34 RedAO= T EigKep=  9.09D-03  NBF=    34
 NBsUse=    34 1.00D-06 EigRej= -1.00D+00 NBFU=    34
 Initial guess from the checkpoint file:  "h2co.chk"
 B after Tr=     0.000000    0.000000   -0.000676
         Rot=    1.000000    0.000000    0.000000    0.000000 Ang=   0.00 deg.
 Keep R1 ints in memory in canonical form, NReq=14020494.
 Requested convergence on RMS density matrix=1.00D-08 within  48 cycles.
 Requested convergence on MAX density matrix=1.00D-06.
 Requested convergence on             energy=1.00D-06.
 No special actions if energy rises.
 SCF Done:  E(RB3LYP) =  -114.500456254     A.U. after    7 cycles
            NFock=  7  Conv=0.89D-08     -V/T= 2.0090
 QCSCF skips out because SCF is already converged.
 DoSCS=F DFT=T ScalE2(SS,OS)=  1.000000  1.000000
 Range of M.O.s used for correlation:     1    34
 NBasis=    34 NAE=     8 NBE=     8 NFC=     0 NFV=     0
 NROrb=     34 NOA=     8 NOB=     8 NVA=    26 NVB=    26
 Symmetrizing basis deriv contribution to polar:
 IMax=3 JMax=2 DiffMx= 0.00D+00
 G2DrvN: will do     5 centers at a time, making    1 passes.
 Calling FoFCou, ICntrl=  3107 FMM=F I1Cent=   0 AccDes= 0.00D+00.
 End of G2Drv FD prop file    721 does not exist.
 End of G2Drv FD prop file    722 does not exist.
 End of G2Drv FD prop file    788 does not exist.
 End of G2Drv FD prop file    804 does not exist.
          IDoAtm=1111
          Differentiating once with respect to electric field.
                with respect to dipole field.
          Differentiating once with respect to nuclear coordinates.
 Keep R1 ints in memory in canonical form, NReq=13985552.
          There are    15 degrees of freedom in the 1st order CPHF.  IDoFFX=6 NUNeed=     3.
     12 vectors produced by pass  0 Test12= 1.39D-15 6.67D-09 XBig12= 1.71D+01 3.16D+00.
 AX will form    12 AO Fock derivatives at one time.
     12 vectors produced by pass  1 Test12= 1.39D-15 6.67D-09 XBig12= 4.34D+00 8.56D-01.
     12 vectors produced by pass  2 Test12= 1.39D-15 6.67D-09 XBig12= 2.79D-02 6.57D-02.
     12 vectors produced by pass  3 Test12= 1.39D-15 6.67D-09 XBig12= 5.29D-05 2.72D-03.
     12 vectors produced by pass  4 Test12= 1.39D-15 6.67D-09 XBig12= 3.83D-08 5.80D-05.
      6 vectors produced by pass  5 Test12= 1.39D-15 6.67D-09 XBig12= 3.77D-11 2.30D-06.
      1 vectors produced by pass  6 Test12= 1.39D-15 6.67D-09 XBig12= 4.53D-14 8.92D-08.
 InvSVY:  IOpt=1 It=  1 EMax= 5.55D-16
 Solved reduced A of dimension    67 with    12 vectors.
 Isotropic polarizability for W=    0.000000       13.10 Bohr**3.
 End of Minotr FD prop file    721 does not exist.
 End of Minotr FD prop file    722 does not exist.
 End of Minotr FD prop file    788 does not exist.
 End of Minotr FD prop file    804 does not exist.
 
 **********************************************************************
 
               Population analysis using the SCF Density.
 
 **********************************************************************
 
 Alpha  occ. eigenvalues --      -19.17023     -10.28944      -1.06051      -0.63819      -0.49440
 Alpha  occ. eigenvalues --       -0.44995      -0.39907      -0.26874
 Alpha virt. eigenvalues --       -0.04255       0.10130       0.18187       0.21840       0.50657
 Alpha virt. eigenvalues --        0.62447       0.62482       0.69430       0.81250       0.83677
 Alpha virt. eigenvalues --        0.89086       0.95987       1.05838       1.37685       1.50621
 Alpha virt. eigenvalues --        1.50925       1.68105       1.84866       1.93100       2.12467
 Alpha virt. eigenvalues --        2.27454       2.53974       2.65963       2.90945       3.68157
 Alpha virt. eigenvalues --        4.05581
          Condensed to atoms (all electrons):
               1          2          3          4
     1  O    7.875145   0.556799  -0.054397  -0.054397
     2  C    0.556799   4.700485   0.331047   0.331047
     3  H   -0.054397   0.331047   0.698180  -0.096093
     4  H   -0.054397   0.331047  -0.096093   0.698180
 Mulliken charges:
               1
     1  O   -0.323151
     2  C    0.080623
     3  H    0.121264
     4  H    0.121264
 Sum of Mulliken charges=   0.00000
 Mulliken charges with hydrogens summed into heavy atoms:
               1
     1  O   -0.323151
     2  C    0.323151
 APT charges:
               1
     1  O   -0.534533
     2  C    0.686046
     3  H   -0.075756
     4  H   -0.075756
 Sum of APT charges=   0.00000
 APT charges with hydrogens summed into heavy atoms:
               1
     1  O   -0.534533
     2  C    0.534533
 Electronic spatial extent (au):  <R**2>=             60.3986
 Charge=              0.0000 electrons
 Dipole moment (field-independent basis, Debye):
    X=              0.0000    Y=              0.0000    Z=             -2.1903  Tot=              2.1903
 Quadrupole moment (field-independent basis, Debye-Ang):
   XX=            -11.4065   YY=            -11.5276   ZZ=            -11.9115
   XY=              0.0000   XZ=              0.0000   YZ=              0.0000
 Traceless Quadrupole moment (field-independent basis, Debye-Ang):
   XX=              0.2087   YY=              0.0876   ZZ=             -0.2963
   XY=              0.0000   XZ=              0.0000   YZ=              0.0000
 Octapole moment (field-independent basis, Debye-Ang**2):
  XXX=              0.0000  YYY=              0.0000  ZZZ=              1.2336  XYY=              0.0000
  XXY=              0.0000  XXZ=              0.9189  XZZ=              0.0000  YZZ=              0.0000
  YYZ=              0.0833  XYZ=              0.0000
 Hexadecapole moment (field-independent basis, Debye-Ang**3):
 XXXX=             -9.1935 YYYY=            -17.9812 ZZZZ=            -44.4994 XXXY=              0.0000
 XXXZ=              0.0000 YYYX=              0.0000 YYYZ=              0.0000 ZZZX=              0.0000
 ZZZY=              0.0000 XXYY=             -4.7286 XXZZ=             -8.9285 YYZZ=            -10.1905
 XXYZ=              0.0000 YYXZ=              0.0000 ZZXY=              0.0000
 N-N=          31.197320 E-N=        -330.790274  KE=         113.479301
 Calling FoFJK, ICntrl=    100127 FMM=F ISym2X=0 I1Cent= 0 IOpClX= 0 NMat=1 NMatS=1 NMatT=0.
 -------------------------------------------------------------------
 Center     Atomic                   Forces (Hartrees/Bohr)
 Number     Number              X              Y              Z
 -------------------------------------------------------------------
      1        8           0.000000000    0.000000000   -0.002318543
      2        6           0.000000000    0.000000000    0.000282027
      3        1           0.000000000    0.000574600    0.001018258
      4        1           0.000000000   -0.000574600    0.001018258
 -------------------------------------------------------------------
 Cartesian Forces:  Max     0.002318543 RMS     0.000826096
 NDeriv=      6 NFrqRd=  0 NDerD0=      0 MskFDP=       0 MskDFD=       0 MskDF0=       0
 Re-enter D2Numr:  normal mode      3 step-up   number 1
 Standard basis: 6-31G(d) (6D, 7F)
    34 basis functions,    64 primitive gaussians,    34 cartesian basis functions
     8 alpha electrons        8 beta electrons
       nuclear repulsion energy        31.2498129479 Hartrees.
 NAtoms=    4 NActive=    4 NUniq=    4 SFac= 1.00D+00 NAtFMM=   60 NAOKFM=F Big=F
 Integral buffers will be    131072 words long.
 Raffenetti 2 integral format.
 Two-electron integral symmetry is turned off.
 One-electron integrals computed using PRISM.
 NBasis=    34 RedAO= T EigKep=  9.00D-03  NBF=    34
 NBsUse=    34 1.00D-06 EigRej= -1.00D+00 NBFU=    34
 Initial guess from the checkpoint file:  "h2co.chk"
 B after Tr=     0.000000    0.000000    0.000676
         Rot=    1.000000    0.000000    0.000000    0.000000 Ang=   0.00 deg.
 Keep R1 ints in memory in canonical form, NReq=14020494.
 Requested convergence on RMS density matrix=1.00D-08 within  48 cycles.
 Requested convergence on MAX density matrix=1.00D-06.
 Requested convergence on             energy=1.00D-06.
 No special actions if energy rises.
 SCF Done:  E(RB3LYP) =  -114.500456250     A.U. after    7 cycles
            NFock=  7  Conv=0.86D-08     -V/T= 2.0089
 QCSCF skips out because SCF is already converged.
 DoSCS=F DFT=T ScalE2(SS,OS)=  1.000000  1.000000
 Range of M.O.s used for correlation:     1    34
 NBasis=    34 NAE=     8 NBE=     8 NFC=     0 NFV=     0
 NROrb=     34 NOA=     8 NOB=     8 NVA=    26 NVB=    26
 Symmetrizing basis deriv contribution to polar:
 IMax=3 JMax=2 DiffMx= 0.00D+00
 G2DrvN: will do     5 centers at a time, making    1 passes.
 Calling FoFCou, ICntrl=  3107 FMM=F I1Cent=   0 AccDes= 0.00D+00.
 End of G2Drv FD prop file    721 does not exist.
 End of G2Drv FD prop file    722 does not exist.
 End of G2Drv FD prop file    788 does not exist.
 End of G2Drv FD prop file    804 does not exist.
          IDoAtm=1111
          Differentiating once with respect to electric field.
                with respect to dipole field.
          Differentiating once with respect to nuclear coordinates.
 Keep R1 ints in memory in canonical form, NReq=13985552.
          There are    15 degrees of freedom in the 1st order CPHF.  IDoFFX=6 NUNeed=     3.
     12 vectors produced by pass  0 Test12= 1.39D-15 6.67D-09 XBig12= 1.69D+01 3.14D+00.
 AX will form    12 AO Fock derivatives at one time.
     12 vectors produced by pass  1 Test12= 1.39D-15 6.67D-09 XBig12= 4.27D+00 8.51D-01.
     12 vectors produced by pass  2 Test12= 1.39D-15 6.67D-09 XBig12= 2.71D-02 6.47D-02.
     12 vectors produced by pass  3 Test12= 1.39D-15 6.67D-09 XBig12= 5.05D-05 2.63D-03.
     12 vectors produced by pass  4 Test12= 1.39D-15 6.67D-09 XBig12= 3.64D-08 5.74D-05.
      6 vectors produced by pass  5 Test12= 1.39D-15 6.67D-09 XBig12= 3.45D-11 2.16D-06.
      1 vectors produced by pass  6 Test12= 1.39D-15 6.67D-09 XBig12= 4.18D-14 8.36D-08.
 InvSVY:  IOpt=1 It=  1 EMax= 4.44D-16
 Solved reduced A of dimension    67 with    12 vectors.
 Isotropic polarizability for W=    0.000000       13.07 Bohr**3.
 End of Minotr FD prop file    721 does not exist.
 End of Minotr FD prop file    722 does not exist.
 End of Minotr FD prop file    788 does not exist.
 End of Minotr FD prop file    804 does not exist.
 
 **********************************************************************
 
               Population analysis using the SCF Density.
 
 **********************************************************************
 
 Alpha  occ. eigenvalues --      -19.16929     -10.28872      -1.06122      -0.63690      -0.49624
 Alpha  occ. eigenvalues --       -0.44916      -0.39934      -0.26824
 Alpha virt. eigenvalues --       -0.04167       0.10116       0.18218       0.21910       0.50659
 Alpha virt. eigenvalues --        0.62227       0.62913       0.69385       0.81526       0.83751
 Alpha virt. eigenvalues --        0.89019       0.96031       1.05994       1.37774       1.50530
 Alpha virt. eigenvalues --        1.51090       1.68235       1.85111       1.93180       2.12768
 Alpha virt. eigenvalues --        2.28389       2.54240       2.65415       2.91215       3.68458
 Alpha virt. eigenvalues --        4.05522
          Condensed to atoms (all electrons):
               1          2          3          4
     1  O    7.875871   0.558027  -0.055651  -0.055651
     2  C    0.558027   4.699395   0.331146   0.331146
     3  H   -0.055651   0.331146   0.697265  -0.093914
     4  H   -0.055651   0.331146  -0.093914   0.697265
 Mulliken charges:
               1
     1  O   -0.322596
     2  C    0.080286
     3  H    0.121155
     4  H    0.121155
 Sum of Mulliken charges=   0.00000
 Mulliken charges with hydrogens summed into heavy atoms:
               1
     1  O   -0.322596
     2  C    0.322596
 APT charges:
               1
     1  O   -0.534099
     2  C    0.683486
     3  H   -0.074694
     4  H   -0.074694
 Sum of APT charges=   0.00000
 APT charges with hydrogens summed into heavy atoms:
               1
     1  O   -0.534099
     2  C    0.534099
 Electronic spatial extent (au):  <R**2>=             60.2233
 Charge=              0.0000 electrons
 Dipole moment (field-independent basis, Debye):
    X=              0.0000    Y=              0.0000    Z=             -2.1825  Tot=              2.1825
 Quadrupole moment (field-independent basis, Debye-Ang):
   XX=            -11.4031   YY=            -11.4893   ZZ=            -11.9440
   XY=              0.0000   XZ=              0.0000   YZ=              0.0000
 Traceless Quadrupole moment (field-independent basis, Debye-Ang):
   XX=              0.2091   YY=              0.1228   ZZ=             -0.3319
   XY=              0.0000   XZ=              0.0000   YZ=              0.0000
 Octapole moment (field-independent basis, Debye-Ang**2):
  XXX=              0.0000  YYY=              0.0000  ZZZ=              1.2598  XYY=              0.0000
  XXY=              0.0000  XXZ=              0.9092  XZZ=              0.0000  YZZ=              0.0000
  YYZ=              0.0527  XYZ=              0.0000
 Hexadecapole moment (field-independent basis, Debye-Ang**3):
 XXXX=             -9.1895 YYYY=            -18.0053 ZZZZ=            -44.2998 XXXY=              0.0000
 XXXZ=              0.0000 YYYX=              0.0000 YYYZ=              0.0000 ZZZX=              0.0000
 ZZZY=              0.0000 XXYY=             -4.7405 XXZZ=             -8.8756 YYZZ=            -10.1483
 XXYZ=              0.0000 YYXZ=              0.0000 ZZXY=              0.0000
 N-N=          31.249813 E-N=        -330.907705  KE=         113.490186
 Calling FoFJK, ICntrl=    100127 FMM=F ISym2X=0 I1Cent= 0 IOpClX= 0 NMat=1 NMatS=1 NMatT=0.
 -------------------------------------------------------------------
 Center     Atomic                   Forces (Hartrees/Bohr)
 Number     Number              X              Y              Z
 -------------------------------------------------------------------
      1        8           0.000000000    0.000000000    0.002340116
      2        6           0.000000000    0.000000000   -0.000313451
      3        1           0.000000000   -0.000577686   -0.001013333
      4        1           0.000000000    0.000577686   -0.001013333
 -------------------------------------------------------------------
 Cartesian Forces:  Max     0.002340116 RMS     0.000831441
 NDeriv=      6 NFrqRd=  0 NDerD0=      0 MskFDP=       0 MskDFD=       0 MskDF0=       0
 Re-enter D2Numr:  normal mode      3 step-down number 1
 Standard basis: 6-31G(d) (6D, 7F)
    34 basis functions,    64 primitive gaussians,    34 cartesian basis functions
     8 alpha electrons        8 beta electrons
       nuclear repulsion energy        31.1580101848 Hartrees.
 NAtoms=    4 NActive=    4 NUniq=    4 SFac= 1.00D+00 NAtFMM=   60 NAOKFM=F Big=F
 Integral buffers will be    131072 words long.
 Raffenetti 2 integral format.
 Two-electron integral symmetry is turned off.
 One-electron integrals computed using PRISM.
 NBasis=    34 RedAO= T EigKep=  9.11D-03  NBF=    34
 NBsUse=    34 1.00D-06 EigRej= -1.00D+00 NBFU=    34
 Initial guess from the checkpoint file:  "h2co.chk"
 B after Tr=     0.000000    0.000000    0.000119
         Rot=    1.000000    0.000000    0.000000    0.000000 Ang=   0.00 deg.
 Keep R1 ints in memory in canonical form, NReq=14020494.
 Requested convergence on RMS density matrix=1.00D-08 within  48 cycles.
 Requested convergence on MAX density matrix=1.00D-06.
 Requested convergence on             energy=1.00D-06.
 No special actions if energy rises.
 SCF Done:  E(RB3LYP) =  -114.500449813     A.U. after    7 cycles
            NFock=  7  Conv=0.88D-08     -V/T= 2.0091
 QCSCF skips out because SCF is already converged.
 DoSCS=F DFT=T ScalE2(SS,OS)=  1.000000  1.000000
 Range of M.O.s used for correlation:     1    34
 NBasis=    34 NAE=     8 NBE=     8 NFC=     0 NFV=     0
 NROrb=     34 NOA=     8 NOB=     8 NVA=    26 NVB=    26
 Symmetrizing basis deriv contribution to polar:
 IMax=3 JMax=2 DiffMx= 0.00D+00
 G2DrvN: will do     5 centers at a time, making    1 passes.
 Calling FoFCou, ICntrl=  3107 FMM=F I1Cent=   0 AccDes= 0.00D+00.
 End of G2Drv FD prop file    721 does not exist.
 End of G2Drv FD prop file    722 does not exist.
 End of G2Drv FD prop file    788 does not exist.
 End of G2Drv FD prop file    804 does not exist.
          IDoAtm=1111
          Differentiating once with respect to electric field.
                with respect to dipole field.
          Differentiating once with respect to nuclear coordinates.
 Keep R1 ints in memory in canonical form, NReq=13985552.
          There are    15 degrees of freedom in the 1st order CPHF.  IDoFFX=6 NUNeed=     3.
     12 vectors produced by pass  0 Test12= 1.39D-15 6.67D-09 XBig12= 1.72D+01 3.18D+00.
 AX will form    12 AO Fock derivatives at one time.
     12 vectors produced by pass  1 Test12= 1.39D-15 6.67D-09 XBig12= 4.38D+00 8.58D-01.
     12 vectors produced by pass  2 Test12= 1.39D-15 6.67D-09 XBig12= 2.80D-02 6.55D-02.
     12 vectors produced by pass  3 Test12= 1.39D-15 6.67D-09 XBig12= 5.24D-05 2.70D-03.
     12 vectors produced by pass  4 Test12= 1.39D-15 6.67D-09 XBig12= 3.79D-08 5.85D-05.
      6 vectors produced by pass  5 Test12= 1.39D-15 6.67D-09 XBig12= 3.63D-11 2.24D-06.
      1 vectors produced by pass  6 Test12= 1.39D-15 6.67D-09 XBig12= 4.47D-14 8.73D-08.
 InvSVY:  IOpt=1 It=  1 EMax= 4.44D-16
 Solved reduced A of dimension    67 with    12 vectors.
 Isotropic polarizability for W=    0.000000       13.09 Bohr**3.
 End of Minotr FD prop file    721 does not exist.
 End of Minotr FD prop file    722 does not exist.
 End of Minotr FD prop file    788 does not exist.
 End of Minotr FD prop file    804 does not exist.
 
 **********************************************************************
 
               Population analysis using the SCF Density.
 
 **********************************************************************
 
 Alpha  occ. eigenvalues --      -19.16967     -10.28940      -1.05873      -0.63779      -0.49522
 Alpha  occ. eigenvalues --       -0.44874      -0.39790      -0.26854
 Alpha virt. eigenvalues --       -0.04303       0.10096       0.18154       0.21833       0.50689
 Alpha virt. eigenvalues --        0.62131       0.62794       0.68988       0.81427       0.83800
 Alpha virt. eigenvalues --        0.89036       0.96015       1.05933       1.37616       1.50689
 Alpha virt. eigenvalues --        1.50838       1.68368       1.84834       1.93008       2.12474
 Alpha virt. eigenvalues --        2.27483       2.53754       2.65159       2.90670       3.68056
 Alpha virt. eigenvalues --        4.05503
          Condensed to atoms (all electrons):
               1          2          3          4
     1  O    7.880062   0.554414  -0.054873  -0.054873
     2  C    0.554414   4.703609   0.331044   0.331044
     3  H   -0.054873   0.331044   0.695244  -0.093835
     4  H   -0.054873   0.331044  -0.093835   0.695244
 Mulliken charges:
               1
     1  O   -0.324730
     2  C    0.079890
     3  H    0.122420
     4  H    0.122420
 Sum of Mulliken charges=   0.00000
 Mulliken charges with hydrogens summed into heavy atoms:
               1
     1  O   -0.324730
     2  C    0.324730
 APT charges:
               1
     1  O   -0.531716
     2  C    0.677640
     3  H   -0.072962
     4  H   -0.072962
 Sum of APT charges=   0.00000
 APT charges with hydrogens summed into heavy atoms:
               1
     1  O   -0.531716
     2  C    0.531716
 Electronic spatial extent (au):  <R**2>=             60.4190
 Charge=              0.0000 electrons
 Dipole moment (field-independent basis, Debye):
    X=              0.0000    Y=              0.0000    Z=             -2.2016  Tot=              2.2016
 Quadrupole moment (field-independent basis, Debye-Ang):
   XX=            -11.4139   YY=            -11.4944   ZZ=            -11.9244
   XY=              0.0000   XZ=              0.0000   YZ=              0.0000
 Traceless Quadrupole moment (field-independent basis, Debye-Ang):
   XX=              0.1970   YY=              0.1165   ZZ=             -0.3135
   XY=              0.0000   XZ=              0.0000   YZ=              0.0000
 Octapole moment (field-independent basis, Debye-Ang**2):
  XXX=              0.0000  YYY=              0.0000  ZZZ=              1.2308  XYY=              0.0000
  XXY=              0.0000  XXZ=              0.9118  XZZ=              0.0000  YZZ=              0.0000
  YYZ=              0.0386  XYZ=              0.0000
 Hexadecapole moment (field-independent basis, Debye-Ang**3):
 XXXX=             -9.2078 YYYY=            -17.9699 ZZZZ=            -44.4972 XXXY=              0.0000
 XXXZ=              0.0000 YYYX=              0.0000 YYYZ=              0.0000 ZZZX=              0.0000
 ZZZY=              0.0000 XXYY=             -4.7381 XXZZ=             -8.9206 YYZZ=            -10.1641
 XXYZ=              0.0000 YYXZ=              0.0000 ZZXY=              0.0000
 N-N=          31.158010 E-N=        -330.714278  KE=         113.471975
 Calling FoFJK, ICntrl=    100127 FMM=F ISym2X=0 I1Cent= 0 IOpClX= 0 NMat=1 NMatS=1 NMatT=0.
 -------------------------------------------------------------------
 Center     Atomic                   Forces (Hartrees/Bohr)
 Number     Number              X              Y              Z
 -------------------------------------------------------------------
      1        8           0.000000000    0.000000000   -0.005764979
      2        6           0.000000000    0.000000000    0.006264014
      3        1           0.000000000   -0.000440102   -0.000249518
      4        1           0.000000000    0.000440102   -0.000249518
 -------------------------------------------------------------------
 Cartesian Forces:  Max     0.006264014 RMS     0.002466184
 NDeriv=      6 NFrqRd=  0 NDerD0=      0 MskFDP=       0 MskDFD=       0 MskDF0=       0
 Re-enter D2Numr:  normal mode      4 step-up   number 1
 Standard basis: 6-31G(d) (6D, 7F)
    34 basis functions,    64 primitive gaussians,    34 cartesian basis functions
     8 alpha electrons        8 beta electrons
       nuclear repulsion energy        31.2896089441 Hartrees.
 NAtoms=    4 NActive=    4 NUniq=    4 SFac= 1.00D+00 NAtFMM=   60 NAOKFM=F Big=F
 Integral buffers will be    131072 words long.
 Raffenetti 2 integral format.
 Two-electron integral symmetry is turned off.
 One-electron integrals computed using PRISM.
 NBasis=    34 RedAO= T EigKep=  8.98D-03  NBF=    34
 NBsUse=    34 1.00D-06 EigRej= -1.00D+00 NBFU=    34
 Initial guess from the checkpoint file:  "h2co.chk"
 B after Tr=     0.000000    0.000000   -0.000119
         Rot=    1.000000    0.000000    0.000000    0.000000 Ang=   0.00 deg.
 Keep R1 ints in memory in canonical form, NReq=14020494.
 Requested convergence on RMS density matrix=1.00D-08 within  48 cycles.
 Requested convergence on MAX density matrix=1.00D-06.
 Requested convergence on             energy=1.00D-06.
 No special actions if energy rises.
 SCF Done:  E(RB3LYP) =  -114.500449461     A.U. after    7 cycles
            NFock=  7  Conv=0.87D-08     -V/T= 2.0088
 QCSCF skips out because SCF is already converged.
 DoSCS=F DFT=T ScalE2(SS,OS)=  1.000000  1.000000
 Range of M.O.s used for correlation:     1    34
 NBasis=    34 NAE=     8 NBE=     8 NFC=     0 NFV=     0
 NROrb=     34 NOA=     8 NOB=     8 NVA=    26 NVB=    26
 Symmetrizing basis deriv contribution to polar:
 IMax=3 JMax=2 DiffMx= 0.00D+00
 G2DrvN: will do     5 centers at a time, making    1 passes.
 Calling FoFCou, ICntrl=  3107 FMM=F I1Cent=   0 AccDes= 0.00D+00.
 End of G2Drv FD prop file    721 does not exist.
 End of G2Drv FD prop file    722 does not exist.
 End of G2Drv FD prop file    788 does not exist.
 End of G2Drv FD prop file    804 does not exist.
          IDoAtm=1111
          Differentiating once with respect to electric field.
                with respect to dipole field.
          Differentiating once with respect to nuclear coordinates.
 Keep R1 ints in memory in canonical form, NReq=13985552.
          There are    15 degrees of freedom in the 1st order CPHF.  IDoFFX=6 NUNeed=     3.
     12 vectors produced by pass  0 Test12= 1.39D-15 6.67D-09 XBig12= 1.68D+01 3.12D+00.
 AX will form    12 AO Fock derivatives at one time.
     12 vectors produced by pass  1 Test12= 1.39D-15 6.67D-09 XBig12= 4.24D+00 8.49D-01.
     12 vectors produced by pass  2 Test12= 1.39D-15 6.67D-09 XBig12= 2.70D-02 6.49D-02.
     12 vectors produced by pass  3 Test12= 1.39D-15 6.67D-09 XBig12= 5.10D-05 2.66D-03.
     12 vectors produced by pass  4 Test12= 1.39D-15 6.67D-09 XBig12= 3.68D-08 5.69D-05.
      6 vectors produced by pass  5 Test12= 1.39D-15 6.67D-09 XBig12= 3.57D-11 2.21D-06.
      1 vectors produced by pass  6 Test12= 1.39D-15 6.67D-09 XBig12= 4.23D-14 8.54D-08.
 InvSVY:  IOpt=1 It=  1 EMax= 4.44D-16
 Solved reduced A of dimension    67 with    12 vectors.
 Isotropic polarizability for W=    0.000000       13.07 Bohr**3.
 End of Minotr FD prop file    721 does not exist.
 End of Minotr FD prop file    722 does not exist.
 End of Minotr FD prop file    788 does not exist.
 End of Minotr FD prop file    804 does not exist.
 
 **********************************************************************
 
               Population analysis using the SCF Density.
 
 **********************************************************************
 
 Alpha  occ. eigenvalues --      -19.16985     -10.28875      -1.06301      -0.63730      -0.49544
 Alpha  occ. eigenvalues --       -0.45037      -0.40051      -0.26844
 Alpha virt. eigenvalues --       -0.04118       0.10154       0.18254       0.21915       0.50627
 Alpha virt. eigenvalues --        0.62563       0.62583       0.69823       0.81349       0.83626
 Alpha virt. eigenvalues --        0.89071       0.96003       1.05898       1.37844       1.50461
 Alpha virt. eigenvalues --        1.51180       1.67971       1.85157       1.93274       2.12761
 Alpha virt. eigenvalues --        2.28362       2.54460       2.66220       2.91496       3.68559
 Alpha virt. eigenvalues --        4.05604
          Condensed to atoms (all electrons):
               1          2          3          4
     1  O    7.870878   0.560437  -0.055169  -0.055169
     2  C    0.560437   4.696253   0.331153   0.331153
     3  H   -0.055169   0.331153   0.700201  -0.096171
     4  H   -0.055169   0.331153  -0.096171   0.700201
 Mulliken charges:
               1
     1  O   -0.320977
     2  C    0.081004
     3  H    0.119986
     4  H    0.119986
 Sum of Mulliken charges=   0.00000
 Mulliken charges with hydrogens summed into heavy atoms:
               1
     1  O   -0.320977
     2  C    0.320977
 APT charges:
               1
     1  O   -0.536940
     2  C    0.691937
     3  H   -0.077499
     4  H   -0.077499
 Sum of APT charges=   0.00000
 APT charges with hydrogens summed into heavy atoms:
               1
     1  O   -0.536940
     2  C    0.536940
 Electronic spatial extent (au):  <R**2>=             60.2025
 Charge=              0.0000 electrons
 Dipole moment (field-independent basis, Debye):
    X=              0.0000    Y=              0.0000    Z=             -2.1710  Tot=              2.1710
 Quadrupole moment (field-independent basis, Debye-Ang):
   XX=            -11.3955   YY=            -11.5224   ZZ=            -11.9312
   XY=              0.0000   XZ=              0.0000   YZ=              0.0000
 Traceless Quadrupole moment (field-independent basis, Debye-Ang):
   XX=              0.2209   YY=              0.0940   ZZ=             -0.3148
   XY=              0.0000   XZ=              0.0000   YZ=              0.0000
 Octapole moment (field-independent basis, Debye-Ang**2):
  XXX=              0.0000  YYY=              0.0000  ZZZ=              1.2632  XYY=              0.0000
  XXY=              0.0000  XXZ=              0.9164  XZZ=              0.0000  YZZ=              0.0000
  YYZ=              0.0971  XYZ=              0.0000
 Hexadecapole moment (field-independent basis, Debye-Ang**3):
 XXXX=             -9.1750 YYYY=            -18.0160 ZZZZ=            -44.3028 XXXY=              0.0000
 XXXZ=              0.0000 YYYX=              0.0000 YYYZ=              0.0000 ZZZX=              0.0000
 ZZZY=              0.0000 XXYY=             -4.7309 XXZZ=             -8.8835 YYZZ=            -10.1743
 XXYZ=              0.0000 YYXZ=              0.0000 ZZXY=              0.0000
 N-N=          31.289609 E-N=        -330.984792  KE=         113.497759
 Calling FoFJK, ICntrl=    100127 FMM=F ISym2X=0 I1Cent= 0 IOpClX= 0 NMat=1 NMatS=1 NMatT=0.
 -------------------------------------------------------------------
 Center     Atomic                   Forces (Hartrees/Bohr)
 Number     Number              X              Y              Z
 -------------------------------------------------------------------
      1        8           0.000000000    0.000000000    0.005913700
      2        6           0.000000000    0.000000000   -0.006416294
      3        1           0.000000000    0.000439566    0.000251297
      4        1           0.000000000   -0.000439566    0.000251297
 -------------------------------------------------------------------
 Cartesian Forces:  Max     0.006416294 RMS     0.002527407
 NDeriv=      6 NFrqRd=  0 NDerD0=      0 MskFDP=       0 MskDFD=       0 MskDF0=       0
 Re-enter D2Numr:  normal mode      4 step-down number 1
 Standard basis: 6-31G(d) (6D, 7F)
    34 basis functions,    64 primitive gaussians,    34 cartesian basis functions
     8 alpha electrons        8 beta electrons
       nuclear repulsion energy        31.1827266447 Hartrees.
 NAtoms=    4 NActive=    4 NUniq=    4 SFac= 1.00D+00 NAtFMM=   60 NAOKFM=F Big=F
 Integral buffers will be    131072 words long.
 Raffenetti 2 integral format.
 Two-electron integral symmetry is turned off.
 One-electron integrals computed using PRISM.
 NBasis=    34 RedAO= T EigKep=  9.04D-03  NBF=    34
 NBsUse=    34 1.00D-06 EigRej= -1.00D+00 NBFU=    34
 Initial guess from the checkpoint file:  "h2co.chk"
 B after Tr=     0.000000    0.000000   -0.000405
         Rot=    1.000000    0.000000    0.000000    0.000000 Ang=   0.00 deg.
 Keep R1 ints in memory in canonical form, NReq=14020494.
 Requested convergence on RMS density matrix=1.00D-08 within  48 cycles.
 Requested convergence on MAX density matrix=1.00D-06.
 Requested convergence on             energy=1.00D-06.
 No special actions if energy rises.
 SCF Done:  E(RB3LYP) =  -114.500416084     A.U. after    8 cycles
            NFock=  8  Conv=0.80D-09     -V/T= 2.0091
 QCSCF skips out because SCF is already converged.
 DoSCS=F DFT=T ScalE2(SS,OS)=  1.000000  1.000000
 Range of M.O.s used for correlation:     1    34
 NBasis=    34 NAE=     8 NBE=     8 NFC=     0 NFV=     0
 NROrb=     34 NOA=     8 NOB=     8 NVA=    26 NVB=    26
 Symmetrizing basis deriv contribution to polar:
 IMax=3 JMax=2 DiffMx= 0.00D+00
 G2DrvN: will do     5 centers at a time, making    1 passes.
 Calling FoFCou, ICntrl=  3107 FMM=F I1Cent=   0 AccDes= 0.00D+00.
 End of G2Drv FD prop file    721 does not exist.
 End of G2Drv FD prop file    722 does not exist.
 End of G2Drv FD prop file    788 does not exist.
 End of G2Drv FD prop file    804 does not exist.
          IDoAtm=1111
          Differentiating once with respect to electric field.
                with respect to dipole field.
          Differentiating once with respect to nuclear coordinates.
 Keep R1 ints in memory in canonical form, NReq=13985552.
          There are    15 degrees of freedom in the 1st order CPHF.  IDoFFX=6 NUNeed=     3.
     12 vectors produced by pass  0 Test12= 1.39D-15 6.67D-09 XBig12= 1.71D+01 3.14D+00.
 AX will form    12 AO Fock derivatives at one time.
     12 vectors produced by pass  1 Test12= 1.39D-15 6.67D-09 XBig12= 4.32D+00 8.46D-01.
     12 vectors produced by pass  2 Test12= 1.39D-15 6.67D-09 XBig12= 2.78D-02 6.55D-02.
     12 vectors produced by pass  3 Test12= 1.39D-15 6.67D-09 XBig12= 5.34D-05 2.69D-03.
     12 vectors produced by pass  4 Test12= 1.39D-15 6.67D-09 XBig12= 3.91D-08 5.89D-05.
      6 vectors produced by pass  5 Test12= 1.39D-15 6.67D-09 XBig12= 3.60D-11 2.19D-06.
      1 vectors produced by pass  6 Test12= 1.39D-15 6.67D-09 XBig12= 4.41D-14 8.55D-08.
 InvSVY:  IOpt=1 It=  1 EMax= 5.55D-16
 Solved reduced A of dimension    67 with    12 vectors.
 Isotropic polarizability for W=    0.000000       13.18 Bohr**3.
 End of Minotr FD prop file    721 does not exist.
 End of Minotr FD prop file    722 does not exist.
 End of Minotr FD prop file    788 does not exist.
 End of Minotr FD prop file    804 does not exist.
 
 **********************************************************************
 
               Population analysis using the SCF Density.
 
 **********************************************************************
 
 Alpha  occ. eigenvalues --      -19.17030     -10.29046      -1.06153      -0.63572      -0.49417
 Alpha  occ. eigenvalues --       -0.44984      -0.39969      -0.26864
 Alpha virt. eigenvalues --       -0.04206       0.09883       0.18038       0.21881       0.50625
 Alpha virt. eigenvalues --        0.62476       0.62803       0.69395       0.80944       0.83526
 Alpha virt. eigenvalues --        0.88668       0.95981       1.05918       1.37733       1.50595
 Alpha virt. eigenvalues --        1.51032       1.67939       1.84407       1.93166       2.12230
 Alpha virt. eigenvalues --        2.27944       2.54157       2.65357       2.91089       3.68311
 Alpha virt. eigenvalues --        4.05215
          Condensed to atoms (all electrons):
               1          2          3          4
     1  O    7.873753   0.557171  -0.054772  -0.054772
     2  C    0.557171   4.701830   0.330004   0.330004
     3  H   -0.054772   0.330004   0.698205  -0.093631
     4  H   -0.054772   0.330004  -0.093631   0.698205
 Mulliken charges:
               1
     1  O   -0.321380
     2  C    0.080993
     3  H    0.120194
     4  H    0.120194
 Sum of Mulliken charges=   0.00000
 Mulliken charges with hydrogens summed into heavy atoms:
               1
     1  O   -0.321380
     2  C    0.321380
 APT charges:
               1
     1  O   -0.536383
     2  C    0.691510
     3  H   -0.077564
     4  H   -0.077564
 Sum of APT charges=   0.00000
 APT charges with hydrogens summed into heavy atoms:
               1
     1  O   -0.536383
     2  C    0.536383
 Electronic spatial extent (au):  <R**2>=             60.4635
 Charge=              0.0000 electrons
 Dipole moment (field-independent basis, Debye):
    X=              0.0000    Y=              0.0000    Z=             -2.1748  Tot=              2.1748
 Quadrupole moment (field-independent basis, Debye-Ang):
   XX=            -11.4192   YY=            -11.5181   ZZ=            -11.9432
   XY=              0.0000   XZ=              0.0000   YZ=              0.0000
 Traceless Quadrupole moment (field-independent basis, Debye-Ang):
   XX=              0.2077   YY=              0.1087   ZZ=             -0.3164
   XY=              0.0000   XZ=              0.0000   YZ=              0.0000
 Octapole moment (field-independent basis, Debye-Ang**2):
  XXX=              0.0000  YYY=              0.0000  ZZZ=              1.3093  XYY=              0.0000
  XXY=              0.0000  XXZ=              0.9355  XZZ=              0.0000  YZZ=              0.0000
  YYZ=              0.0800  XYZ=              0.0000
 Hexadecapole moment (field-independent basis, Debye-Ang**3):
 XXXX=             -9.2107 YYYY=            -18.1635 ZZZZ=            -44.5619 XXXY=              0.0000
 XXXZ=              0.0000 YYYX=              0.0000 YYYZ=              0.0000 ZZZX=              0.0000
 ZZZY=              0.0000 XXYY=             -4.7711 XXZZ=             -8.9366 YYZZ=            -10.2073
 XXYZ=              0.0000 YYXZ=              0.0000 ZZXY=              0.0000
 N-N=          31.182727 E-N=        -330.752005  KE=         113.467845
 Calling FoFJK, ICntrl=    100127 FMM=F ISym2X=0 I1Cent= 0 IOpClX= 0 NMat=1 NMatS=1 NMatT=0.
 -------------------------------------------------------------------
 Center     Atomic                   Forces (Hartrees/Bohr)
 Number     Number              X              Y              Z
 -------------------------------------------------------------------
      1        8           0.000000000    0.000000000   -0.000108872
      2        6           0.000000000    0.000000000   -0.004043449
      3        1           0.000000000   -0.003587400    0.002076160
      4        1           0.000000000    0.003587400    0.002076160
 -------------------------------------------------------------------
 Cartesian Forces:  Max     0.004043449 RMS     0.002055908
 NDeriv=      6 NFrqRd=  0 NDerD0=      0 MskFDP=       0 MskDFD=       0 MskDF0=       0
 Re-enter D2Numr:  normal mode      5 step-up   number 1
 Standard basis: 6-31G(d) (6D, 7F)
    34 basis functions,    64 primitive gaussians,    34 cartesian basis functions
     8 alpha electrons        8 beta electrons
       nuclear repulsion energy        31.2651328498 Hartrees.
 NAtoms=    4 NActive=    4 NUniq=    4 SFac= 1.00D+00 NAtFMM=   60 NAOKFM=F Big=F
 Integral buffers will be    131072 words long.
 Raffenetti 2 integral format.
 Two-electron integral symmetry is turned off.
 One-electron integrals computed using PRISM.
 NBasis=    34 RedAO= T EigKep=  9.05D-03  NBF=    34
 NBsUse=    34 1.00D-06 EigRej= -1.00D+00 NBFU=    34
 Initial guess from the checkpoint file:  "h2co.chk"
 B after Tr=     0.000000    0.000000    0.000405
         Rot=    1.000000    0.000000    0.000000    0.000000 Ang=   0.00 deg.
 Keep R1 ints in memory in canonical form, NReq=14020494.
 Requested convergence on RMS density matrix=1.00D-08 within  48 cycles.
 Requested convergence on MAX density matrix=1.00D-06.
 Requested convergence on             energy=1.00D-06.
 No special actions if energy rises.
 SCF Done:  E(RB3LYP) =  -114.500414452     A.U. after    8 cycles
            NFock=  8  Conv=0.70D-09     -V/T= 2.0088
 QCSCF skips out because SCF is already converged.
 DoSCS=F DFT=T ScalE2(SS,OS)=  1.000000  1.000000
 Range of M.O.s used for correlation:     1    34
 NBasis=    34 NAE=     8 NBE=     8 NFC=     0 NFV=     0
 NROrb=     34 NOA=     8 NOB=     8 NVA=    26 NVB=    26
 Symmetrizing basis deriv contribution to polar:
 IMax=3 JMax=2 DiffMx= 0.00D+00
 G2DrvN: will do     5 centers at a time, making    1 passes.
 Calling FoFCou, ICntrl=  3107 FMM=F I1Cent=   0 AccDes= 0.00D+00.
 End of G2Drv FD prop file    721 does not exist.
 End of G2Drv FD prop file    722 does not exist.
 End of G2Drv FD prop file    788 does not exist.
 End of G2Drv FD prop file    804 does not exist.
          IDoAtm=1111
          Differentiating once with respect to electric field.
                with respect to dipole field.
          Differentiating once with respect to nuclear coordinates.
 Keep R1 ints in memory in canonical form, NReq=13985552.
          There are    15 degrees of freedom in the 1st order CPHF.  IDoFFX=6 NUNeed=     3.
     12 vectors produced by pass  0 Test12= 1.39D-15 6.67D-09 XBig12= 1.69D+01 3.16D+00.
 AX will form    12 AO Fock derivatives at one time.
     12 vectors produced by pass  1 Test12= 1.39D-15 6.67D-09 XBig12= 4.29D+00 8.60D-01.
     12 vectors produced by pass  2 Test12= 1.39D-15 6.67D-09 XBig12= 2.72D-02 6.49D-02.
     12 vectors produced by pass  3 Test12= 1.39D-15 6.67D-09 XBig12= 5.00D-05 2.67D-03.
     12 vectors produced by pass  4 Test12= 1.39D-15 6.67D-09 XBig12= 3.56D-08 5.64D-05.
      6 vectors produced by pass  5 Test12= 1.39D-15 6.67D-09 XBig12= 3.61D-11 2.26D-06.
      1 vectors produced by pass  6 Test12= 1.39D-15 6.67D-09 XBig12= 4.30D-14 8.72D-08.
 InvSVY:  IOpt=1 It=  1 EMax= 8.88D-16
 Solved reduced A of dimension    67 with    12 vectors.
 Isotropic polarizability for W=    0.000000       12.98 Bohr**3.
 End of Minotr FD prop file    721 does not exist.
 End of Minotr FD prop file    722 does not exist.
 End of Minotr FD prop file    788 does not exist.
 End of Minotr FD prop file    804 does not exist.
 
 **********************************************************************
 
               Population analysis using the SCF Density.
 
 **********************************************************************
 
 Alpha  occ. eigenvalues --      -19.16924     -10.28769      -1.06021      -0.63939      -0.49651
 Alpha  occ. eigenvalues --       -0.44927      -0.39873      -0.26835
 Alpha virt. eigenvalues --       -0.04216       0.10365       0.18368       0.21870       0.50691
 Alpha virt. eigenvalues --        0.62241       0.62551       0.69406       0.81847       0.83887
 Alpha virt. eigenvalues --        0.89469       0.96038       1.05914       1.37726       1.50554
 Alpha virt. eigenvalues --        1.50982       1.68399       1.85585       1.93114       2.13009
 Alpha virt. eigenvalues --        2.27896       2.54056       2.66032       2.91070       3.68301
 Alpha virt. eigenvalues --        4.05893
          Condensed to atoms (all electrons):
               1          2          3          4
     1  O    7.877213   0.557683  -0.055267  -0.055267
     2  C    0.557683   4.697982   0.332186   0.332186
     3  H   -0.055267   0.332186   0.697272  -0.096390
     4  H   -0.055267   0.332186  -0.096390   0.697272
 Mulliken charges:
               1
     1  O   -0.324361
     2  C    0.079964
     3  H    0.122199
     4  H    0.122199
 Sum of Mulliken charges=   0.00000
 Mulliken charges with hydrogens summed into heavy atoms:
               1
     1  O   -0.324361
     2  C    0.324361
 APT charges:
               1
     1  O   -0.532242
     2  C    0.677993
     3  H   -0.072875
     4  H   -0.072875
 Sum of APT charges=   0.00000
 APT charges with hydrogens summed into heavy atoms:
               1
     1  O   -0.532242
     2  C    0.532242
 Electronic spatial extent (au):  <R**2>=             60.1582
 Charge=              0.0000 electrons
 Dipole moment (field-independent basis, Debye):
    X=              0.0000    Y=              0.0000    Z=             -2.1978  Tot=              2.1978
 Quadrupole moment (field-independent basis, Debye-Ang):
   XX=            -11.3902   YY=            -11.4987   ZZ=            -11.9123
   XY=              0.0000   XZ=              0.0000   YZ=              0.0000
 Traceless Quadrupole moment (field-independent basis, Debye-Ang):
   XX=              0.2102   YY=              0.1017   ZZ=             -0.3119
   XY=              0.0000   XZ=              0.0000   YZ=              0.0000
 Octapole moment (field-independent basis, Debye-Ang**2):
  XXX=              0.0000  YYY=              0.0000  ZZZ=              1.1846  XYY=              0.0000
  XXY=              0.0000  XXZ=              0.8925  XZZ=              0.0000  YZZ=              0.0000
  YYZ=              0.0556  XYZ=              0.0000
 Hexadecapole moment (field-independent basis, Debye-Ang**3):
 XXXX=             -9.1720 YYYY=            -17.8238 ZZZZ=            -44.2380 XXXY=              0.0000
 XXXZ=              0.0000 YYYX=              0.0000 YYYZ=              0.0000 ZZZX=              0.0000
 ZZZY=              0.0000 XXYY=             -4.6982 XXZZ=             -8.8674 YYZZ=            -10.1310
 XXYZ=              0.0000 YYXZ=              0.0000 ZZXY=              0.0000
 N-N=          31.265133 E-N=        -330.947527  KE=         113.502083
 Calling FoFJK, ICntrl=    100127 FMM=F ISym2X=0 I1Cent= 0 IOpClX= 0 NMat=1 NMatS=1 NMatT=0.
 -------------------------------------------------------------------
 Center     Atomic                   Forces (Hartrees/Bohr)
 Number     Number              X              Y              Z
 -------------------------------------------------------------------
      1        8           0.000000000    0.000000000    0.000108539
      2        6           0.000000000    0.000000000    0.004228398
      3        1           0.000000000    0.003744514   -0.002168468
      4        1           0.000000000   -0.003744514   -0.002168468
 -------------------------------------------------------------------
 Cartesian Forces:  Max     0.004228398 RMS     0.002147448
 NDeriv=      6 NFrqRd=  0 NDerD0=      0 MskFDP=       0 MskDFD=       0 MskDF0=       0
 Re-enter D2Numr:  normal mode      5 step-down number 1
 Standard basis: 6-31G(d) (6D, 7F)
    34 basis functions,    64 primitive gaussians,    34 cartesian basis functions
     8 alpha electrons        8 beta electrons
       nuclear repulsion energy        31.2239206290 Hartrees.
 NAtoms=    4 NActive=    4 NUniq=    4 SFac= 1.00D+00 NAtFMM=   60 NAOKFM=F Big=F
 Integral buffers will be    131072 words long.
 Raffenetti 2 integral format.
 Two-electron integral symmetry is turned off.
 One-electron integrals computed using PRISM.
 NBasis=    34 RedAO= T EigKep=  9.04D-03  NBF=    34
 NBsUse=    34 1.00D-06 EigRej= -1.00D+00 NBFU=    34
 Initial guess from the checkpoint file:  "h2co.chk"
 B after Tr=     0.000000    0.000662    0.000000
         Rot=    1.000000   -0.000159    0.000000    0.000000 Ang=  -0.02 deg.
 Keep R1 ints in memory in canonical form, NReq=14020494.
 Requested convergence on RMS density matrix=1.00D-08 within  48 cycles.
 Requested convergence on MAX density matrix=1.00D-06.
 Requested convergence on             energy=1.00D-06.
 No special actions if energy rises.
 SCF Done:  E(RB3LYP) =  -114.500413237     A.U. after    8 cycles
            NFock=  8  Conv=0.32D-08     -V/T= 2.0089
 QCSCF skips out because SCF is already converged.
 DoSCS=F DFT=T ScalE2(SS,OS)=  1.000000  1.000000
 Range of M.O.s used for correlation:     1    34
 NBasis=    34 NAE=     8 NBE=     8 NFC=     0 NFV=     0
 NROrb=     34 NOA=     8 NOB=     8 NVA=    26 NVB=    26
 Symmetrizing basis deriv contribution to polar:
 IMax=3 JMax=2 DiffMx= 0.00D+00
 G2DrvN: will do     5 centers at a time, making    1 passes.
 Calling FoFCou, ICntrl=  3107 FMM=F I1Cent=   0 AccDes= 0.00D+00.
 End of G2Drv FD prop file    721 does not exist.
 End of G2Drv FD prop file    722 does not exist.
 End of G2Drv FD prop file    788 does not exist.
 End of G2Drv FD prop file    804 does not exist.
          IDoAtm=1111
          Differentiating once with respect to electric field.
                with respect to dipole field.
          Differentiating once with respect to nuclear coordinates.
 Keep R1 ints in memory in canonical form, NReq=13985552.
          There are    15 degrees of freedom in the 1st order CPHF.  IDoFFX=6 NUNeed=     3.
     12 vectors produced by pass  0 Test12= 1.39D-15 6.67D-09 XBig12= 1.70D+01 3.15D+00.
 AX will form    12 AO Fock derivatives at one time.
     12 vectors produced by pass  1 Test12= 1.39D-15 6.67D-09 XBig12= 4.31D+00 8.51D-01.
     12 vectors produced by pass  2 Test12= 1.39D-15 6.67D-09 XBig12= 2.75D-02 6.46D-02.
     12 vectors produced by pass  3 Test12= 1.39D-15 6.67D-09 XBig12= 5.16D-05 2.67D-03.
     12 vectors produced by pass  4 Test12= 1.39D-15 6.67D-09 XBig12= 3.72D-08 5.76D-05.
      6 vectors produced by pass  5 Test12= 1.39D-15 6.67D-09 XBig12= 3.57D-11 2.21D-06.
      1 vectors produced by pass  6 Test12= 1.39D-15 6.67D-09 XBig12= 4.27D-14 8.56D-08.
 InvSVY:  IOpt=1 It=  1 EMax= 8.88D-16
 Solved reduced A of dimension    67 with    12 vectors.
 Isotropic polarizability for W=    0.000000       13.08 Bohr**3.
 End of Minotr FD prop file    721 does not exist.
 End of Minotr FD prop file    722 does not exist.
 End of Minotr FD prop file    788 does not exist.
 End of Minotr FD prop file    804 does not exist.
 
 **********************************************************************
 
               Population analysis using the SCF Density.
 
 **********************************************************************
 
 Alpha  occ. eigenvalues --      -19.16977     -10.28908      -1.06087      -0.63759      -0.49531
 Alpha  occ. eigenvalues --       -0.44956      -0.39921      -0.26850
 Alpha virt. eigenvalues --       -0.04211       0.10121       0.18206       0.21875       0.50658
 Alpha virt. eigenvalues --        0.62284       0.62753       0.69401       0.81348       0.83738
 Alpha virt. eigenvalues --        0.89083       0.96009       1.05915       1.37730       1.50570
 Alpha virt. eigenvalues --        1.51011       1.68163       1.84996       1.93139       2.12625
 Alpha virt. eigenvalues --        2.27913       2.54106       2.65699       2.91079       3.68306
 Alpha virt. eigenvalues --        4.05555
          Condensed to atoms (all electrons):
               1          2          3          4
     1  O    7.875476   0.557425  -0.055079  -0.054956
     2  C    0.557425   4.699895   0.331123   0.331067
     3  H   -0.055079   0.331123   0.700088  -0.094993
     4  H   -0.054956   0.331067  -0.094993   0.695367
 Mulliken charges:
               1
     1  O   -0.322867
     2  C    0.080490
     3  H    0.118861
     4  H    0.123516
 Sum of Mulliken charges=   0.00000
 Mulliken charges with hydrogens summed into heavy atoms:
               1
     1  O   -0.322867
     2  C    0.322867
 APT charges:
               1
     1  O   -0.534326
     2  C    0.684779
     3  H   -0.078085
     4  H   -0.072368
 Sum of APT charges=   0.00000
 APT charges with hydrogens summed into heavy atoms:
               1
     1  O   -0.534326
     2  C    0.534326
 Electronic spatial extent (au):  <R**2>=             60.3111
 Charge=              0.0000 electrons
 Dipole moment (field-independent basis, Debye):
    X=              0.0000    Y=             -0.0197    Z=             -2.1862  Tot=              2.1863
 Quadrupole moment (field-independent basis, Debye-Ang):
   XX=            -11.4047   YY=            -11.5085   ZZ=            -11.9279
   XY=              0.0000   XZ=              0.0000   YZ=              0.0193
 Traceless Quadrupole moment (field-independent basis, Debye-Ang):
   XX=              0.2090   YY=              0.1052   ZZ=             -0.3142
   XY=              0.0000   XZ=              0.0000   YZ=              0.0193
 Octapole moment (field-independent basis, Debye-Ang**2):
  XXX=              0.0000  YYY=             -0.0655  ZZZ=              1.2474  XYY=              0.0000
  XXY=             -0.0246  XXZ=              0.9141  XZZ=              0.0000  YZZ=             -0.0369
  YYZ=              0.0681  XYZ=              0.0000
 Hexadecapole moment (field-independent basis, Debye-Ang**3):
 XXXX=             -9.1914 YYYY=            -17.9942 ZZZZ=            -44.4009 XXXY=              0.0000
 XXXZ=              0.0000 YYYX=              0.0000 YYYZ=              0.0901 ZZZX=              0.0000
 ZZZY=              0.1071 XXYY=             -4.7347 XXZZ=             -8.9021 YYZZ=            -10.1695
 XXYZ=              0.0347 YYXZ=              0.0000 ZZXY=              0.0000
 N-N=          31.223921 E-N=        -330.849683  KE=         113.484965
 Calling FoFJK, ICntrl=    100127 FMM=F ISym2X=0 I1Cent= 0 IOpClX= 0 NMat=1 NMatS=1 NMatT=0.
 -------------------------------------------------------------------
 Center     Atomic                   Forces (Hartrees/Bohr)
 Number     Number              X              Y              Z
 -------------------------------------------------------------------
      1        8           0.000000000   -0.000097462   -0.000007958
      2        6           0.000000000    0.007275986    0.000119679
      3        1           0.000000000   -0.003509175    0.002157424
      4        1           0.000000000   -0.003669350   -0.002269144
 -------------------------------------------------------------------
 Cartesian Forces:  Max     0.007275986 RMS     0.002716398
 NDeriv=      6 NFrqRd=  0 NDerD0=      0 MskFDP=       0 MskDFD=       0 MskDF0=       0
 Re-enter D2Numr:  normal mode      6 step-up   number 1
 Standard basis: 6-31G(d) (6D, 7F)
    34 basis functions,    64 primitive gaussians,    34 cartesian basis functions
     8 alpha electrons        8 beta electrons
       nuclear repulsion energy        31.2239206290 Hartrees.
 NAtoms=    4 NActive=    4 NUniq=    4 SFac= 1.00D+00 NAtFMM=   60 NAOKFM=F Big=F
 Integral buffers will be    131072 words long.
 Raffenetti 2 integral format.
 Two-electron integral symmetry is turned off.
 One-electron integrals computed using PRISM.
 NBasis=    34 RedAO= T EigKep=  9.04D-03  NBF=    34
 NBsUse=    34 1.00D-06 EigRej= -1.00D+00 NBFU=    34
 Initial guess from the checkpoint file:  "h2co.chk"
 B after Tr=     0.000000   -0.000662    0.000000
         Rot=    1.000000    0.000159    0.000000    0.000000 Ang=   0.02 deg.
 Keep R1 ints in memory in canonical form, NReq=14020494.
 Requested convergence on RMS density matrix=1.00D-08 within  48 cycles.
 Requested convergence on MAX density matrix=1.00D-06.
 Requested convergence on             energy=1.00D-06.
 No special actions if energy rises.
 SCF Done:  E(RB3LYP) =  -114.500413237     A.U. after    8 cycles
            NFock=  8  Conv=0.32D-08     -V/T= 2.0089
 QCSCF skips out because SCF is already converged.
 DoSCS=F DFT=T ScalE2(SS,OS)=  1.000000  1.000000
 Range of M.O.s used for correlation:     1    34
 NBasis=    34 NAE=     8 NBE=     8 NFC=     0 NFV=     0
 NROrb=     34 NOA=     8 NOB=     8 NVA=    26 NVB=    26
 Symmetrizing basis deriv contribution to polar:
 IMax=3 JMax=2 DiffMx= 0.00D+00
 G2DrvN: will do     5 centers at a time, making    1 passes.
 Calling FoFCou, ICntrl=  3107 FMM=F I1Cent=   0 AccDes= 0.00D+00.
 End of G2Drv FD prop file    721 does not exist.
 End of G2Drv FD prop file    722 does not exist.
 End of G2Drv FD prop file    788 does not exist.
 End of G2Drv FD prop file    804 does not exist.
          IDoAtm=1111
          Differentiating once with respect to electric field.
                with respect to dipole field.
          Differentiating once with respect to nuclear coordinates.
 Keep R1 ints in memory in canonical form, NReq=13985552.
          There are    15 degrees of freedom in the 1st order CPHF.  IDoFFX=6 NUNeed=     3.
     12 vectors produced by pass  0 Test12= 1.39D-15 6.67D-09 XBig12= 1.70D+01 3.15D+00.
 AX will form    12 AO Fock derivatives at one time.
     12 vectors produced by pass  1 Test12= 1.39D-15 6.67D-09 XBig12= 4.31D+00 8.51D-01.
     12 vectors produced by pass  2 Test12= 1.39D-15 6.67D-09 XBig12= 2.75D-02 6.46D-02.
     12 vectors produced by pass  3 Test12= 1.39D-15 6.67D-09 XBig12= 5.16D-05 2.67D-03.
     12 vectors produced by pass  4 Test12= 1.39D-15 6.67D-09 XBig12= 3.72D-08 5.76D-05.
      6 vectors produced by pass  5 Test12= 1.39D-15 6.67D-09 XBig12= 3.57D-11 2.21D-06.
      1 vectors produced by pass  6 Test12= 1.39D-15 6.67D-09 XBig12= 4.27D-14 8.56D-08.
 InvSVY:  IOpt=1 It=  1 EMax= 4.44D-16
 Solved reduced A of dimension    67 with    12 vectors.
 Isotropic polarizability for W=    0.000000       13.08 Bohr**3.
 End of Minotr FD prop file    721 does not exist.
 End of Minotr FD prop file    722 does not exist.
 End of Minotr FD prop file    788 does not exist.
 End of Minotr FD prop file    804 does not exist.
 
 **********************************************************************
 
               Population analysis using the SCF Density.
 
 **********************************************************************
 
 Alpha  occ. eigenvalues --      -19.16977     -10.28908      -1.06087      -0.63759      -0.49531
 Alpha  occ. eigenvalues --       -0.44956      -0.39921      -0.26850
 Alpha virt. eigenvalues --       -0.04211       0.10121       0.18206       0.21875       0.50658
 Alpha virt. eigenvalues --        0.62284       0.62753       0.69401       0.81348       0.83738
 Alpha virt. eigenvalues --        0.89083       0.96009       1.05915       1.37730       1.50570
 Alpha virt. eigenvalues --        1.51011       1.68163       1.84996       1.93139       2.12625
 Alpha virt. eigenvalues --        2.27913       2.54106       2.65699       2.91079       3.68306
 Alpha virt. eigenvalues --        4.05555
          Condensed to atoms (all electrons):
               1          2          3          4
     1  O    7.875476   0.557425  -0.054956  -0.055079
     2  C    0.557425   4.699895   0.331067   0.331123
     3  H   -0.054956   0.331067   0.695367  -0.094993
     4  H   -0.055079   0.331123  -0.094993   0.700088
 Mulliken charges:
               1
     1  O   -0.322867
     2  C    0.080490
     3  H    0.123516
     4  H    0.118861
 Sum of Mulliken charges=   0.00000
 Mulliken charges with hydrogens summed into heavy atoms:
               1
     1  O   -0.322867
     2  C    0.322867
 APT charges:
               1
     1  O   -0.534326
     2  C    0.684779
     3  H   -0.072368
     4  H   -0.078085
 Sum of APT charges=   0.00000
 APT charges with hydrogens summed into heavy atoms:
               1
     1  O   -0.534326
     2  C    0.534326
 Electronic spatial extent (au):  <R**2>=             60.3111
 Charge=              0.0000 electrons
 Dipole moment (field-independent basis, Debye):
    X=              0.0000    Y=              0.0197    Z=             -2.1862  Tot=              2.1863
 Quadrupole moment (field-independent basis, Debye-Ang):
   XX=            -11.4047   YY=            -11.5085   ZZ=            -11.9279
   XY=              0.0000   XZ=              0.0000   YZ=             -0.0193
 Traceless Quadrupole moment (field-independent basis, Debye-Ang):
   XX=              0.2090   YY=              0.1052   ZZ=             -0.3142
   XY=              0.0000   XZ=              0.0000   YZ=             -0.0193
 Octapole moment (field-independent basis, Debye-Ang**2):
  XXX=              0.0000  YYY=              0.0655  ZZZ=              1.2474  XYY=              0.0000
  XXY=              0.0246  XXZ=              0.9141  XZZ=              0.0000  YZZ=              0.0369
  YYZ=              0.0681  XYZ=              0.0000
 Hexadecapole moment (field-independent basis, Debye-Ang**3):
 XXXX=             -9.1914 YYYY=            -17.9942 ZZZZ=            -44.4009 XXXY=              0.0000
 XXXZ=              0.0000 YYYX=              0.0000 YYYZ=             -0.0901 ZZZX=              0.0000
 ZZZY=             -0.1071 XXYY=             -4.7347 XXZZ=             -8.9021 YYZZ=            -10.1695
 XXYZ=             -0.0347 YYXZ=              0.0000 ZZXY=              0.0000
 N-N=          31.223921 E-N=        -330.849683  KE=         113.484965
 Calling FoFJK, ICntrl=    100127 FMM=F ISym2X=0 I1Cent= 0 IOpClX= 0 NMat=1 NMatS=1 NMatT=0.
 -------------------------------------------------------------------
 Center     Atomic                   Forces (Hartrees/Bohr)
 Number     Number              X              Y              Z
 -------------------------------------------------------------------
      1        8           0.000000000    0.000097462   -0.000007958
      2        6           0.000000000   -0.007275986    0.000119679
      3        1           0.000000000    0.003669350   -0.002269144
      4        1           0.000000000    0.003509175    0.002157424
 -------------------------------------------------------------------
 Cartesian Forces:  Max     0.007275986 RMS     0.002716398
 NDeriv=      6 NFrqRd=  0 NDerD0=      0 MskFDP=       0 MskDFD=       0 MskDF0=       0
 Re-enter D2Numr:  normal mode      6 step-down number 1
 Max difference between Dipole analytic and numerical normal mode 1st derivatives:
 I=     2 ID=     6 Difference=    2.5636649724D-05
 Max difference between Dipole analytic and numerical normal mode 2nd derivatives:
 I=     3 ID=     5 Difference=    5.6450634470D-05
 Max difference between Energy analytic and numerical normal mode 1st derivatives:
 I=     1 ID=     5 Difference=    4.3957903503D-05
 Max difference between Energy analytic and numerical normal mode 2nd derivatives:
 I=     1 ID=     6 Difference=    5.1278409967D-05
 ***** Axes restored to original set *****
 -------------------------------------------------------------------
 Center     Atomic                   Forces (Hartrees/Bohr)
 Number     Number              X              Y              Z
 -------------------------------------------------------------------
      1        8          -0.000001079    0.000000000    0.000000000
      2        6           0.000001063    0.000000000    0.000000000
      3        1           0.000000008   -0.000000615    0.000000000
      4        1           0.000000008    0.000000615    0.000000000
 -------------------------------------------------------------------
 Cartesian Forces:  Max     0.000001079 RMS     0.000000504

 **********************************************************************

             Second-order Perturbative Anharmonic Analysis

 **********************************************************************

 Development version: 2025.08.12

     ==================================================
            Settings for Anharmonic Calculations
     ==================================================
 Default settings used.

     ==================================================
                      Reference System
     ==================================================

 NOTE: The system is set in Eckart orientation for the anharmonic
       treatment.
 
 Atom           X                  Y                  Z
 ----------------------------------------------------------------
  O       0.0000000000000    0.0000000000000    0.6033941752031
  C       0.0000000000000    0.0000000000000   -0.6030838247969
  H       0.0000000000000    0.9377950000000   -1.1977438247969
  H       0.0000000000000   -0.9377950000000   -1.1977438247969
 ----------------------------------------------------------------

     ==================================================
               Analysis of the Rotor Symmetry
     ==================================================

 Quantities are given in atomic units.

 Framework Group : C2V 
 Rotor Type      : Asymmetric Top
 Asymm. param.   : Kappa = -0.963263
 Inertia moments : X=    53.03866 , Y=    46.70829 , Z=     6.33036
 Representation  : Il Representation, Iz < Iy < Ix

 Axes Definition for the Symmetric-Top Representation
 ----------------------------------------------------
 Axis Z set to be collinear with Z from Eckart orient.
 NOTE: In Vibro-rotational analysis, this will be referred to as the
       spectroscopic orientation.

     ==================================================
                   Data Source Definition
     ==================================================

 Main data sources
 -----------------
 Harmonic data taken from: current calculation
 Anharmonic data taken from: current calculation

     ==================================================
           Input Data Extraction and Preparation
     ==================================================

 Data for Harmonic Potential Energy Surface
 ------------------------------------------

 Definition of the model system: Active modes
 --------------------------------------------
 The 6 Active Modes are:
     1     2     3     4     5     6

 Data for Anharmonic Potential Energy Surface
 --------------------------------------------

 Data for Electric Dipole
 ------------------------
 Property available.

     ==================================================
        Vibro-Rotational Analysis Based on Symmetry
     ==================================================

 Representation A1
 -----------------
    Z Translation
    3 Vibrations with frequencies:
   2916.75   1849.87   1563.09

 Representation A2
 -----------------
    X Rotation
 No Vibration

 Representation B1
 -----------------
    X Translation
    Y Rotation
    1 Vibrations with frequencies:
   1198.49

 Representation B2
 -----------------
    Y Translation
    Z Rotation
    2 Vibrations with frequencies:
   2967.79   1279.59

 Input/Output information
 ------------------------
 Normal modes will be PRINTED in DESCENDING order (imag. freq. first)
   and sorted by irreducible representation
 The connection between this new numbering (A) and the one used before
   (H) is reported in the present equivalency table:
 ----+------+------+------+------+------+------+
 (H) |     1|     2|     3|     4|     5|     6|
 (A) |     4|     6|     3|     2|     1|     5|
 ----+------+------+------+------+------+------+
 
 Normal modes will be READ in ASCENDING order (imag. freq. first)

 TIP: To use the same numbering as in the whole output, use the option
      "Print=NMOrder=AscNoIrrep" in the special option section

 TIP: To use the same numbering for reading and printing, use the option
      "DataSrc=NMOrder=Print" in the special option section"

 Analysis of symmetry-allowed terms
 ----------------------------------

                             Possible   Symmetry allowed
 Coriolis couplings:            63           11
 Third derivatives :            56           22
 Fourth derivatives: total     126           48
                     (ii|jj)    21           21
                     (ii|jk)    90           24

     ==================================================
                   Coriolis Couplings
     ==================================================

 Coriolis Couplings along the X axis
 -----------------------------------
                1             2             3             4             5 
      1   0.000000D+00
      2   0.000000D+00  0.000000D+00
      3   0.000000D+00  0.000000D+00  0.000000D+00
      4   0.000000D+00  0.000000D+00  0.000000D+00  0.000000D+00
      5  -0.397137D-01  0.492560D+00 -0.869372D+00  0.000000D+00  0.000000D+00
      6  -0.912834D+00  0.335981D+00  0.232056D+00  0.000000D+00  0.000000D+00
                6 
      6   0.000000D+00

 Coriolis Couplings along the Y axis
 -----------------------------------
                1             2             3             4             5 
      1   0.000000D+00
      2   0.000000D+00  0.000000D+00
      3   0.000000D+00  0.000000D+00  0.000000D+00
      4  -0.515078D+00  0.595681D+00 -0.616327D+00  0.000000D+00
      5   0.000000D+00  0.000000D+00  0.000000D+00  0.000000D+00  0.000000D+00
      6   0.000000D+00  0.000000D+00  0.000000D+00  0.000000D+00  0.000000D+00
                6 
      6   0.000000D+00

 Coriolis Couplings along the Z axis
 -----------------------------------
                1             2             3             4             5 
      1   0.000000D+00
      2   0.000000D+00  0.000000D+00
      3   0.000000D+00  0.000000D+00  0.000000D+00
      4   0.000000D+00  0.000000D+00  0.000000D+00  0.000000D+00
      5   0.000000D+00  0.000000D+00  0.000000D+00 -0.849682D+00  0.000000D+00
      6   0.000000D+00  0.000000D+00  0.000000D+00  0.527296D+00  0.000000D+00
                6 
      6   0.000000D+00
 
    6 Coriolis couplings larger than .100D-02 along the X axis
    3 Coriolis couplings larger than .100D-02 along the Y axis
    2 Coriolis couplings larger than .100D-02 along the Z axis

     ==================================================
                    Computational Setup
     ==================================================

 Thermochemistry
 ---------------

     ==================================================
     Printing Energy derivatives and Coriolis Couplings
     ==================================================

 ........................................................
 :   Reference Energy (a.u.): -0.114500472761D+03       :
 :                    (cm-1): -0.251299490467D+08       :
 :......................................................:

 ........................................................
 :                   CORIOLIS COUPLINGS                 :
 :......................................................:

    Ax       I      J          Zeta(I,J)

     x       5      1            -0.03971
     x       5      2             0.49256
     x       5      3            -0.86937
     x       6      1            -0.91283
     x       6      2             0.33598
     x       6      3             0.23206
     y       4      1            -0.51508
     y       4      2             0.59568
     y       4      3            -0.61633
     z       5      4            -0.84968
     z       6      4             0.52730

 Num. of Coriolis couplings larger than  0.100D-02: 11 over 63

 ........................................................
 :      QUADRATIC FORCE CONSTANTS IN NORMAL MODES       :
 :                                                      :
 : FI =  Frequency [cm-1]                               :
 : k  =  Force Const.[ attoJ * amu(-1) * ang(-2) ]      :
 : K  =  Force Const.[ Hartrees * amu(-1) * bohr(-2) ]  :
 :......................................................:

      I      J                  FI(I,J)       k(I,J)       K(I,J)

      1      1                 2916.75294      5.01244      0.32195
      2      2                 1849.87045      2.01620      0.12950
      3      3                 1563.09166      1.43952      0.09246
      4      4                 1198.49236      0.84629      0.05436
      5      5                 2967.78781      5.18939      0.33332
      6      6                 1279.58688      0.96469      0.06196

 Num. of 2nd derivatives larger than  0.371D-04: 6 over 21

 ........................................................
 :        CUBIC FORCE CONSTANTS IN NORMAL MODES         :
 :                                                      :
 : FI =  Reduced values [cm-1]  (default input)         :
 : k  =  Cubic Force Const.[AttoJ*amu(-3/2)*Ang(-3)]    :
 : K  =  Cubic Force Const.[Hartree*amu(-3/2)*Bohr(-3)] :
 :......................................................:

      I      J      K          FI(I,J,K)     k(I,J,K)     K(I,J,K)

      1      1      1         -1359.62847    -21.73235     -0.73867
      2      1      1            19.53006      0.24861      0.00845
      2      2      1            71.15571      0.72134      0.02452
      2      2      2          -560.18857     -4.52255     -0.15372
      3      2      1           -53.39120     -0.49753     -0.01691
      3      2      2          -131.27811     -0.97423     -0.03311
      3      3      1            70.05279      0.60006      0.02040
      3      3      2          -115.52507     -0.78808     -0.02679
      3      3      3            32.19493      0.20188      0.00686
      4      4      1           322.30165      2.11682      0.07195
      4      4      2           -34.46370     -0.18026     -0.00613
      4      4      3            64.39871      0.30963      0.01052
      5      5      1         -1438.37626    -23.39333     -0.79512
      5      5      2           126.82427      1.64264      0.05583
      5      5      3          -126.79176     -1.50957     -0.05131
      6      5      1           -11.71833     -0.12514     -0.00425
      6      5      2          -134.62019     -1.14490     -0.03891
      6      5      3           178.90547      1.39863      0.04754
      6      6      1           223.56635      1.56770      0.05329
      6      6      2           -11.99301     -0.06697     -0.00228
      6      6      3          -113.64024     -0.58335     -0.01983

 Num. of 3rd derivatives larger than  0.371D-04: 21 over 56

 ........................................................
 :                                                      :
 :       QUARTIC FORCE CONSTANTS IN NORMAL MODES        :
 :                                                      :
 : FI =  Reduced values [cm-1]  (default input)         :
 : k  =  Quartic Force Const.[AttoJ*amu(-2)*Ang(-4)]    :
 : K  =  Quartic Force Const.[Hartree*amu(-2)*Bohr(-4)] :
 :......................................................:

      I      J      K      L  FI(I,J,K,L)   k(I,J,K,L)   K(I,J,K,L)

      1      1      1      1    528.82008     78.61962      1.41408
      2      1      1      1    -16.41986     -1.94408     -0.03497
      2      2      1      1    -33.56723     -3.16505     -0.05693
      2      2      2      1     -9.96287     -0.74812     -0.01346
      2      2      2      2    161.54794      9.66068      0.17376
      3      1      1      1      6.22528      0.67752      0.01219
      3      2      1      1     73.53101      6.37319      0.11463
      3      2      2      1    -16.86527     -1.16413     -0.02094
      3      2      2      2     42.99097      2.36323      0.04251
      3      3      1      1   -142.14242    -11.32483     -0.20369
      3      3      2      1     19.92966      1.26453      0.02274
      3      3      2      2     20.54033      1.03790      0.01867
      3      3      3      1    -15.06405     -0.87860     -0.01580
      3      3      3      2     -6.90844     -0.32089     -0.00577
      3      3      3      3     12.31166      0.52567      0.00945
      4      4      1      1   -276.51556    -16.89189     -0.30382
      4      4      2      1     22.12802      1.07652      0.01936
      4      4      2      2    -10.78630     -0.41790     -0.00752
      4      4      3      1    -14.90770     -0.66667     -0.01199
      4      4      3      2    -12.24406     -0.43606     -0.00784
      4      4      3      3      9.70414      0.31769      0.00571
      4      4      4      4    138.35281      3.47282      0.06246
      5      5      1      1    579.44816     87.65381      1.57657
      5      5      2      1    -40.59689     -4.89069     -0.08797
      5      5      2      2    -56.16168     -5.38813     -0.09691
      5      5      3      1     50.91761      5.63854      0.10142
      5      5      3      2     97.20044      8.57211      0.15418
      5      5      3      3   -188.44753    -15.27677     -0.27477
      5      5      4      4   -325.37712    -20.22455     -0.36377
      5      5      5      5    621.47753     95.65658      1.72051
      6      5      1      1      4.36237      0.43331      0.00779
      6      5      2      2    -10.60343     -0.66798     -0.01201
      6      5      3      3    -18.80754     -1.00113     -0.01801
      6      5      4      4     -1.78899     -0.07302     -0.00131
      6      5      5      5     62.78722      6.34569      0.11414
      6      6      1      1   -211.97445    -13.82537     -0.24867
      6      6      2      1     12.57287      0.65305      0.01175
      6      6      3      1     23.30950      1.11293      0.02002
      6      6      3      2    -19.93013     -0.75782     -0.01363
      6      6      3      3     36.77485      1.28537      0.02312
      6      6      4      4     29.62076      0.79383      0.01428
      6      6      5      5   -222.36693    -14.75695     -0.26542
      6      6      6      5     17.25536      0.75192      0.01352
      6      6      6      6     92.55974      2.64841      0.04764

 Num. of 4th derivatives larger than  0.371D-04: 44 over 126

     ==================================================
                     Input for POLYMODE
     ==================================================

 ***************** cut here for POLYMODE input *****************
        6,        1,        6,       21,       44,        0,       11,        5,        0
SCF-CI
          Input generated by DiNa
     1,    1,  0.149098D-04 /
     2,    2,  0.169958D-04 /
     3,    3,  0.253612D-04 /
     4,    4,  0.355209D-04 /
     5,    5,  0.883081D-04 /
     6,    6,  0.914254D-04 /
     1,    1,    3, 0.676104D-07 /
     2,    2,    3, -.127381D-06 /
     3,    3,    3, 0.146944D-07 /
     1,    1,    4, -.393620D-07 /
     2,    2,    4, -.146244D-07 /
     3,    3,    4, -.172084D-06 /
     3,    4,    4, -.212733D-06 /
     4,    4,    4, -.329181D-06 /
     1,    1,    5, 0.462229D-06 /
     2,    2,    5, 0.342322D-06 /
     3,    3,    5, 0.131029D-06 /
     3,    4,    5, -.217281D-06 /
     4,    4,    5, 0.157511D-06 /
     4,    5,    5, 0.542854D-07 /
     5,    5,    5, -.158182D-05 /
     2,    3,    6, 0.610810D-06 /
     2,    4,    6, -.500002D-06 /
     2,    5,    6, -.546520D-07 /
     3,    6,    6, -.329629D-06 /
     4,    6,    6, 0.358687D-06 /
     5,    6,    6, -.510816D-05 /
     1,    1,    1,    1, 0.783239D-09 /
     1,    1,    2,    2, 0.107421D-08 /
     2,    2,    2,    2, 0.597307D-09 /
     1,    1,    3,    3, 0.429897D-09 /
     2,    2,    3,    3, 0.173937D-08 /
     3,    3,    3,    3, 0.118555D-09 /
     1,    1,    4,    4, -.565504D-09 /
     3,    3,    4,    4, 0.140449D-08 /
     3,    4,    4,    4, 0.213195D-08 /
     4,    4,    4,    4, 0.217881D-08 /
     1,    1,    5,    5, -.228582D-07 /
     2,    2,    5,    5, -.187085D-07 /
     3,    3,    5,    5, -.153248D-07 /
     3,    4,    5,    5, 0.172484D-07 /
     4,    4,    5,    5, -.428296D-08 /
     3,    5,    5,    5, 0.611219D-09 /
     4,    5,    5,    5, -.175382D-08 /
     5,    5,    5,    5, 0.177314D-07 /
     1,    1,    6,    6, -.273679D-07 /
     2,    2,    6,    6, -.199692D-07 /
     3,    3,    6,    6, -.206726D-07 /
     3,    4,    6,    6, 0.231996D-07 /
     4,    4,    6,    6, -.729124D-08 /
     3,    5,    6,    6, 0.152602D-07 /
     4,    5,    6,    6, -.132362D-07 /
     5,    5,    6,    6, 0.118613D-06 /
     2,    6,    6,    6, 0.572468D-08 /
     6,    6,    6,    6, 0.215738D-07 /
 0.966836D+05,0.851440D+05,0.115395D+05 /
     3,    7,    2, -.232056D+00 /
     4,    7,    2, -.335981D+00 /
     5,    7,    2, 0.912834D+00 /
     6,    7,    3, 0.869372D+00 /
     6,    7,    4, -.492560D+00 /
     6,    7,    5, 0.397137D-01 /
     3,    7,    1, 0.616327D+00 /
     4,    7,    1, -.595681D+00 /
     5,    7,    1, 0.515078D+00 /
     2,    7,    1, -.527296D+00 /
     6,    7,    1, 0.849682D+00 /
 ***************** cut here for POLYMODE input *****************

     ==================================================
      Inertia Moments Derivatives w.r.t. Normal Modes
     ==================================================

 Units: amu^1/2.Ang

                 Ixx        Ixy        Iyy        Ixz        Iyz        Izz
 Q(     1)     3.13238    0.00000    0.87267    0.00000    0.00000    2.25971
 Q(     2)     6.18784    0.00000    5.51365    0.00000    0.00000    0.67419
 Q(     3)     3.36276    0.00000    4.59964    0.00000    0.00000   -1.23689
 Q(     4)     0.00000    0.00000    0.00000    0.00000    0.00000    0.00000
 Q(     5)     0.00000    0.00000    0.00000    0.00000    1.31765    0.00000
 Q(     6)     0.00000    0.00000    0.00000    0.00000    2.12326    0.00000

     ==================================================
               Vibro-rotational Alpha Matrix
     ==================================================

 Vibro-Rot alpha Matrix (in cm^-1)
 ---------------------------------
                 A(z)           B(y)           C(x)
 Q(     1)        0.16722        0.00057        0.00247
 Q(     2)       -0.00169        0.00690        0.00839
 Q(     3)       -0.06527       -0.00811        0.00253
 Q(     4)        1.38811        0.01103       -0.00160
 Q(     5)        0.09274        0.00164        0.00139
 Q(     6)       -1.36187       -0.00265        0.00592

 Vibro-Rot alpha Matrix (in MHz)
 -------------------------------
                 A(z)           B(y)           C(x)
 Q(     1)     5013.22900       16.96151       74.14148
 Q(     2)      -50.73469      206.91483      251.59089
 Q(     3)    -1956.63503     -243.24748       75.71662
 Q(     4)    41614.52625      330.53677      -48.10857
 Q(     5)     2780.34394       49.24904       41.54108
 Q(     6)   -40827.69598      -79.41500      177.50487

     ==================================================
          Quartic Centrifugal Distortion Constants
     ==================================================

 NOTE: Values in Cartesian coords. refer to the structure in Eckart orientation.

 Quartic Centrifugal Distortion Constants Tau Prime
 --------------------------------------------------
                      cm^-1                    MHz
 TauP aaaa     -0.2637620579D-02        -0.7907387567D+02
 TauP aabb     -0.1743209671D-03        -0.5226011120D+01
 TauP aacc     -0.9640292278D-05        -0.2890086918D+00
 TauP bbbb     -0.1154457823D-04        -0.3460977485D+00
 TauP bbcc     -0.8440165520D-05        -0.2530297967D+00
 TauP cccc     -0.6682996195D-05        -0.2003511856D+00

 Asymmetric Top Reduction
 ------------------------
       Asymmetry parameter     | Reference formula
  Kappa :        -0.9632633625 |    [2B-A-C]/[A-C]
  Delta :         0.0183683187 |       [B-C]/[A-C]
  Sigma :      -107.7918635296 | [2A'-B'-C']/[B'-C']

 (A,B,C)   : equilibrium rotational constants
 (A',B',C'): effective rotational constants

 Constants in the Asymmetrically reduced Hamiltonian
 ---------------------------------------------------
                        cm^-1                   MHz
  DELTA J  :    0.2278446803D-05         0.6830611676D-01
  DELTA K  :    0.6158616822D-03         0.1846306875D+02
  DELTA JK :    0.4126501581D-04         0.1237094052D+01
  delta J  :   -0.3038488774D-06        -0.9109160182D-02
  delta K  :   -0.2935760268D-04        -0.8801187868D+00

 Effective Rotational Constants
 (Include Terms due to Quartic Centrifugal Distortion Constants)
 ---------------------------------------------------------------
           Be in cm^-1             B(A) in cm^-1            B(A) in MHz
 a          9.509671874             9.509671537             285092.78049
 b          1.288843648             1.288861969              38639.10977
 c          1.135015286             1.134997302              34026.36310

 Nielsen Centrifugal Distortion Constants
 ----------------------------------------
                cm^-1                    MHz
 DJ     0.2236345448D-05         0.6704394987D-01
 DJK    0.4151762394D-04         0.1244667053D+01
 DK     0.6156511754D-03         0.1845675792D+02
 dJ    -0.3038488774D-06        -0.9109160182D-02
 R5     0.1014061774D-04         0.3040080717D+00
 R6    -0.2105067792D-07        -0.6310834477D-03

 Constants in the Symmetrically Reduced Hamiltonian
 --------------------------------------------------
                    cm^-1                     MHz
  D J  :    0.2142269537D-05         0.6422362502D-01
  D JK :    0.4208207941D-04         0.1261589002D+01
  D K  :    0.6151807959D-03         0.1844265629D+02
  d 1  :    0.3038488774D-06         0.9109160182D-02
  d 2  :   -0.6808863331D-07        -0.2041245874D-02


 Effective Rotational Constants
 (Include Terms due to Quartic Centrifugal Distortion Constants)
 ---------------------------------------------------------------
           Be in cm^-1             B(S) in cm^-1            B(S) in MHz
 a          9.509671874             9.509672218             285092.80090
 b          1.288843648             1.288802981              38637.34137
 c          1.135015286             1.135055745              34028.11518

 Wilson Centrifugal Distortion Constants
 ---------------------------------------
                cm^-1                    MHz
 DJ     0.1670749049D-05         0.5008779640D-01
 DJK    0.1478648042D-05         0.4432875310D-01
 DK     0.6562557477D-03         0.1967405237D+02

 Nielsen Centrifugal Distortion Constants
 ----------------------------------------
                cm^-1                    MHz
 DJ     0.2236345448D-05         0.6704394987D-01
 DJK    0.4151762394D-04         0.1244667053D+01
 DK     0.6156511754D-03         0.1845675792D+02
 dJ    -0.3038488774D-06        -0.9109160182D-02
 R5     0.1014061774D-04         0.3040080717D+00
 R6    -0.2105067792D-07        -0.6310834477D-03

 Rotational Constants (in cm^-1)
 -------------------------------
 equilibrium (e), ground vibr.state (00), and 00 + centr. dist.(0)
 Ae=   9.5096719     A00=   9.4000455     A0=   9.4000458
 Be=   1.2888436     B00=   1.2841571     B0=   1.2841164
 Ce=   1.1350153     C00=   1.1254689     C0=   1.1255094

 Rotational Constants (in MHz)
 -----------------------------
 equilibrium (e), ground vibr.state (00), and 00 + centr. dist.(0)
 Ae=  285092.791     A00=  281806.274     A0=  281806.284
 Be=   38638.561     B00=   38498.061     B0=   38496.842
 Ce=   34026.902     C00=   33740.709     C0=   33741.922

     ==================================================
          Sextic Centrifugal Distortion Constants
     ==================================================

 Sextic Distortion Constants
 ---------------------------
                       in cm-1                  in Hz
 Phi aaa         0.1224923739D-06         0.3672228985D+04
 Phi aab         0.1165217724D-07         0.3493234855D+03
 Phi aac        -0.1122063596D-07        -0.3363862034D+03
 Phi abb         0.4488233294D-09         0.1345538491D+02
 Phi abc         0.1291453227D-09         0.3871679374D+01
 Phi acc         0.6574828279D-10         0.1971083931D+01
 Phi bbb         0.5455196803D-11         0.1635426858D+00
 Phi bbc        -0.1892692343D-11        -0.5674148899D-01
 Phi bcc         0.9594113903D-13         0.2876242989D-02
 Phi ccc         0.3694445264D-12         0.1107566827D-01

 Asymmetric Top Reduction
 ------------------------
       Asymmetry parameter     | Reference formula
  Kappa :        -0.9632633625 |    [2B-A-C]/[A-C]
  Delta :         0.0183683187 |       [B-C]/[A-C]
  Sigma :      -107.7918635296 | [2A'-B'-C']/[B'-C']

 (A,B,C)   : equilibrium rotational constants
 (A',B',C'): effective rotational constants

 Constants in the A reduced Hamiltonian
 --------------------------------------
                       in cm^-1                 in Hz
 Phi J  :         0.2912320665D-11         0.8730917705D-01
 Phi K  :         0.1234763107D-06         0.3701726669D+04
 Phi JK :         0.8336102193D-09         0.2499100567D+02
 Phi KJ :        -0.1820459357D-08        -0.5457599853D+02
 phi j  :        -0.1271438069D-11        -0.3811675439D-01
 phi k  :        -0.3750026372D-07        -0.1124229624D+04
 phi jk :        -0.4453714058D-09        -0.1335189885D+02

 rho    :        -0.4703795539D-07
 mu     :         0.6298931334D-10
 nu     :        -0.2161255202D-12
 lambda :         0.1154738765D-11

 Constants in the S reduced Hamiltonian
 --------------------------------------
                       in cm^-1                 in Hz
 H J  :           0.4408677497D-12         0.1321688263D-01
 H K  :           0.1220365268D-06         0.3658563035D+04
 H JK :           0.2313887128D-09         0.6936859097D+01
 H KJ :           0.2240174583D-09         0.6715874446D+01
 h  1 :          -0.9137028732D-12        -0.2739212302D-01
 h  2 :           0.1235726458D-11         0.3704614721D-01
 h  3 :          -0.3577351959D-12        -0.1072463137D-01

     ==================================================
       Average Coordinates and Mean Square Amplitudes
     ==================================================

 NOTE: Temperature is given in K between parentheses
       For Cartesian and internal coords., units are given between
       parentheses next to each label

 Mean Square Amplitudes of Normal Coordinates (in amu.bohr^2)
 -----------------------------------------------------------
 Mode    <Q^2> (0)    <Q^2> (298.15)    <Q^2> (298.15) class.
    1     0.020639       0.020639          0.115778
    2     0.032543       0.032551          0.287834
    3     0.038513       0.038554          0.403140
    4     0.050230       0.050540          0.685733
    5     0.020284       0.020284          0.111830
    6     0.047046       0.047242          0.601569

 Average Normal Coordinates (in amu^1/2.bohr)
 --------------------------------------------
   Mode    <Q> (0)       <Q> (298.15)
      1     0.036760        0.036708
      2     0.019853        0.019871
      3     0.012212        0.012216
      4     0.000000        0.000000
      5     0.000000        0.000000
      6     0.000000        0.000000

 Mean Square Amplitudes of Cartesian Coordinates
 -----------------------------------------------
    Label        <(S-Se)^2>^1/2 (0)    <(S-Se)^2>^1/2 (298.15)
 X(1)  (Angs)        0.004377              0.004391
 Y(1)  (Angs)        0.007856              0.007872
 Z(1)  (Angs)        0.016664              0.016668
 X(2)  (Angs)        0.017673              0.017727
 Y(2)  (Angs)        0.016335              0.016363
 Z(2)  (Angs)        0.021104              0.021107
 X(3)  (Angs)        0.070476              0.070693
 Y(3)  (Angs)        0.077067              0.077092
 Z(3)  (Angs)        0.096022              0.096132
 X(4)  (Angs)        0.070476              0.070693
 Y(4)  (Angs)        0.077067              0.077092
 Z(4)  (Angs)        0.096022              0.096132

 Average Cartesian Coordinates
 -----------------------------
    Label              Se         <S> = Sz (0)   <S> = Sz (298.15)
 X(1)  (Angs)       0.000000        0.000000        0.000000
 Y(1)  (Angs)       0.000000        0.000000        0.000000
 Z(1)  (Angs)       0.603394        0.605522        0.605523
 X(2)  (Angs)       0.000000        0.000000        0.000000
 Y(2)  (Angs)       0.000000        0.000000        0.000000
 Z(2)  (Angs)      -0.603084       -0.604342       -0.604346
 X(3)  (Angs)       0.000000        0.000000        0.000000
 Y(3)  (Angs)       0.937795        0.949181        0.949166
 Z(3)  (Angs)      -1.197744       -1.207136       -1.207127
 X(4)  (Angs)       0.000000        0.000000        0.000000
 Y(4)  (Angs)      -0.937795       -0.949181       -0.949166
 Z(4)  (Angs)      -1.197744       -1.207136       -1.207127

 Internal coordinates for the Equilibrium structure (Se)
                           Interatomic distances:
                    1          2          3          4
     1  O    0.000000
     2  C    1.206478   0.000000
     3  H    2.030654   1.110441   0.000000
     4  H    2.030654   1.110441   1.875590   0.000000
                           Interatomic angles:
       O1-C2-H3=122.379        O1-C2-H4=122.379        O1-H3-H4= 62.4954
       H3-C2-H4=115.2421
                              Dihedral angles:
     H4-C2-H3-O1= 180.  

 Internal coordinates for the vibrationally average structure at 0K (Sz)
                           Interatomic distances:
                    1          2          3          4
     1  O    0.000000
     2  C    1.209863   0.000000
     3  H    2.046136   1.124414   0.000000
     4  H    2.046136   1.124414   1.898363   0.000000
                           Interatomic angles:
       O1-C2-H3=122.4183       O1-C2-H4=122.4183       O1-H4-H3= 62.3616
       H3-C2-H4=115.1634
                              Dihedral angles:
     H4-C2-H3-O1= 180.  

 Internal coordinates for the vibr. average structure at 298.15K (Sa)
                           Interatomic distances:
                    1          2          3          4
     1  O    0.000000
     2  C    1.209869   0.000000
     3  H    2.046122   1.124394   0.000000
     4  H    2.046122   1.124394   1.898332   0.000000
                           Interatomic angles:
       O1-C2-H3=122.4182       O1-C2-H4=122.4182       O1-H4-H3= 62.3619
       H3-C2-H4=115.1637
                              Dihedral angles:
     H4-C2-H3-O1= 180.  

     ==================================================
      Vibrational Average of Electric-Field Properties
     ==================================================

 Electric dipole
 ---------------
 ------------------------------------------------------------------------
  Property at reference geometry, Unit: Debye
 ------------------------------------------------------------------------
     X=     0.00000000     Y=     0.00000000     Z=    -2.18638388
 ------------------------------------------------------------------------
  Temperature:     0K, Unit: Debye
 ------------------------------------------------------------------------
     X=     0.00000000     Y=     0.00000000     Z=    -2.14277179
 ------------------------------------------------------------------------
  Temperature:   298K, Unit: Debye
 ------------------------------------------------------------------------
     X=     0.00000000     Y=     0.00000000     Z=    -2.14383695

     ==================================================
                     Resonance Analysis
     ==================================================

 Thresholds
 ----------
 1-2 Fermi resonances:
     * Maximum Frequency difference (cm^-1)            :    200.000
     * Test 1: Martin's test (cm^-1)                   :      1.000
               J. Chem. Phys. 103, 2589 (1995)
     * Test 2: Wave-function coefficients (no unit)    :      0.100
               J. Phys. Chem. A, ASAP (2022)
 2-2 Darling-Dennison resonances:
     * Maximum Frequency difference (cm^-1)            :    100.000
     * Test: Magnitude of off-diagonal term (cm^-1)    :     10.000
             Mol. Phys. 112, 261 (2014)
 1-1 Darling-Dennison resonances:
     * Maximum Frequency difference (cm^-1)            :    100.000
     * Test 1: Magnitude of off-diagonal term (cm^-1)  :     10.000
               Mol. Phys. 112, 261 (2014)
     * Test 2: Wave-function coefficients (no unit)    :      0.300
               J. Phys. Chem. A, ASAP (2022)

 1-2 Fermi resonances
 --------------------
     I  |     J  +   K  | Freq.Diff. |   K (Test 1)   |   K (Test 2)   | Status
      5 |      2      6 |  -161.6695 |         -1.214 |         -0.294 | Active
      5 |      3      6 |   125.1093 |          8.174 |         -0.506 | Active

     2 active resonances out of     2

 2-2 Darling-Dennison resonances
 -------------------------------
  No resonances found.

 1-1 Darling-Dennison resonances
 -------------------------------
  No resonances found.

     ==================================================
                    Anharmonic X Matrix
     ==================================================

 PT2 model: Deperturbed VPT2 (DVPT2)
 Ref.: V. Barone, J. Chem. Phys. 122, 1, 014108 (2005)

 Coriolis contributions to X Matrix (in cm^-1)
 ---------------------------------------------
                1             2             3             4             5
      1  0.000000D+00
      2  0.000000D+00  0.000000D+00
      3  0.000000D+00  0.000000D+00  0.000000D+00
      4  0.972670D+00  0.100218D+01  0.101390D+01  0.000000D+00
      5  0.358079D-02  0.613430D+00  0.208059D+01  0.197736D+02  0.000000D+00
      6  0.257075D+01  0.273852D+00  0.124697D+00  0.529950D+01  0.000000D+00
                6
      6  0.000000D+00

 3rd Deriv. contributions to X Matrix (in cm^-1)
 -----------------------------------------------
                1             2             3             4             5
      1 -0.660434D+02
      2  0.804998D+01 -0.189381D+02
      3  0.468794D+01 -0.111421D+02 -0.231375D+00
      4  0.601890D+02 -0.352898D+01 -0.355745D+01 -0.115383D+02
      5 -0.282865D+03  0.142852D+02  0.959338D+01  0.416318D+02 -0.768184D+02
      6  0.424115D+02 -0.664360D+01 -0.636627D+01 -0.506141D+01  0.249608D+02
                6
      6 -0.752522D+01

 4th Deriv. contributions to X Matrix (in cm^-1)
 -----------------------------------------------
                1             2             3             4             5
      1  0.330513D+02
      2 -0.839181D+01  0.100967D+02
      3 -0.355356D+02  0.513508D+01  0.769479D+00
      4 -0.691289D+02 -0.269657D+01  0.242604D+01  0.864705D+01
      5  0.144862D+03 -0.140404D+02 -0.471119D+02 -0.813443D+02  0.388423D+02
      6 -0.529936D+02  0.000000D+00  0.919371D+01  0.740519D+01 -0.555917D+02
                6
      6  0.578498D+01

 Total Anharmonic X Matrix (in cm^-1)
 ------------------------------------
                1             2             3             4             5
      1 -0.329922D+02
      2 -0.341828D+00 -0.884133D+01
      3 -0.308477D+02 -0.600700D+01  0.538104D+00
      4 -0.796720D+01 -0.522338D+01 -0.117517D+00 -0.289125D+01
      5 -0.138000D+03  0.858255D+00 -0.354379D+02 -0.199388D+02 -0.379761D+02
      6 -0.801133D+01 -0.636975D+01  0.295214D+01  0.764329D+01 -0.306309D+02
                6
      6 -0.174024D+01

     ==================================================
       Variational Correction to Deperturbed Energies
     ==================================================

 Polyad num. 1
 -------------
                        1             2             3
 1        |5(1)>   0.278026D+04 -0.475954D+02  0.632526D+02
 2   |6(1);2(1)>  -0.475954D+02  0.307617D+04  0.000000D+00
 3   |6(1);3(1)>   0.632526D+02  0.000000D+00  0.279129D+04

 NOTE: Some variational states have low overlap on harmonic states.
       Reassignment on harmonic states may fail.

 Projection of DVPT2 states on New Variational States
 ----------------------------------------------------

 NOTE: Only states with projection lower than 80% are shown below.

   ### LOW CHANGES WITH RESPECT TO THE DEPERTURBED STATES (<=50%) ###
  State |5(1)>        has overlap of 56.2% with state  6
  State |6(1);3(1)>   has overlap of 57.1% with state 14

 Vibrational Energies (cm^-1)
 ----------------------------
   Mode(n)     Mode(n)        E(depert.)    E(after diag.)
      5(1)                       2780.261        2718.760
      6(1)        2(1)           3076.174        3083.984
      6(1)        3(1)           2791.289        2844.980

     ==================================================
                Anharmonic Zero Point Energy
     ==================================================

 Anharmonic X0 Term
 ------------------
 U term         : cm-1 =    -2.98338 ; Kcal/mol =  -0.009 ; KJ/mol =  -0.036
 Coriolis       : cm-1 =    -6.53427 ; Kcal/mol =  -0.019 ; KJ/mol =  -0.078
 Anharmonic     : cm-1 =    18.93443 ; Kcal/mol =   0.054 ; KJ/mol =   0.227
 Total X0       : cm-1 =     9.41677 ; Kcal/mol =   0.027 ; KJ/mol =   0.113

 Anharmonic Zero Point Energy
 ----------------------------
 Harmonic       : cm-1 =  5887.79105 ; Kcal/mol =  16.834 ; KJ/mol =  70.434
 Anharmonic Pot.: cm-1 =   -79.83333 ; Kcal/mol =  -0.228 ; KJ/mol =  -0.955
 Watson+Coriolis: cm-1 =    -1.08547 ; Kcal/mol =  -0.003 ; KJ/mol =  -0.013
 Total Anharm   : cm-1 =  5806.87225 ; Kcal/mol =  16.603 ; KJ/mol =  69.466

     ==================================================
          Vibrational Energies at Anharmonic Level
     ==================================================

 Units: Vibrational energies and rotational constants in cm^-1.
 NOTE: Transition energies are given with respect to the ground state.

 Reference Data
 --------------
                              E(harm)  E(anharm)     Aa(z)      Ba(y)      Ca(x)
 Equilibrium Geometry                              9.509672   1.288803   1.135056
 Ground State                 5887.791  5806.872   9.400046   1.284116   1.125509

 NOTE: H and L indicates if there is a high or low overlap with the
       state to which it is assigned. In absence of indicator, the state
       is unchanged or nearly unchanged after variational correction.

 Fundamental Bands
 -----------------
     Mode(n)      Status      E(harm)  E(anharm)     Aa(z)      Ba(y)      Ca(x)
        1(1)      active      2916.753  2758.185   9.232822   1.283551   1.123036
        2(1)      active      1849.870  1823.646   9.401738   1.277214   1.117117
        3(1)      active      1563.092  1529.439   9.465312   1.292230   1.122984
        4(1)      active      1198.492  1179.908   8.011935   1.273091   1.127114
 H      5(1)      active      2967.788  2718.760   9.307304   1.282474   1.124124
        6(1)      active      1279.587  1258.898  10.761911   1.286765   1.119588

 Overtones
 ---------
     Mode(n)                  E(harm)  E(anharm)     Aa(z)      Ba(y)      Ca(x)
        1(2)                  5833.506  5450.385   9.065599   1.282985   1.120563
        2(2)                  3699.741  3629.609   9.403430   1.270313   1.108725
        3(2)                  3126.183  3059.954   9.530578   1.300344   1.120458
        4(2)                  2396.985  2354.034   6.623823   1.262065   1.128719
        5(2)                  5935.576  5484.570   9.214561   1.280831   1.122738
        6(2)                  2559.174  2514.316  12.123777   1.289414   1.113668

 Combination Bands
 -----------------
     Mode(n)     Mode(n)      E(harm)  E(anharm)     Aa(z)      Ba(y)      Ca(x)
        2(1)        1(1)      4766.623  4581.489   9.234515   1.276649   1.114644
        3(1)        1(1)      4479.845  4256.776   9.298089   1.291664   1.120511
        3(1)        2(1)      3412.962  3347.078   9.467004   1.285328   1.114592
        4(1)        1(1)      4115.245  3930.126   7.844711   1.272525   1.124641
        4(1)        2(1)      3048.363  2998.331   8.013627   1.266189   1.118722
        4(1)        3(1)      2761.584  2709.229   8.077201   1.281205   1.124588
        5(1)        1(1)      5884.541  5400.446   9.140080   1.281908   1.121651
        5(1)        2(1)      4817.658  4604.765   9.308996   1.275572   1.115732
        5(1)        3(1)      4530.879  4274.262   9.372570   1.290588   1.121598
        5(1)        4(1)      4166.280  3940.230   7.919192   1.271448   1.125728
        6(1)        1(1)      4196.340  4009.072  10.594688   1.286200   1.117115
        6(1)        2(1)      3129.457  3083.984  10.763603   1.279863   1.111196
 H      6(1)        3(1)      2842.679  2844.980  10.827177   1.294879   1.117063
        6(1)        4(1)      2478.079  2446.449   9.373800   1.275740   1.121193
        6(1)        5(1)      4247.375  4008.528  10.669169   1.285123   1.118203

     ==================================================
      Thermodynamic properties and Partition Functions
     ==================================================

 ZPE(harm) = 0.70434D+02 kJ/mol        ZPE(anh)= 0.69466D+02 kJ/mol

 Simple Perturbation Theory (SPT)
 --------------------------------

 T =  298.15 K;  P =   1.00 atm
                    Harmonic value     SPT anharmonic value
 Qvib               0.46036D-12          0.68069D-12
 QZvib              0.10058D+01          0.10065D+01
 Energy             0.77960D+02          0.77000D+02         kJ/mol
 Enthalpy           0.80439D+02          0.79479D+02         kJ/mol
 Entropy            0.21856D+03          0.21859D+03         J/(mol K)
 Sp.Heat(V)         0.26808D+02          0.26951D+02         J/(mol K)
 Sp.Heat(P)         0.35123D+02          0.35265D+02         J/(mol K)

 T =  500.00 K;  P =   1.00 atm
                    Harmonic value     SPT anharmonic value
 Qvib               0.47235D-07          0.59933D-07
 QZvib              0.10771D+01          0.10828D+01
 Energy             0.84105D+02          0.83208D+02         kJ/mol
 Enthalpy           0.88262D+02          0.87365D+02         kJ/mol
 Entropy            0.23843D+03          0.23861D+03         J/(mol K)
 Sp.Heat(V)         0.34609D+02          0.35094D+02         J/(mol K)
 Sp.Heat(P)         0.42923D+02          0.43408D+02         J/(mol K)

 T = 1000.00 K;  P =   1.00 atm
                    Harmonic value     SPT anharmonic value
 Qvib               0.37486D-03          0.43415D-03
 QZvib              0.17901D+01          0.18454D+01
 Energy             0.10628D+03          0.10580D+03         kJ/mol
 Enthalpy           0.11459D+03          0.11411D+03         kJ/mol
 Entropy            0.27420D+03          0.27495D+03         J/(mol K)
 Sp.Heat(V)         0.52539D+02          0.53576D+02         J/(mol K)
 Sp.Heat(P)         0.60853D+02          0.61890D+02         J/(mol K)

 T = 1500.00 K;  P =   1.00 atm
                    Harmonic value     SPT anharmonic value
 Qvib               0.12797D-01          0.14669D-01
 QZvib              0.36289D+01          0.38491D+01
 Energy             0.13519D+03          0.13520D+03         kJ/mol
 Enthalpy           0.14766D+03          0.14768D+03         kJ/mol
 Entropy            0.30089D+03          0.30203D+03         J/(mol K)
 Sp.Heat(V)         0.62005D+02          0.62894D+02         J/(mol K)
 Sp.Heat(P)         0.70320D+02          0.71208D+02         J/(mol K)

 T = 2000.00 K;  P =   1.00 atm
                    Harmonic value     SPT anharmonic value
 Qvib               0.10833D+00          0.12467D+00
 QZvib              0.74857D+01          0.81278D+01
 Energy             0.16752D+03          0.16791D+03         kJ/mol
 Enthalpy           0.18414D+03          0.18454D+03         kJ/mol
 Entropy            0.32185D+03          0.32322D+03         J/(mol K)
 Sp.Heat(V)         0.66791D+02          0.67440D+02         J/(mol K)
 Sp.Heat(P)         0.75105D+02          0.75754D+02         J/(mol K)

     ==================================================
               Anharmonic Transition Moments
     ==================================================

   ### DEPERTURBED TRANSITIONS MOMENTS ###

 Electric dipole : Fundamental Bands
 ------------------------------------------------------------------------
   Mode(n)                            X               Y               Z
      1(1)                       0.224416D-14    0.248068D-14    0.361859D-01
      2(1)                       0.200661D-15   -0.335954D-14   -0.587251D-01
      3(1)                      -0.303378D-15   -0.170415D-14   -0.147503D-01
      4(1)                       0.927892D-02   -0.162709D-14    0.766131D-15
      5(1)                       0.370228D-15   -0.638997D-01   -0.902459D-15
      6(1)                       0.132046D-16    0.254579D-01   -0.146564D-14

 Electric dipole : Overtones
 ------------------------------------------------------------------------
   Mode(n)                            X               Y               Z
      1(2)                       0.109156D-15    0.346205D-14   -0.200876D-03
      2(2)                      -0.275860D-15   -0.655468D-14    0.803938D-02
      3(2)                      -0.168635D-15   -0.661232D-14    0.511411D-02
      4(2)                       0.151850D-13    0.206846D-14    0.820078D-03
      5(2)                       0.103788D-15    0.202973D-13    0.353653D-02
      6(2)                       0.740062D-16   -0.135606D-13   -0.380884D-02

 Electric dipole : Combination Bands
 ------------------------------------------------------------------------
   Mode(n)     Mode(n)                X               Y               Z
      2(1)        1(1)          -0.392469D-16   -0.739134D-14   -0.478917D-02
      3(1)        1(1)           0.161670D-15   -0.272564D-14    0.640343D-03
      3(1)        2(1)           0.192901D-15   -0.306878D-14   -0.573871D-03
      4(1)        1(1)          -0.741742D-03   -0.391479D-14   -0.415708D-14
      4(1)        2(1)           0.388783D-02   -0.785932D-15    0.170635D-13
      4(1)        3(1)          -0.617807D-03   -0.647411D-14   -0.599202D-14
      5(1)        1(1)           0.772085D-15   -0.155199D-02   -0.246652D-14
      5(1)        2(1)           0.167463D-15    0.736798D-02    0.107731D-13
      5(1)        3(1)          -0.338714D-16   -0.168327D-02   -0.119375D-14
      5(1)        4(1)           0.162410D-14    0.168363D-13    0.881955D-14
      6(1)        1(1)           0.503687D-16    0.239351D-02   -0.111735D-13
      6(1)        2(1)           0.186703D-15   -0.150128D-02    0.623916D-14
      6(1)        3(1)          -0.937253D-16   -0.266587D-02   -0.300035D-14
      6(1)        4(1)           0.536445D-14   -0.124923D-13   -0.483215D-15
      6(1)        5(1)          -0.132456D-15    0.607924D-15    0.724924D-03

   ### AFTER VARIATIONAL CORRECTION ###

 Electric dipole : Fundamental Bands
 ------------------------------------------------------------------------
   Mode(n)                            X               Y               Z
      1(1)                       0.224416D-14    0.248068D-14    0.361859D-01
      2(1)                       0.200661D-15   -0.335954D-14   -0.587251D-01
      3(1)                      -0.303378D-15   -0.170415D-14   -0.147503D-01
      4(1)                       0.927892D-02   -0.162709D-14    0.766131D-15
      5(1)                       0.357569D-15   -0.463243D-01    0.190847D-14
      6(1)                       0.132046D-16    0.254579D-01   -0.146564D-14

 Electric dipole : Overtones
 ------------------------------------------------------------------------
   Mode(n)                            X               Y               Z
      1(2)                       0.109156D-15    0.346205D-14   -0.200876D-03
      2(2)                      -0.275860D-15   -0.655468D-14    0.803938D-02
      3(2)                      -0.168635D-15   -0.661232D-14    0.511411D-02
      4(2)                       0.151850D-13    0.206846D-14    0.820078D-03
      5(2)                       0.103788D-15    0.202973D-13    0.353653D-02
      6(2)                       0.740062D-16   -0.135606D-13   -0.380884D-02

 Electric dipole : Combination Bands
 ------------------------------------------------------------------------
   Mode(n)     Mode(n)                X               Y               Z
      2(1)        1(1)          -0.392469D-16   -0.739134D-14   -0.478917D-02
      3(1)        1(1)           0.161670D-15   -0.272564D-14    0.640343D-03
      3(1)        2(1)           0.192901D-15   -0.306878D-14   -0.573871D-03
      4(1)        1(1)          -0.741742D-03   -0.391479D-14   -0.415708D-14
      4(1)        2(1)           0.388783D-02   -0.785932D-15    0.170635D-13
      4(1)        3(1)          -0.617807D-03   -0.647411D-14   -0.599202D-14
      5(1)        1(1)           0.772085D-15   -0.155199D-02   -0.246652D-14
      5(1)        2(1)           0.167463D-15    0.736798D-02    0.107731D-13
      5(1)        3(1)          -0.338714D-16   -0.168327D-02   -0.119375D-14
      5(1)        4(1)           0.162410D-14    0.168363D-13    0.881955D-14
      6(1)        1(1)           0.503687D-16    0.239351D-02   -0.111735D-13
      6(1)        2(1)           0.127491D-15    0.895336D-02    0.640402D-14
      6(1)        3(1)           0.191315D-15   -0.432022D-01   -0.202234D-14
      6(1)        4(1)           0.536445D-14   -0.124923D-13   -0.483215D-15
      6(1)        5(1)          -0.132456D-15    0.607924D-15    0.724924D-03

     ==================================================
              Anharmonic Infrared Spectroscopy
     ==================================================

 Units: Transition energies (E) in cm^-1
        Integrated intensity (I) in km.mol^-1

 Fundamental Bands
 -----------------
   Mode(n)                  E(harm)   E(anharm)        I(harm)       I(anharm)
      1(1)                  2916.753   2758.185     55.95892075     58.48703706
      2(1)                  1849.870   1823.646     98.70817970    101.84622267
      3(1)                  1563.092   1529.439      6.44038443      5.38875576
      4(1)                  1198.492   1179.908      1.44661778      1.64512871
      5(1)                  2967.788   2718.760    164.68785275     94.48113330
      6(1)                  1279.587   1258.898     12.59130332     13.21276082

 Overtones
 ---------
   Mode(n)                  E(harm)   E(anharm)                      I(anharm)
      1(2)                  5833.506   5450.385                      0.00356157
      2(2)                  3699.741   3629.609                      3.79893718
      3(2)                  3126.183   3059.954                      1.29601855
      4(2)                  2396.985   2354.034                      0.02563776
      5(2)                  5935.576   5484.570                      1.11084735
      6(2)                  2559.174   2514.316                      0.59069308

 Combination Bands
 -----------------
   Mode(n)     Mode(n)      E(harm)   E(anharm)                      I(anharm)
      2(1)        1(1)      4766.623   4581.489                      1.70170239
      3(1)        1(1)      4479.845   4256.776                      0.02826591
      3(1)        2(1)      3412.962   3347.078                      0.01785054
      4(1)        1(1)      4115.245   3930.126                      0.03501618
      4(1)        2(1)      3048.363   2998.331                      0.73392216
      4(1)        3(1)      2761.584   2709.229                      0.01674592
      5(1)        1(1)      5884.541   5400.446                      0.21065130
      5(1)        2(1)      4817.658   4604.765                      4.04819342
      5(1)        3(1)      4530.879   4274.262                      0.19612224
      5(1)        4(1)      4166.280   3940.230                      0.00000000
      6(1)        1(1)      4196.340   4009.072                      0.37193799
      6(1)        2(1)      3129.457   3083.984                      4.00351276
      6(1)        3(1)      2842.679   2844.980                     85.99002261
      6(1)        4(1)      2478.079   2446.449                      0.00000000
      6(1)        5(1)      4247.375   4008.528                      0.03411359

 Units: Transition energies (E) in cm^-1
        Dipole strengths (DS) in 10^-40 esu^2.cm^2

 Fundamental Bands
 -----------------
   Mode(n)                  E(harm)   E(anharm)       DS(harm)      DS(anharm)
      1(1)                  2916.753   2758.185     76.53799627     84.59480104
      2(1)                  1849.870   1823.646    212.87233825    222.79826559
      3(1)                  1563.092   1529.439     16.43746151     14.05606555
      4(1)                  1198.492   1179.908      4.81532863      5.56236040
      5(1)                  2967.788   2718.760    221.37884832    138.63777679
      6(1)                  1279.587   1258.898     39.25620498     41.87071638

 Overtones
 ---------
   Mode(n)                  E(harm)   E(anharm)                     DS(anharm)
      1(2)                  5833.506   5450.385                      0.00260689
      2(2)                  3699.741   3629.609                      4.17551114
      3(2)                  3126.183   3059.954                      1.68967712
      4(2)                  2396.985   2354.034                      0.04344850
      5(2)                  5935.576   5484.570                      0.80801458
      6(2)                  2559.174   2514.316                      0.93723710

 Combination Bands
 -----------------
   Mode(n)     Mode(n)      E(harm)   E(anharm)                     DS(anharm)
      2(1)        1(1)      4766.623   4581.489                      1.48178222
      3(1)        1(1)      4479.845   4256.776                      0.02649046
      3(1)        2(1)      3412.962   3347.078                      0.02127614
      4(1)        1(1)      4115.245   3930.126                      0.03554428
      4(1)        2(1)      3048.363   2998.331                      0.97651268
      4(1)        3(1)      2761.584   2709.229                      0.02465873
      5(1)        1(1)      5884.541   5400.446                      0.15561158
      5(1)        2(1)      4817.658   4604.765                      3.50720503
      5(1)        3(1)      4530.879   4274.262                      0.18305142
      5(1)        4(1)      4166.280   3940.230                      0.00000000
      6(1)        1(1)      4196.340   4009.072                      0.37011283
      6(1)        2(1)      3129.457   3083.984                      5.17888728
      6(1)        3(1)      2842.679   2844.980                    120.58026822
      6(1)        4(1)      2478.079   2446.449                      0.00000000
      6(1)        5(1)      4247.375   4008.528                      0.03395079


 GradGradGradGradGradGradGradGradGradGradGradGradGradGradGradGradGradGrad
 Berny optimization.
 Search for a local minimum.
 Step number     1 out of a maximum of     2
 All quantities printed in internal units (Hartrees-Bohrs-Radians)
 Second derivative matrix not updated -- analytic derivatives used.
 The second derivative matrix:
                          X1        Y1        Z1        X2        Y2
           X1           0.90161
           Y1           0.00000   0.07432
           Z1           0.00000   0.00000   0.01894
           X2          -0.81750   0.00000   0.00000   1.02044
           Y2           0.00000  -0.10975   0.00000   0.00000   0.58960
           Z2           0.00000   0.00000  -0.05738   0.00000   0.00000
           X3          -0.04205  -0.03658   0.00000  -0.10147  -0.08154
           Y3          -0.01835   0.01771   0.00000  -0.07671  -0.23993
           Z3           0.00000   0.00000   0.01922   0.00000   0.00000
           X4          -0.04205   0.03658   0.00000  -0.10147   0.08154
           Y4           0.01835   0.01771   0.00000   0.07671  -0.23993
           Z4           0.00000   0.00000   0.01922   0.00000   0.00000
                          Z2        X3        Y3        Z3        X4
           Z2           0.17380
           X3           0.00000   0.13274
           Y3           0.00000   0.10659   0.24218
           Z3          -0.05821   0.00000   0.00000   0.01950
           X4           0.00000   0.01078  -0.01153   0.00000   0.13274
           Y4           0.00000   0.01153  -0.01996   0.00000  -0.10659
           Z4          -0.05821   0.00000   0.00000   0.01949   0.00000
                          Y4        Z4
           Y4           0.24218
           Z4           0.00000   0.01950
 ITU=  0
     Eigenvalues ---    0.12699   0.14723   0.19346   0.36614   0.73482
     Eigenvalues ---    1.78301
 Angle between quadratic step and forces=  55.54 degrees.
 ClnCor:  largest displacement from symmetrization is 4.47D-15 for atom     4.
 Linear search not attempted -- first point.
 ClnCor:  largest displacement from symmetrization is 6.97D-32 for atom     2.
 B after Tr=    -0.000001    0.000000    0.000000
         Rot=    1.000000    0.000000    0.000000    0.000000 Ang=   0.00 deg.
 Variable       Old X    -DE/DX   Delta X   Delta X   Delta X     New X
                                 (Linear)    (Quad)   (Total)
    X1       -1.14025   0.00000   0.00000   0.00000   0.00000  -1.14025
    Y1        0.00000   0.00000   0.00000   0.00000   0.00000   0.00000
    Z1        0.00000   0.00000   0.00000   0.00000   0.00000   0.00000
    X2        1.13966   0.00000   0.00000   0.00000   0.00000   1.13966
    Y2        0.00000   0.00000   0.00000   0.00000   0.00000   0.00000
    Z2        0.00000   0.00000   0.00000   0.00000   0.00000   0.00000
    X3        2.26341   0.00000   0.00000   0.00000   0.00000   2.26341
    Y3        1.77218   0.00000   0.00000   0.00000   0.00000   1.77217
    Z3        0.00000   0.00000   0.00000   0.00000   0.00000   0.00000
    X4        2.26341   0.00000   0.00000   0.00000   0.00000   2.26341
    Y4       -1.77218   0.00000   0.00000   0.00000   0.00000  -1.77217
    Z4        0.00000   0.00000   0.00000   0.00000   0.00000   0.00000
         Item               Value     Threshold  Converged?
 Maximum Force            0.000001     0.000450     YES
 RMS     Force            0.000001     0.000300     YES
 Maximum Displacement     0.000003     0.001800     YES
 RMS     Displacement     0.000001     0.001200     YES
 Predicted change in Energy=-2.516834D-12
 Optimization completed.
    -- Stationary point found.
 GradGradGradGradGradGradGradGradGradGradGradGradGradGradGradGradGradGrad


 ----------------------------------------------------------------------

 Electric dipole moment (input orientation):
 (Debye = 10**-18 statcoulomb cm , SI units = C m)
                  (au)            (Debye)         (10**-30 SI)
   Tot        0.860190D+00      0.218638D+01      0.729299D+01
   x          0.860190D+00      0.218638D+01      0.729299D+01
   y          0.000000D+00      0.000000D+00      0.000000D+00
   z          0.000000D+00      0.000000D+00      0.000000D+00

 Dipole polarizability, Alpha (input orientation).
 (esu units = cm**3 , SI units = C**2 m**2 J**-1)
 Alpha(0;0):
               (au)            (10**-24 esu)      (10**-40 SI)
   iso        0.130836D+02      0.193879D+01      0.215719D+01
   aniso      0.101673D+02      0.150663D+01      0.167636D+01
   xx         0.183626D+02      0.272105D+01      0.302758D+01
   yx         0.000000D+00      0.000000D+00      0.000000D+00
   yy         0.141261D+02      0.209327D+01      0.232907D+01
   zx         0.000000D+00      0.000000D+00      0.000000D+00
   zy         0.000000D+00      0.000000D+00      0.000000D+00
   zz         0.676211D+01      0.100204D+01      0.111492D+01

 ----------------------------------------------------------------------

 Dipole orientation:
     8          0.00000000          0.00000000         -1.14024941
     6          0.00000000          0.00000000          1.13966359
     1          0.00000000          1.77217571          2.26340813
     1          0.00000000         -1.77217571          2.26340813

 Electric dipole moment (dipole orientation):
 (Debye = 10**-18 statcoulomb cm , SI units = C m)
                  (au)            (Debye)         (10**-30 SI)
   Tot        0.860190D+00      0.218638D+01      0.729299D+01
   x          0.000000D+00      0.000000D+00      0.000000D+00
   y          0.000000D+00      0.000000D+00      0.000000D+00
   z          0.860190D+00      0.218638D+01      0.729299D+01

 Dipole polarizability, Alpha (dipole orientation).
 (esu units = cm**3 , SI units = C**2 m**2 J**-1)
 Alpha(0;0):
               (au)            (10**-24 esu)      (10**-40 SI)
   iso        0.130836D+02      0.193879D+01      0.215719D+01
   aniso      0.101673D+02      0.150663D+01      0.167636D+01
   xx         0.676211D+01      0.100204D+01      0.111492D+01
   yx         0.000000D+00      0.000000D+00      0.000000D+00
   yy         0.141261D+02      0.209327D+01      0.232907D+01
   zx         0.000000D+00      0.000000D+00      0.000000D+00
   zy         0.000000D+00      0.000000D+00      0.000000D+00
   zz         0.183626D+02      0.272105D+01      0.302758D+01

 ----------------------------------------------------------------------

 Job not archived.
 1\1\GINC-MACBOOK-PRO-DI-VINCENZO\Freq\RB3LYP\6-31G(d)\C1H2O1\VINCENZOB
 ARONE\12-Mar-2026\0\\#B3LYP 6-31G* freq=anharm output=pickett iop(7/8=
 10)\\h2co\\0,1\O,-0.603394,0.,0.\C,0.603084,0.,0.\H,1.197744,0.937795,
 0.\H,1.197744,-0.937795,0.\\Version=AppleM1-GDVRevJ.32+\State=1-A1\HF=
 -114.5004728\RMSD=6.923e-09\RMSF=5.042e-07\ZeroPoint=0.0268267\Thermal
 =0.0296932\ETot=-114.4707795\HTot=-114.4698353\GTot=-114.4946549\Dipol
 e=0.8601896,0.,0.\DipoleDeriv=-0.8632623,0.,0.,0.,-0.4265606,0.,0.,0.,
 -0.3131359,1.000979,0.,0.,0.,0.8703556,0.,0.,0.,0.1829773,-0.0688583,-
 0.1090129,0.,-0.113937,-0.2218975,0.,0.,0.,0.0650793,-0.0688583,0.1090
 129,0.,0.113937,-0.2218975,0.,0.,0.,0.0650793\Polar=18.3625784,0.,14.1
 260529,0.,0.,6.7621096\Quadrupole=-0.2335543,0.0782435,0.1553108,0.,0.
 ,0.\PG=C02V [C2(C1O1),SGV(H2)]\NImag=0\\0.90160769,0.,0.07432486,0.,0.
 ,0.01894198,-0.81749970,0.,0.,1.02043822,0.,-0.10974533,0.,0.,0.589597
 41,0.,0.,-0.05737559,0.,0.,0.17379607,-0.04205400,-0.03657809,0.,-0.10
 146926,-0.08153723,0.,0.13274021,-0.01835456,0.01771024,0.,-0.07670686
 ,-0.23992604,0.,0.10658837,0.24217582,0.,0.,0.01921681,0.,0.,-0.058210
 24,0.,0.,0.01949889,-0.04205400,0.03657809,0.,-0.10146926,0.08153723,0
 .,0.01078305,-0.01152695,0.,0.13274021,0.01835456,0.01771024,0.,0.0767
 0686,-0.23992604,0.,0.01152695,-0.01996002,0.,-0.10658837,0.24217582,0
 .,0.,0.01921681,0.,0.,-0.05821024,0.,0.,0.01949454,0.,0.,0.01949889\\0
 .00000108,0.,0.,-0.00000106,0.,0.,0.,0.00000061,0.,0.,-0.00000061,0.\\
 0.,0.,0.,-0.02892502,0.,0.,0.,0.,0.04306482,0.,0.,0.,0.,0.,0.,0.022629
 10,0.,0.,0.05240390,0.,0.,0.,0.,-0.00706990,0.,0.,-0.03751650,0.,0.,0.
 ,-0.00335951,0.,0.,-0.04961693,0.,0.,0.00314796,0.00227235,0.,-0.04773
 436,-0.07890802,0.,0.04510760,0.06480606,0.,0.,0.,-0.00706990,0.,0.,-0
 .03751650,0.,0.,-0.00052120,0.,0.,0.,0.00335951,0.,0.,0.04961693,0.,0.
 ,0.01182961,0.,0.,0.00314796,-0.00227235,0.,-0.04773436,0.07890802,0.,
 -0.00052120,-0.01182961,0.,0.04510760,-0.06480606,0.,0.,-0.01297952,0.
 ,0.,0.,0.,0.,-0.02765252,0.,0.,-0.00210951,0.,0.,0.09112577,0.,0.,0.,0
 .,0.,0.,0.,0.02987220,0.02031602,0.,-0.06472492,-0.04450813,0.,0.03485
 272,0.00754452,0.00632218,0.,-0.03173662,0.05119884,0.,0.02961943,-0.0
 5752102,0.,0.,-0.01436213,0.,0.,0.01232254,0.,0.,0.00203959,-0.0298722
 0,0.02031602,0.,0.06472492,-0.04450813,0.,0.,-0.00542732,0.,-0.0348527
 2,0.00754452,-0.00632218,0.,-0.03173662,-0.05119884,0.,-0.00542732,0.,
 0.,0.02961943,0.05752102,0.,0.,0.01436213,0.,0.,-0.01232254,0.,0.,0.,0
 .,0.,-0.00203959,-0.34715561,0.,0.01692380,0.,0.,0.05412230,0.29826279
 ,0.,0.,-0.19086744,0.,-0.02040159,0.,0.,-0.13301897,0.,0.,-0.03663341,
 0.,0.,0.04355926,0.02444641,0.02181257,0.,-0.05369768,-0.03085337,0.,0
 .02585147,0.01066659,0.00173889,0.,-0.01139649,0.07671028,0.,0.0048853
 5,-0.04812738,0.,0.,-0.00874445,0.,0.,-0.00346293,0.,0.,-0.00251412,0.
 02444641,-0.02181257,0.,-0.05369768,0.03085337,0.,0.00339980,-0.004155
 44,0.,0.02585147,-0.01066659,0.00173889,0.,0.01139649,0.07671028,0.,0.
 00415544,-0.03032179,0.,-0.00488535,-0.04812738,0.,0.,-0.00874445,0.,0
 .,-0.00346293,0.,0.,0.01472149,0.,0.,-0.00251412,-1.13200841,0.,0.1041
 6558,0.,0.,0.12137610,1.10744688,0.,0.,-1.14008444,0.,-0.09253418,0.,0
 .,0.21512672,0.,0.,-0.10965157,0.,0.,0.08510540,0.01228076,0.00935446,
 0.,0.01631878,-0.01154455,0.,-0.02599129,0.01409716,-0.00581570,0.,-0.
 01651352,-0.06129627,0.,0.00230322,0.04469164,0.,0.,-0.00586226,0.,0.,
 0.01227309,0.,0.,0.00337088,0.01228076,-0.00935446,0.,0.01631878,0.011
 54455,0.,-0.00260825,0.00011313,0.,-0.02599129,-0.01409716,-0.00581570
 ,0.,0.01651352,-0.06129627,0.,-0.00011313,0.02242033,0.,-0.00230322,0.
 04469164,0.,0.,-0.00586226,0.,0.,0.01227309,0.,0.,-0.00978171,0.,0.,0.
 00337088,0.06868784,0.,-0.00215864,0.,0.,0.00201536,-0.08652855,0.,0.,
 -0.22071938,0.,0.02663739,0.,0.,-1.04415795,0.,0.,0.01371520,0.,0.,0.1
 0860723,0.00892035,0.01278789,0.,0.15362396,0.33845319,0.,-0.15384672,
 -0.01501559,-0.01223937,0.,0.33877311,0.50876028,0.,-0.33749930,-0.509
 46123,0.,0.,-0.00786528,0.,0.,-0.06116121,0.,0.,0.08922941,0.00892035,
 -0.01278789,0.,0.15362396,-0.33845319,0.,-0.00869760,0.01374178,0.,-0.
 15384672,0.01501559,-0.01223937,0.,-0.33877311,0.50876028,0.,-0.013741
 78,0.01294032,0.,0.33749930,-0.50946123,0.,0.,-0.00786528,0.,0.,-0.061
 16121,0.,0.,-0.02020291,0.,0.,0.08922941,0.,-0.04674930,0.,0.,0.,0.,0.
 ,0.03153684,0.,0.,0.11385084,0.,0.,-0.86052319,0.,0.,0.,0.,0.,0.,0.,-0
 .00238452,0.00760623,0.,0.17912343,0.37333617,0.,-0.17673891,-0.033550
 77,-0.00921775,0.,0.41449318,0.50575493,0.,-0.36647021,-0.49653718,0.,
 0.,-0.00623719,0.,0.,-0.08529930,0.,0.,0.09153649,0.00238452,0.0076062
 3,0.,-0.17912343,0.37333617,0.,0.,-0.01447219,0.,0.17673891,-0.0335507
 7,0.00921775,0.,0.41449318,-0.50575493,0.,-0.01447219,0.,0.,-0.3664702
 1,0.49653718,0.,0.,0.00623719,0.,0.,0.08529930,0.,0.,0.,0.,0.,-0.09153
 649,-0.08153189,0.,-0.00715888,0.,0.,0.00202327,0.09140457,0.,0.,-0.26
 288400,0.,0.01993476,0.,0.,-0.49186549,0.,0.,0.02282034,0.,0.,0.077711
 90,-0.00493635,0.00072207,0.,0.08573972,0.15380431,0.,-0.07882626,-0.0
 1361766,-0.00638795,0.,0.15092970,0.23596537,0.,-0.14591921,-0.2147543
 8,0.,0.,-0.01242179,0.,0.,-0.05026612,0.,0.,0.07440611,-0.00493635,-0.
 00072207,0.,0.08573972,-0.15380431,0.,-0.00197711,0.00860717,0.,-0.078
 82626,0.01361766,-0.00638795,0.,-0.15092970,0.23596537,0.,-0.00860717,
 -0.01482304,0.,0.14591921,-0.21475438,0.,0.,-0.01242179,0.,0.,-0.05026
 612,0.,0.,-0.01171820,0.,0.,0.07440611,-0.04369877,0.,-0.00198443,0.,0
 .,-0.02406090,0.08087040,0.,0.,-0.17213623,0.,0.02167554,0.,0.,-0.3761
 6713,0.,0.,0.01661351,0.,0.,0.01445944,-0.01858582,-0.00320979,0.,0.04
 563291,0.12618522,0.,-0.01863547,-0.02749791,-0.00984556,0.,0.13515076
 ,0.17724579,0.,-0.11531414,-0.17520133,0.,0.,0.00372371,0.,0.,-0.01553
 648,0.,0.,0.01542904,-0.01858582,0.00320979,0.,0.04563292,-0.12618522,
 0.,-0.00841162,0.00766129,0.,-0.01863547,0.02749791,-0.00984556,0.,-0.
 13515076,0.17724580,0.,-0.00766129,0.00780109,0.,0.11531414,-0.1752013
 3,0.,0.,0.00372371,0.,0.,-0.01553648,0.,0.,-0.00361627,0.,0.,0.0154290
 4,0.08747575,0.,-0.01859367,0.,0.,-0.03407352,-0.07616721,0.,0.,-0.050
 02786,0.,0.04662327,0.,0.,-0.37766036,0.,0.,0.02787702,0.,0.,-0.012305
 24,-0.00565427,-0.00408397,0.,0.06309754,0.13653816,0.,-0.06094950,-0.
 02497786,-0.01401479,0.,0.12383865,0.16551855,0.,-0.11565749,-0.136136
 28,0.,0.,0.00309826,0.,0.,-0.00778589,0.,0.,0.00057175,-0.00565427,0.0
 0408397,0.,0.06309754,-0.13653816,0.,0.00350623,0.01679670,0.,-0.06094
 950,0.02497786,-0.01401479,0.,-0.12383865,0.16551855,0.,-0.01679670,-0
 .01536747,0.,0.11565749,-0.13613628,0.,0.,0.00309826,0.,0.,-0.00778589
 ,0.,0.,0.00411588,0.,0.,0.00057175,1.29053220,0.,-0.21324604,0.,0.,-0.
 21418752,-1.28306895,0.,0.,1.23008252,0.,0.21850270,0.,0.,-0.31493175,
 0.,0.,0.21189624,0.,0.,-0.21095854,-0.00373162,-0.00128961,0.,0.026493
 22,0.05171812,0.,-0.02709555,-0.00636121,-0.00262833,0.,0.04195229,0.0
 4821453,0.,-0.04300980,-0.03543954,0.,0.,0.00114565,0.,0.,-0.00046885,
 0.,0.,-0.00222091,-0.00373162,0.00128961,0.,0.02649322,-0.05171812,0.,
 0.00433396,0.00741872,0.,-0.02709555,0.00636121,-0.00262833,0.,-0.0419
 5229,0.04821453,0.,-0.00741872,-0.01014665,0.,0.04300980,-0.03543954,0
 .,0.,0.00114565,0.,0.,-0.00046885,0.,0.,0.00154410,0.,0.,-0.00222091,0
 .04107147,0.,-0.01157053,0.,0.,-0.00110448,-0.07119169,0.,0.,0.4866224
 0,0.,-0.00371198,0.,0.,1.93468805,0.,0.,-0.00161298,0.,0.,-0.54706881,
 0.01506011,-0.00009559,0.,-0.20771536,-0.75435805,0.,0.18021645,0.0229
 9719,0.00764126,0.,-0.73469613,-0.96548804,0.,0.73307629,0.94208585,0.
 ,0.,0.00135874,0.,0.,0.27434090,0.,0.,-0.29972924,0.01506011,0.0000955
 9,0.,-0.20771535,0.75435805,0.,0.01243880,-0.02137735,0.,0.18021645,-0
 .02299718,0.00764126,0.,0.73469612,-0.96548803,0.,0.02137735,0.0157609
 3,0.,-0.73307629,0.94208584,0.,0.,0.00135874,0.,0.,0.27434090,0.,0.,0.
 02402959,0.,0.,-0.29972924,-0.06153830,0.,0.01027652,0.,0.,0.02027250,
 0.03852568,0.,0.,0.49210245,0.,-0.01889175,0.,0.,1.95235702,0.,0.,-0.0
 2418739,0.,0.,-0.63376384,0.01150630,0.00360431,0.,-0.26531407,-0.8780
 3316,0.,0.27139529,0.03399366,0.00430762,0.,-0.89549431,-0.96673263,0.
 ,0.86796475,0.94270976,0.,0.,0.00195745,0.,0.,0.32897561,0.,0.,-0.3266
 7046,0.01150630,-0.00360431,0.,-0.26531407,0.87803316,0.,-0.01758753,-
 0.00646410,0.,0.27139529,-0.03399366,0.00430762,0.,0.89549431,-0.96673
 263,0.,0.00646410,0.01971525,0.,-0.86796475,0.94270976,0.,0.,0.0019574
 5,0.,0.,0.32897561,0.,0.,-0.00426260,0.,0.,-0.32667046\\@
 DoSRE=F DoSRN=F DoDH=F DoFC=F DoNQ=T DoQCD=T DoSCD=T
 Inertia tensor (amu-bohr**2): 
                 1             2             3 
      1   0.633036D+01  0.000000D+00  0.000000D+00
      2   0.000000D+00  0.467083D+02  0.000000D+00
      3   0.000000D+00  0.000000D+00  0.530387D+02
 Principal inertia moments (amu-bohr**2):
 Iaa = 0.633036D+01 Ibb= 0.467083D+02 Icc= 0.530387D+02
 Rotation matrix to Principal Axis frame: 
                 1             2             3 
      1   0.100000D+01  0.000000D+00  0.000000D+00
      2   0.000000D+00  0.100000D+01  0.000000D+00
      3   0.000000D+00  0.000000D+00  0.100000D+01
                Principal axis orientation:                
 ---------------------------------------------------------------------
 Center     Atomic                     Coordinates (Angstroms)
 Number     Number                        X           Y           Z
 ---------------------------------------------------------------------
      1          8                   -0.603394    0.000000    0.000000
      2          6                    0.603084    0.000000    0.000000
      3          1                    1.197744    0.937795    0.000000
      4          1                    1.197744   -0.937795    0.000000
 ---------------------------------------------------------------------
 Rotational constants (MHZ):
 285092.7905852  38638.5605187  34026.9022599
 Nuclear quadrupole coupling constants [Chi] (MHz):
 Dipole moment (Debye):
      2.1863839      0.0000000      0.0000000  Tot=      2.1863839
 Quartic Centrifugal Distortion Constants (MHz)
    (Asymmetrically reduced)          (Symmetrically reduced)
    DELTA N  =    0.068306117         D N  =    0.064223625
    DELTA K  =   18.463068750         D K  =   18.442656291
    DELTA NK =    1.237094052         D NK =    1.261589002
    delta N  =   -0.009109160         d 1  =    0.009109160
    delta K  =   -0.880118787         d 2  =   -0.002041246
 Sextic Centrifugal Distortion Constants (MHz)
    (Asymmetrically reduced)          (Symmetrically reduced)
    PHI N  =    0.8730917705D-07      H N  =    0.1321688263D-07
    PHI K  =    0.3701726669D-02      H K  =    0.3658563035D-02
    PHI NK =    0.2499100567D-04      H NK =    0.6936859097D-05
    PHI KN =   -0.5457599853D-04      H KN =    0.6715874446D-05
    phi N  =   -0.3811675439D-07      h 1  =   -0.2739212302D-07
    phi K  =   -0.1124229624D-02      h 2  =    0.3704614721D-07
    phi NK =   -0.1335189885D-04      h 3  =   -0.1072463137D-07

 Atoms with significant hyperfine tensors: 

--------------------------------------------------------------------------------
 h2co                                                    
   99  1000  50  0.1760E-11  0.1000E+07  0.1000E+01 1.0000000000
a   1  0  0  0  1  1   1  0  1  0
     10000   0.28509279E+06    0.0000E+00   /  A  /
     20000   0.38638561E+05    0.0000E+00   /  B  /
     30000   0.34026902E+05    0.0000E+00   /  C  /
       200  -0.68306117E-01    0.0000E+00   /  -DELTA N  /
      2000  -0.18463069E+02    0.0000E+00   /  -DELTA K  /
      1100  -0.12370941E+01    0.0000E+00   /  -DELTA NK  /
     40100   0.91091602E-02    0.0000E+00   /  -delta N  /
     41000   0.88011879E+00    0.0000E+00   /  -delta K  /
       300   0.87309177E-07    0.0000E+00   /  PHI N  /
      3000   0.37017267E-02    0.0000E+00   /  PHI K  /
      1200   0.24991006E-04    0.0000E+00   /  PHI NK  /
      2100  -0.54575999E-04    0.0000E+00   /  PHI KN  /
     42000  -0.11242296E-02    0.0000E+00   /  phi K  /
     40200  -0.38116754E-07    0.0000E+00   /  phi N  /
     41100  -0.13351899E-04    0.0000E+00   /  phi NK  /
--------------------------------------------------------------------------------



 THERE IS MORE TO LIFE THAN INCREASING ITS SPEED.

                                       -- GANDHI
 Job cpu time:       0 days  0 hours  0 minutes  9.4 seconds.
 Elapsed time:       0 days  0 hours  0 minutes 12.2 seconds.
 File lengths (MBytes):  RWF=     44 Int=      0 D2E=      0 Chk=     38 Scr=      1
 Normal termination of Gaussian DV at Thu Mar 12 09:26:17 2026.
