h2cs                                                                    
Freq      RB3LYP                                                      6-31G(d)            
Number of atoms                            I                4
Info1-9                                    I   N=           9
          15          13           0           0           0         101
           6          18        -502
Full Title                                 C   N=           1
h2cs        
Route                                      C   N=           5
#B3LYP 6-31G* freq=anharm iop(7/8=10) output=pickett        
Point Group                                C   N=           2
C02V                    
Point Group NOp                            I                4
Point Group Abelian NOp                    I                4
Point Group NClass                         I                4
Point Group NIrrep                         I                4
Point Group NGen                           I                2
Point Group NOp symm assign                I                2
Point Group Irrep Names                    H   N=           4
A1      A2      B1      B2      
Point Group Class Names                    H   N=           4
E       C2      Sgm     Sgm'    
Point Group Generators                     I   N=           2
           2           3
Point Group Class of Operators             I   N=           4
           1           2           3           4
Point Group Rotations                      R   N=          48
  1.00000000E+00  0.00000000E+00  0.00000000E+00  0.00000000E+00  1.00000000E+00
 -4.60326217E-34  0.00000000E+00 -4.60326217E-34  1.00000000E+00  0.00000000E+00
  0.00000000E+00  0.00000000E+00 -1.00000000E+00 -1.22464680E-16  0.00000000E+00
  1.22464680E-16 -1.00000000E+00  1.07508881E-33  0.00000000E+00 -2.00107017E-33
  1.00000000E+00  0.00000000E+00  0.00000000E+00  0.00000000E+00 -1.00000000E+00
  0.00000000E+00  0.00000000E+00  0.00000000E+00  1.00000000E+00 -2.00107017E-33
  0.00000000E+00 -2.00107017E-33  1.00000000E+00  0.00000000E+00  0.00000000E+00
  0.00000000E+00  1.00000000E+00 -1.22464680E-16  0.00000000E+00 -1.22464680E-16
 -1.00000000E+00 -1.69518033E-33  0.00000000E+00 -2.00107017E-33  1.00000000E+00
  0.00000000E+00  0.00000000E+00  0.00000000E+00
Point Group Cell Trans                     I   N=          12
           0           0           0           0           0           0
           0           0           0           0           0           0
Point Group Char Table                     R   N=          16
  1.00000000E+00  1.00000000E+00  1.00000000E+00  1.00000000E+00  1.00000000E+00
  1.00000000E+00 -1.00000000E+00 -1.00000000E+00  1.00000000E+00 -1.00000000E+00
 -1.00000000E+00  1.00000000E+00  1.00000000E+00 -1.00000000E+00  1.00000000E+00
 -1.00000000E+00
Point Group Atom Permutations              I   N=          16
           1           2           3           4           1           2
           4           3           1           2           3           4
           1           2           4           3
Charge                                     I                0
Multiplicity                               I                1
Number of electrons                        I               24
Number of alpha electrons                  I               12
Number of beta electrons                   I               12
Number of basis functions                  I               38
Number of independent functions            I               38
Number of point charges in /Mol/           I                0
Number of translation vectors              I                0
Atomic numbers                             I   N=           4
          16           6           1           1
Nuclear charges                            R   N=           4
  1.60000000E+01  6.00000000E+00  1.00000000E+00  1.00000000E+00
Current cartesian coordinates              R   N=          12
  0.00000000E+00 -1.59352578E-33  1.11142951E+00 -4.93038066E-32  1.03508234E-33
 -1.94670483E+00  0.00000000E+00  1.74458949E+00 -3.05132156E+00 -2.13650593E-16
 -1.74458949E+00 -3.05132156E+00
Number of symbols in /Mol/                 I                0
Int Atom Types                             I   N=           4
           0           0           0           0
Force Field                                I                0
Atom Types                                 C   N=           4
                                                
MM charges                                 R   N=           4
  0.00000000E+00  0.00000000E+00  0.00000000E+00  0.00000000E+00
Integer atomic weights                     I   N=           4
          32          12           1           1
Real atomic weights                        R   N=           4
  3.19720718E+01  1.20000000E+01  1.00782504E+00  1.00782504E+00
Atom fragment info                         I   N=           4
           0           0           0           0
Atom residue num                           I   N=           4
           0           0           0           0
Nuclear spins                              I   N=           4
           0           0           1           1
Nuclear ZEff                               R   N=           4
 -1.36000000E+01 -3.60000000E+00 -1.00000000E+00 -1.00000000E+00
Nuclear ZNuc                               R   N=           4
  1.60000000E+01  6.00000000E+00  1.00000000E+00  1.00000000E+00
Nuclear QMom                               R   N=           4
  0.00000000E+00  0.00000000E+00  0.00000000E+00  0.00000000E+00
Nuclear GFac                               R   N=           4
  0.00000000E+00  0.00000000E+00  2.79284600E+00  2.79284600E+00
MicOpt                                     I   N=           4
          -1          -1          -1          -1
Number of residues                         I                0
Number of secondary structures             I                0
SymInf integers                            I   N=          26
           2           4           1           1           1          -1
          -1           1          -1           1           1           1
          -1           1           0           0           0           0
           0           0           0           0           0           0
           0           0
RotTr to input orientation                 R   N=          12
 -1.83697020E-16 -4.38651710E-16  1.00000000E+00 -1.17182060E-17  1.00000000E+00
  4.38651710E-16 -1.00000000E+00 -1.17182060E-17 -1.83697020E-16  1.30988571E-01
  0.00000000E+00 -8.90210806E-18
Number of contracted shells                I               13
Number of primitive shells                 I               36
Pure/Cartesian d shells                    I                1
Pure/Cartesian f shells                    I                0
Highest angular momentum                   I                2
Largest degree of contraction              I                6
Shell types                                I   N=          13
           0          -1          -1          -1           2           0
          -1          -1           2           0           0           0
           0
Number of primitives per shell             I   N=          13
           6           6           3           1           1           6
           3           1           1           3           1           3
           1
Shell to atom map                          I   N=          13
           1           1           1           1           1           2
           2           2           2           3           3           4
           4
Primitive exponents                        R   N=          36
  2.19171000E+04  3.30149000E+03  7.54146000E+02  2.12711000E+02  6.79896000E+01
  2.30515000E+01  4.23735000E+02  1.00710000E+02  3.21599000E+01  1.18079000E+01
  4.63110000E+00  1.87025000E+00  2.61584000E+00  9.22167000E-01  3.41287000E-01
  1.17167000E-01  6.50000000E-01  3.04752488E+03  4.57369518E+02  1.03948685E+02
  2.92101553E+01  9.28666296E+00  3.16392696E+00  7.86827235E+00  1.88128854E+00
  5.44249258E-01  1.68714478E-01  8.00000000E-01  1.87311370E+01  2.82539436E+00
  6.40121692E-01  1.61277759E-01  1.87311370E+01  2.82539436E+00  6.40121692E-01
  1.61277759E-01
Contraction coefficients                   R   N=          36
  1.86924085E-03  1.42303065E-02  6.96962317E-02  2.38487108E-01  4.83307220E-01
  3.38074154E-01 -2.37677050E-03 -3.16930067E-02 -1.13317024E-01  5.60900118E-02
  5.92255124E-01  4.55006095E-01 -2.50373114E-01  6.69567631E-02  1.05450627E+00
  1.00000000E+00  1.00000000E+00  1.83473713E-03  1.40373228E-02  6.88426223E-02
  2.32184443E-01  4.67941348E-01  3.62311985E-01 -1.19332420E-01 -1.60854152E-01
  1.14345644E+00  1.00000000E+00  1.00000000E+00  3.34946043E-02  2.34726953E-01
  8.13757326E-01  1.00000000E+00  3.34946043E-02  2.34726953E-01  8.13757326E-01
  1.00000000E+00
P(S=P) Contraction coefficients            R   N=          36
  0.00000000E+00  0.00000000E+00  0.00000000E+00  0.00000000E+00  0.00000000E+00
  0.00000000E+00  4.06100998E-03  3.06812999E-02  1.30451999E-01  3.27204999E-01
  4.52850998E-01  2.56041999E-01 -1.45104895E-02  3.10262776E-01  7.54482456E-01
  1.00000000E+00  0.00000000E+00  0.00000000E+00  0.00000000E+00  0.00000000E+00
  0.00000000E+00  0.00000000E+00  0.00000000E+00  6.89990666E-02  3.16423961E-01
  7.44308291E-01  1.00000000E+00  0.00000000E+00  0.00000000E+00  0.00000000E+00
  0.00000000E+00  0.00000000E+00  0.00000000E+00  0.00000000E+00  0.00000000E+00
  0.00000000E+00
Coordinates of each shell                  R   N=          39
  0.00000000E+00 -8.56214147E-34  1.11142951E+00  0.00000000E+00 -8.56214147E-34
  1.11142951E+00  0.00000000E+00 -8.56214147E-34  1.11142951E+00  0.00000000E+00
 -8.56214147E-34  1.11142951E+00  0.00000000E+00 -8.56214147E-34  1.11142951E+00
  0.00000000E+00  1.49968685E-33 -1.94670483E+00  0.00000000E+00  1.49968685E-33
 -1.94670483E+00  0.00000000E+00  1.49968685E-33 -1.94670483E+00  0.00000000E+00
  1.49968685E-33 -1.94670483E+00  0.00000000E+00  1.74458949E+00 -3.05132156E+00
  0.00000000E+00  1.74458949E+00 -3.05132156E+00 -2.13650593E-16 -1.74458949E+00
 -3.05132156E+00 -2.13650593E-16 -1.74458949E+00 -3.05132156E+00
Constraint Structure                       R   N=          12
  2.13068396E-16  1.30239600E-17  1.11142951E+00 -3.48701768E-16 -2.28118883E-17
 -1.94670483E+00 -1.31688373E-15  1.74458949E+00 -3.05132156E+00  2.13650593E-16
 -1.74458949E+00 -3.05132156E+00
Constraint Force Constants                 R   N=          12
  0.00000000E+00  0.00000000E+00  0.00000000E+00  0.00000000E+00  0.00000000E+00
  0.00000000E+00  0.00000000E+00  0.00000000E+00  0.00000000E+00  0.00000000E+00
  0.00000000E+00  0.00000000E+00
Num ILSW                                   I              100
ILSW                                       I   N=         100
           0           1           0           1           2           0
           0           0           0           0        4002          -1
           5           0           0           0           2          -1
           0           0           0           0           1           0
           1           0           0           0           0           0
           0           0      100000           0          -1           0
           0           0           0           0           0           0
           0           0           0           1           0           0
           0 -2000000000           1           0           0           0
           0           0        2004          68           0           0
           0           0           5           0           0           0
           0           0           0           0           0           1
           0           0           0           0           0           0
           0           0           0           0           0           0
           0           0           0           0           0           0
           0           0           1           0           0           0
           0           0           0           0
Num RLSW                                   I               68
RLSW                                       R   N=          68
  8.00000000E-01  7.20000000E-01  1.00000000E+00  8.10000000E-01  2.00000000E-01
  0.00000000E+00  0.00000000E+00  1.00000000E+00  0.00000000E+00  0.00000000E+00
  0.00000000E+00  0.00000000E+00  1.00000000E+00  0.00000000E+00  0.00000000E+00
  0.00000000E+00  0.00000000E+00  1.00000000E+00  0.00000000E+00  0.00000000E+00
  0.00000000E+00  0.00000000E+00  1.00000000E+00  0.00000000E+00  0.00000000E+00
  0.00000000E+00  0.00000000E+00  1.00000000E+00  0.00000000E+00  0.00000000E+00
  0.00000000E+00  0.00000000E+00  1.00000000E+00  0.00000000E+00  0.00000000E+00
  0.00000000E+00  0.00000000E+00  0.00000000E+00  1.00000000E+00  1.00000000E+00
  0.00000000E+00  1.00000000E+00  0.00000000E+00  0.00000000E+00  0.00000000E+00
  0.00000000E+00  0.00000000E+00  0.00000000E+00  0.00000000E+00  0.00000000E+00
  0.00000000E+00  0.00000000E+00  1.00000000E+00  1.00000000E+00  1.00000000E+00
  1.00000000E+00  1.00000000E+00  1.00000000E+00  0.00000000E+00  0.00000000E+00
  0.00000000E+00  0.00000000E+00  0.00000000E+00  0.00000000E+00  0.00000000E+00
  0.00000000E+00  2.00000000E-10  1.00000000E-02
MxBond                                     I                3
NBond                                      I   N=           4
           1           3           1           1
IBond                                      I   N=          12
           2           0           0           1           3           4
           2           0           0           2           0           0
RBond                                      R   N=          12
  2.00000000E+00  0.00000000E+00  0.00000000E+00  2.00000000E+00  1.00000000E+00
  1.00000000E+00  1.00000000E+00  0.00000000E+00  0.00000000E+00  1.00000000E+00
  0.00000000E+00  0.00000000E+00
Virial Ratio                               R      2.003946529128976E+00
SCF Energy                                 R     -4.374623345338026E+02
Total Energy                               R     -4.374623345338026E+02
RMS Force                                  R      4.383266363178387E-06
RMS Density                                R      2.334107412769175E-09
NImag                                      I                0
Zero-point Energy                          R      2.490421194278763E-02
Job Status                                 I                1
Nuclear derivative order                   I                3
Energy with zero-point                     R     -4.374374303218598E+02
Thermal Energy                             R     -4.374345004140553E+02
Thermal Enthalpy                           R     -4.374335562292416E+02
Thermal Free Energy                        R     -4.374597559537572E+02
External E-field                           R   N=         105
  0.00000000E+00  0.00000000E+00  0.00000000E+00  0.00000000E+00  0.00000000E+00
  0.00000000E+00  0.00000000E+00  0.00000000E+00  0.00000000E+00  0.00000000E+00
  0.00000000E+00  0.00000000E+00  0.00000000E+00  0.00000000E+00  0.00000000E+00
  0.00000000E+00  0.00000000E+00  0.00000000E+00  0.00000000E+00  0.00000000E+00
  0.00000000E+00  0.00000000E+00  0.00000000E+00  0.00000000E+00  0.00000000E+00
  0.00000000E+00  0.00000000E+00  0.00000000E+00  0.00000000E+00  0.00000000E+00
  0.00000000E+00  0.00000000E+00  0.00000000E+00  0.00000000E+00  0.00000000E+00
  0.00000000E+00  0.00000000E+00  0.00000000E+00  0.00000000E+00  0.00000000E+00
  0.00000000E+00  0.00000000E+00  0.00000000E+00  0.00000000E+00  0.00000000E+00
  0.00000000E+00  0.00000000E+00  0.00000000E+00  0.00000000E+00  0.00000000E+00
  0.00000000E+00  0.00000000E+00  0.00000000E+00  0.00000000E+00  0.00000000E+00
  0.00000000E+00  0.00000000E+00  0.00000000E+00  0.00000000E+00  0.00000000E+00
  0.00000000E+00  0.00000000E+00  0.00000000E+00  0.00000000E+00  0.00000000E+00
  0.00000000E+00  0.00000000E+00  0.00000000E+00  0.00000000E+00  0.00000000E+00
  0.00000000E+00  0.00000000E+00  0.00000000E+00  0.00000000E+00  0.00000000E+00
  0.00000000E+00  0.00000000E+00  0.00000000E+00  0.00000000E+00  0.00000000E+00
  0.00000000E+00  0.00000000E+00  0.00000000E+00  0.00000000E+00  0.00000000E+00
  0.00000000E+00  0.00000000E+00  0.00000000E+00  0.00000000E+00  0.00000000E+00
  0.00000000E+00  0.00000000E+00  0.00000000E+00  0.00000000E+00  0.00000000E+00
  0.00000000E+00  0.00000000E+00  0.00000000E+00  0.00000000E+00  0.00000000E+00
  0.00000000E+00  0.00000000E+00  0.00000000E+00  0.00000000E+00  0.00000000E+00
IOpCl                                      I                0
IROHF                                      I                0
Alpha Orbital Energies                     R   N=          38
 -8.88818263E+01 -1.02649345E+01 -7.94420611E+00 -5.90842343E+00 -5.90715241E+00
 -5.89808211E+00 -8.00731399E-01 -6.06622698E-01 -4.67802797E-01 -3.97962449E-01
 -3.21667913E-01 -2.33280542E-01 -9.45965860E-02  7.63060270E-02  1.37666078E-01
  1.49508845E-01  2.93648024E-01  3.65045227E-01  3.90539160E-01  3.95190335E-01
  5.31754744E-01  5.44414990E-01  5.58530411E-01  7.69100298E-01  7.79021053E-01
  7.80908389E-01  8.28313633E-01  8.43157367E-01  9.44849040E-01  1.04451737E+00
  1.10258416E+00  1.62710525E+00  1.81365787E+00  2.00509363E+00  2.20742541E+00
  2.26071989E+00  3.91798814E+00  4.10907704E+00
Alpha MO coefficients                      R   N=        1444
  9.96113848E-01  1.48759572E-02  0.00000000E+00  0.00000000E+00 -5.72011513E-05
 -2.41165346E-02  0.00000000E+00  0.00000000E+00  3.39512235E-05  2.84453448E-03
  0.00000000E+00  0.00000000E+00 -9.37459099E-05  8.52397092E-03  8.52374959E-03
  8.55310636E-03  0.00000000E+00  0.00000000E+00  0.00000000E+00  3.25256971E-05
  1.93555824E-04  0.00000000E+00  0.00000000E+00  4.61363933E-05 -2.98642354E-05
  0.00000000E+00  0.00000000E+00 -3.25174290E-05  1.67012660E-05  5.34844988E-05
 -1.72592922E-04  0.00000000E+00  0.00000000E+00  0.00000000E+00 -1.82659116E-05
 -1.37372227E-04 -1.82659116E-05 -1.37372227E-04 -1.46339622E-05  3.29385686E-05
  0.00000000E+00  0.00000000E+00 -5.17341291E-05  6.06624785E-05  0.00000000E+00
  0.00000000E+00  1.46553947E-04  3.21137902E-03  0.00000000E+00  0.00000000E+00
 -2.09196502E-03 -2.90139952E-05 -1.01024472E-04 -4.01097372E-04  0.00000000E+00
  0.00000000E+00  0.00000000E+00  9.92827323E-01  4.88369227E-02  0.00000000E+00
  0.00000000E+00  3.50706840E-04 -1.22342764E-02  0.00000000E+00  0.00000000E+00
 -9.20308231E-04 -9.56653356E-03 -9.24871957E-03 -9.12200874E-03  0.00000000E+00
  0.00000000E+00  0.00000000E+00 -2.97640199E-04  1.85544722E-03 -2.97640199E-04
  1.85544722E-03 -2.79779248E-01  1.02196738E+00  0.00000000E+00  0.00000000E+00
 -5.50515617E-03  7.77260747E-02  0.00000000E+00  0.00000000E+00 -1.46356936E-03
 -1.47639419E-02  0.00000000E+00  0.00000000E+00  9.42305264E-04 -1.76944298E-02
 -1.82924575E-02 -1.68808894E-02  0.00000000E+00  0.00000000E+00  0.00000000E+00
 -2.72335800E-04 -3.38498812E-04  0.00000000E+00  0.00000000E+00 -8.98189754E-04
  4.76464581E-04  0.00000000E+00  0.00000000E+00 -3.27767852E-04 -1.38477410E-05
 -1.10742151E-04 -6.20848734E-04  0.00000000E+00  0.00000000E+00  0.00000000E+00
 -3.61516880E-05  7.55344942E-04 -3.61516880E-05  7.55344942E-04  0.00000000E+00
  0.00000000E+00  9.91078668E-01  0.00000000E+00  0.00000000E+00  0.00000000E+00
  2.97202878E-02  0.00000000E+00  0.00000000E+00  0.00000000E+00 -8.60981759E-03
  0.00000000E+00  0.00000000E+00  0.00000000E+00  0.00000000E+00  0.00000000E+00
  0.00000000E+00 -4.14810156E-04  0.00000000E+00  0.00000000E+00  0.00000000E+00
 -4.98927362E-04  0.00000000E+00  0.00000000E+00  0.00000000E+00  7.75808994E-04
  0.00000000E+00  0.00000000E+00  0.00000000E+00  0.00000000E+00  0.00000000E+00
  0.00000000E+00 -6.98983103E-04  0.00000000E+00  0.00000000E+00  0.00000000E+00
  0.00000000E+00  0.00000000E+00 -1.65028734E-03  6.18929241E-03  0.00000000E+00
  0.00000000E+00  9.90509816E-01  6.68346966E-04  0.00000000E+00  0.00000000E+00
  3.22473598E-02 -3.86815528E-03  0.00000000E+00  0.00000000E+00 -6.43337206E-03
  2.79927972E-04  2.52227553E-04 -2.98898016E-03  0.00000000E+00  0.00000000E+00
  0.00000000E+00  3.49644510E-04 -4.46475255E-04  0.00000000E+00  0.00000000E+00
  1.47681522E-03  3.77074855E-03  0.00000000E+00  0.00000000E+00  4.10275221E-03
 -2.80130693E-04 -9.43229918E-05  1.54140301E-03  0.00000000E+00  0.00000000E+00
  0.00000000E+00 -2.14226668E-04 -2.23613408E-04 -2.14226668E-04 -2.23613408E-04
  0.00000000E+00  0.00000000E+00  0.00000000E+00  9.91356952E-01  0.00000000E+00
  0.00000000E+00  0.00000000E+00  2.88416693E-02  0.00000000E+00  0.00000000E+00
  0.00000000E+00 -7.83860293E-03  0.00000000E+00  0.00000000E+00  0.00000000E+00
  0.00000000E+00  0.00000000E+00  0.00000000E+00 -6.39906632E-04  0.00000000E+00
  0.00000000E+00  0.00000000E+00 -6.64985345E-05  0.00000000E+00  0.00000000E+00
  0.00000000E+00 -1.62174175E-03  0.00000000E+00  0.00000000E+00  0.00000000E+00
  0.00000000E+00  0.00000000E+00  0.00000000E+00 -5.80517342E-04 -1.25525777E-04
  2.03609705E-03  1.25525777E-04 -2.03609705E-03  5.35707783E-02 -2.44122702E-01
  0.00000000E+00  0.00000000E+00  7.21657461E-02  4.93716408E-01  0.00000000E+00
  0.00000000E+00 -1.60424488E-01  1.20679300E-01  0.00000000E+00  0.00000000E+00
  6.69671370E-03 -1.89318527E-02 -2.65057003E-02  3.47531913E-02  0.00000000E+00
  0.00000000E+00  0.00000000E+00 -1.58771436E-01  3.16253866E-01  0.00000000E+00
  0.00000000E+00  9.95190159E-02  2.66260521E-01  0.00000000E+00  0.00000000E+00
  1.12626181E-02 -1.51370911E-02 -8.60395481E-04  1.16937583E-02  0.00000000E+00
  0.00000000E+00  0.00000000E+00  8.24853180E-02  1.05139652E-02  8.24853180E-02
  1.05139652E-02  5.17058280E-02 -2.35507845E-01  0.00000000E+00  0.00000000E+00
 -1.54041754E-02  5.06329549E-01  0.00000000E+00  0.00000000E+00  3.79966121E-02
  2.12778315E-01  0.00000000E+00  0.00000000E+00  1.13042403E-02 -1.51969456E-03
 -1.05013717E-02 -1.03982962E-02  0.00000000E+00  0.00000000E+00  0.00000000E+00
  1.22470401E-01 -2.52884278E-01  0.00000000E+00  0.00000000E+00  2.46450444E-01
 -2.66972448E-01  0.00000000E+00  0.00000000E+00  8.08504113E-02  1.14290340E-02
 -1.64173880E-02  8.95715496E-03  0.00000000E+00  0.00000000E+00  0.00000000E+00
 -1.64324813E-01 -7.41296176E-02 -1.64324813E-01 -7.41296176E-02  0.00000000E+00
  0.00000000E+00  0.00000000E+00 -6.64533927E-02  0.00000000E+00  0.00000000E+00
  0.00000000E+00  1.63422209E-01  0.00000000E+00  0.00000000E+00  0.00000000E+00
  4.48234159E-02  0.00000000E+00  0.00000000E+00  0.00000000E+00  0.00000000E+00
  0.00000000E+00  0.00000000E+00 -3.35250013E-02  0.00000000E+00  0.00000000E+00
  0.00000000E+00  4.61299078E-01  0.00000000E+00  0.00000000E+00  0.00000000E+00
  1.97513732E-01  0.00000000E+00  0.00000000E+00  0.00000000E+00  0.00000000E+00
  0.00000000E+00  0.00000000E+00 -1.72690030E-02  2.26418706E-01  1.55221138E-01
 -2.26418706E-01 -1.55221138E-01  2.88580662E-02 -1.35573245E-01  0.00000000E+00
  0.00000000E+00 -2.06780815E-01  2.84956901E-01  0.00000000E+00  0.00000000E+00
  5.16004108E-01  3.15192431E-01  0.00000000E+00  0.00000000E+00  1.18078704E-01
  2.43859936E-02  1.95613088E-02 -5.50258565E-02  0.00000000E+00  0.00000000E+00
  0.00000000E+00  3.46429322E-02 -7.87140597E-02  0.00000000E+00  0.00000000E+00
 -3.77145161E-01 -1.31425664E-01  0.00000000E+00  0.00000000E+00 -1.70197465E-01
  4.56558157E-04  1.36188049E-02 -7.50614391E-03  0.00000000E+00  0.00000000E+00
  0.00000000E+00  9.27271722E-02  8.67712091E-02  9.27271722E-02  8.67712091E-02
  0.00000000E+00  0.00000000E+00 -2.02914443E-01  0.00000000E+00  0.00000000E+00
  0.00000000E+00  5.23471782E-01  0.00000000E+00  0.00000000E+00  0.00000000E+00
  2.48556927E-01  0.00000000E+00  0.00000000E+00  0.00000000E+00  0.00000000E+00
  0.00000000E+00  0.00000000E+00 -5.10486341E-02  0.00000000E+00  0.00000000E+00
  0.00000000E+00  3.63881050E-01  0.00000000E+00  0.00000000E+00  0.00000000E+00
  2.66306340E-01  0.00000000E+00  0.00000000E+00  0.00000000E+00  0.00000000E+00
  0.00000000E+00  0.00000000E+00  2.03579289E-02  0.00000000E+00  0.00000000E+00
  0.00000000E+00  0.00000000E+00  0.00000000E+00  0.00000000E+00  0.00000000E+00
  0.00000000E+00 -2.59445770E-01  0.00000000E+00  0.00000000E+00  0.00000000E+00
  6.87035106E-01  0.00000000E+00  0.00000000E+00  0.00000000E+00  4.17999389E-01
  0.00000000E+00  0.00000000E+00  0.00000000E+00  0.00000000E+00  0.00000000E+00
  0.00000000E+00 -4.66903108E-03  0.00000000E+00  0.00000000E+00  0.00000000E+00
 -9.82983821E-02  0.00000000E+00  0.00000000E+00  0.00000000E+00  7.48622913E-03
  0.00000000E+00  0.00000000E+00  0.00000000E+00  0.00000000E+00  0.00000000E+00
  0.00000000E+00  3.35444662E-02 -1.14293229E-01 -1.89266086E-01  1.14293229E-01
  1.89266086E-01  0.00000000E+00  0.00000000E+00  1.79761575E-01  0.00000000E+00
  0.00000000E+00  0.00000000E+00 -4.88084272E-01  0.00000000E+00  0.00000000E+00
  0.00000000E+00 -4.34571322E-01  0.00000000E+00  0.00000000E+00  0.00000000E+00
  0.00000000E+00  0.00000000E+00  0.00000000E+00 -6.28487501E-02  0.00000000E+00
  0.00000000E+00  0.00000000E+00  4.67524891E-01  0.00000000E+00  0.00000000E+00
  0.00000000E+00  5.33926289E-01  0.00000000E+00  0.00000000E+00  0.00000000E+00
  0.00000000E+00  0.00000000E+00  0.00000000E+00 -1.11981188E-02  0.00000000E+00
  0.00000000E+00  0.00000000E+00  0.00000000E+00  0.00000000E+00 -1.17566762E-02
  7.53405215E-02  0.00000000E+00  0.00000000E+00 -9.53181424E-02 -6.74327172E-02
  0.00000000E+00  0.00000000E+00  2.69833168E-01 -9.08686528E-01  0.00000000E+00
  0.00000000E+00  1.04305198E+00 -4.67062587E-02 -6.00647316E-02  1.27265500E-01
  0.00000000E+00  0.00000000E+00  0.00000000E+00 -1.53567440E-01  2.44278874E-01
  0.00000000E+00  0.00000000E+00  5.28490296E-02  2.18915659E+00  0.00000000E+00
  0.00000000E+00  2.05888267E-01 -1.46785276E-02 -1.58961610E-02 -1.40611963E-02
  0.00000000E+00  0.00000000E+00  0.00000000E+00 -6.23103922E-02 -8.01597467E-01
 -6.23103922E-02 -8.01597467E-01  0.00000000E+00  0.00000000E+00  0.00000000E+00
  1.43164805E-04  0.00000000E+00  0.00000000E+00  0.00000000E+00 -2.65046615E-02
  0.00000000E+00  0.00000000E+00  0.00000000E+00  4.80778474E-01  0.00000000E+00
  0.00000000E+00  0.00000000E+00  0.00000000E+00  0.00000000E+00  0.00000000E+00
  1.10054786E-01  0.00000000E+00  0.00000000E+00  0.00000000E+00 -4.22417916E-01
  0.00000000E+00  0.00000000E+00  0.00000000E+00 -1.40475480E+00  0.00000000E+00
  0.00000000E+00  0.00000000E+00  0.00000000E+00  0.00000000E+00  0.00000000E+00
 -2.27438612E-02  8.17126846E-02  1.50736127E+00 -8.17126846E-02 -1.50736127E+00
 -1.83081026E-02  8.13768945E-02  0.00000000E+00  0.00000000E+00 -5.20434268E-02
 -2.20980301E-01  0.00000000E+00  0.00000000E+00  1.49329585E-01 -9.77015532E-01
  0.00000000E+00  0.00000000E+00  1.17697731E+00 -9.18405585E-02 -4.22110399E-02
  1.32006662E-01  0.00000000E+00  0.00000000E+00  0.00000000E+00  2.29060480E-02
 -2.66213299E-02  0.00000000E+00  0.00000000E+00  4.35048967E-01 -3.76537054E-01
  0.00000000E+00  0.00000000E+00  1.31242638E+00 -7.59242550E-03  1.31971611E-02
 -1.34692260E-02  0.00000000E+00  0.00000000E+00  0.00000000E+00  5.90172041E-02
  1.20835396E+00  5.90172041E-02  1.20835396E+00 -7.07156325E-02  9.42752681E-02
  0.00000000E+00  0.00000000E+00 -3.55348226E-03 -1.56217722E+00  0.00000000E+00
  0.00000000E+00  3.17404111E-02  2.04813129E+00  0.00000000E+00  0.00000000E+00
 -3.53789532E-01 -1.78362298E-02 -2.26442287E-02 -1.35512571E-01  0.00000000E+00
  0.00000000E+00  0.00000000E+00 -2.23457130E-02 -2.03577496E-02  0.00000000E+00
  0.00000000E+00 -3.11950203E-02 -2.07626084E-01  0.00000000E+00  0.00000000E+00
 -1.22141875E-01  3.19371861E-02  1.07063654E-02 -6.57773162E-02  0.00000000E+00
  0.00000000E+00  0.00000000E+00 -7.05252540E-02 -1.92737481E-01 -7.05252540E-02
 -1.92737481E-01  0.00000000E+00  0.00000000E+00  2.85065002E-01  0.00000000E+00
  0.00000000E+00  0.00000000E+00 -1.15602084E+00  0.00000000E+00  0.00000000E+00
  0.00000000E+00  1.27438878E+00  0.00000000E+00  0.00000000E+00  0.00000000E+00
  0.00000000E+00  0.00000000E+00  0.00000000E+00  8.86412939E-02  0.00000000E+00
  0.00000000E+00  0.00000000E+00 -1.31423387E-01  0.00000000E+00  0.00000000E+00
  0.00000000E+00 -4.94865440E-02  0.00000000E+00  0.00000000E+00  0.00000000E+00
  0.00000000E+00  0.00000000E+00  0.00000000E+00 -4.14849701E-02  0.00000000E+00
  0.00000000E+00  0.00000000E+00  0.00000000E+00  0.00000000E+00  0.00000000E+00
  0.00000000E+00  0.00000000E+00  2.92471741E-01  0.00000000E+00  0.00000000E+00
  0.00000000E+00 -1.18484584E+00  0.00000000E+00  0.00000000E+00  0.00000000E+00
  1.29170969E+00  0.00000000E+00  0.00000000E+00  0.00000000E+00  0.00000000E+00
  0.00000000E+00  0.00000000E+00  3.07171144E-02  0.00000000E+00  0.00000000E+00
  0.00000000E+00  1.50573271E-01  0.00000000E+00  0.00000000E+00  0.00000000E+00
 -1.38847385E-02  0.00000000E+00  0.00000000E+00  0.00000000E+00  0.00000000E+00
  0.00000000E+00  0.00000000E+00 -1.56361409E-02 -3.22805682E-02 -3.00675286E-01
  3.22805682E-02  3.00675286E-01 -9.70804663E-04 -2.06232530E-03  0.00000000E+00
  0.00000000E+00 -3.09607537E-01 -2.49944840E-02  0.00000000E+00  0.00000000E+00
  1.27472852E+00 -3.94615947E-01  0.00000000E+00  0.00000000E+00 -1.01222101E+00
 -2.48486755E-02 -1.56756278E-02  2.00348338E-02  0.00000000E+00  0.00000000E+00
  0.00000000E+00 -4.51567178E-02  1.09289793E-01  0.00000000E+00  0.00000000E+00
  6.90485543E-02 -2.03614590E-01  0.00000000E+00  0.00000000E+00  7.18695930E-01
  3.52412649E-02  4.75470824E-02 -9.57119413E-02  0.00000000E+00  0.00000000E+00
  0.00000000E+00  1.53931009E-02  1.28701363E-01  1.53931009E-02  1.28701363E-01
  7.19301164E-03 -4.16879604E-02  0.00000000E+00  0.00000000E+00  7.49877627E-02
  8.41461428E-02  0.00000000E+00  0.00000000E+00 -1.64497653E-01 -1.35393130E+00
  0.00000000E+00  0.00000000E+00  9.98360704E-01  5.36368812E-02  1.53829230E-01
 -2.79090527E-01  0.00000000E+00  0.00000000E+00  0.00000000E+00  1.41459527E-02
  9.20991629E-02  0.00000000E+00  0.00000000E+00 -7.29234318E-01  3.07460768E-02
  0.00000000E+00  0.00000000E+00  2.11824639E+00 -5.34316935E-02  1.16893780E-01
  2.61963747E-03  0.00000000E+00  0.00000000E+00  0.00000000E+00  3.82426359E-01
  5.14709830E-01  3.82426359E-01  5.14709830E-01  0.00000000E+00  0.00000000E+00
  0.00000000E+00  4.24702842E-02  0.00000000E+00  0.00000000E+00  0.00000000E+00
 -1.58745777E-01  0.00000000E+00  0.00000000E+00  0.00000000E+00 -2.95612326E-01
  0.00000000E+00  0.00000000E+00  0.00000000E+00  0.00000000E+00  0.00000000E+00
  0.00000000E+00 -4.41231847E-01  0.00000000E+00  0.00000000E+00  0.00000000E+00
 -6.08198316E-01  0.00000000E+00  0.00000000E+00  0.00000000E+00  1.30822734E+00
  0.00000000E+00  0.00000000E+00  0.00000000E+00  0.00000000E+00  0.00000000E+00
  0.00000000E+00  1.47726798E-01 -3.99756107E-01 -1.11478281E-01  3.99756107E-01
  1.11478281E-01  0.00000000E+00  0.00000000E+00 -4.07315660E-02  0.00000000E+00
  0.00000000E+00  0.00000000E+00  1.55657728E-01  0.00000000E+00  0.00000000E+00
  0.00000000E+00 -5.02226106E-01  0.00000000E+00  0.00000000E+00  0.00000000E+00
  0.00000000E+00  0.00000000E+00  0.00000000E+00 -8.85580016E-02  0.00000000E+00
  0.00000000E+00  0.00000000E+00 -1.07326419E+00  0.00000000E+00  0.00000000E+00
  0.00000000E+00  1.23662289E+00  0.00000000E+00  0.00000000E+00  0.00000000E+00
  0.00000000E+00  0.00000000E+00  0.00000000E+00 -7.05699215E-03  0.00000000E+00
  0.00000000E+00  0.00000000E+00  0.00000000E+00  0.00000000E+00  0.00000000E+00
  0.00000000E+00 -4.45609756E-02  0.00000000E+00  0.00000000E+00  0.00000000E+00
  1.81410381E-01  0.00000000E+00  0.00000000E+00  0.00000000E+00 -2.93963613E-01
  0.00000000E+00  0.00000000E+00  0.00000000E+00  0.00000000E+00  0.00000000E+00
  0.00000000E+00  9.38772369E-01  0.00000000E+00  0.00000000E+00  0.00000000E+00
 -2.06945195E-02  0.00000000E+00  0.00000000E+00  0.00000000E+00  3.57109362E-01
  0.00000000E+00  0.00000000E+00  0.00000000E+00  0.00000000E+00  0.00000000E+00
  0.00000000E+00 -2.16979858E-01  0.00000000E+00  0.00000000E+00  0.00000000E+00
  0.00000000E+00  0.00000000E+00  0.00000000E+00  0.00000000E+00  0.00000000E+00
  0.00000000E+00  0.00000000E+00  0.00000000E+00  0.00000000E+00  0.00000000E+00
  0.00000000E+00  0.00000000E+00  0.00000000E+00  0.00000000E+00  0.00000000E+00
  0.00000000E+00  0.00000000E+00  0.00000000E+00  9.95561461E-01  0.00000000E+00
  0.00000000E+00  0.00000000E+00  0.00000000E+00  0.00000000E+00  0.00000000E+00
  0.00000000E+00  0.00000000E+00  0.00000000E+00  0.00000000E+00  0.00000000E+00
  0.00000000E+00  0.00000000E+00  0.00000000E+00  6.59717898E-02  0.00000000E+00
  0.00000000E+00  0.00000000E+00  0.00000000E+00  0.00000000E+00  0.00000000E+00
 -2.17440727E-04  3.11139835E-03  0.00000000E+00  0.00000000E+00  6.67655003E-04
  1.43140180E-03  0.00000000E+00  0.00000000E+00  1.76920498E-02 -2.55831048E-01
  0.00000000E+00  0.00000000E+00  1.78684076E-01  8.77173857E-01 -8.23272565E-01
 -5.17188391E-02  0.00000000E+00  0.00000000E+00  0.00000000E+00  3.93635681E-03
 -2.19127790E-01  0.00000000E+00  0.00000000E+00  4.62088049E-02  4.73122257E-01
  0.00000000E+00  0.00000000E+00  1.73401990E-01  2.08339198E-02 -2.90304939E-02
 -3.16892101E-02  0.00000000E+00  0.00000000E+00  0.00000000E+00  1.26635828E-01
 -7.81217974E-02  1.26635828E-01 -7.81217974E-02  0.00000000E+00  0.00000000E+00
  0.00000000E+00  8.97057987E-03  0.00000000E+00  0.00000000E+00  0.00000000E+00
 -7.98869014E-02  0.00000000E+00  0.00000000E+00  0.00000000E+00 -2.61994323E-01
  0.00000000E+00  0.00000000E+00  0.00000000E+00  0.00000000E+00  0.00000000E+00
  0.00000000E+00  2.60223368E-01  0.00000000E+00  0.00000000E+00  0.00000000E+00
 -9.91545617E-01  0.00000000E+00  0.00000000E+00  0.00000000E+00  2.08086659E+00
  0.00000000E+00  0.00000000E+00  0.00000000E+00  0.00000000E+00  0.00000000E+00
  0.00000000E+00 -1.84434071E-01  5.29460987E-01 -1.67990487E+00 -5.29460987E-01
  1.67990487E+00 -1.26047539E-02  1.18238350E-02  0.00000000E+00  0.00000000E+00
 -2.37014816E-02 -3.18263073E-01  0.00000000E+00  0.00000000E+00  5.28797637E-03
  1.88366745E+00  0.00000000E+00  0.00000000E+00 -1.20801419E+00 -1.24978083E-01
 -1.11452786E-02  1.46707565E-01  0.00000000E+00  0.00000000E+00  0.00000000E+00
  8.00358990E-02  3.20960327E-01  0.00000000E+00  0.00000000E+00  6.78019044E-01
 -1.27107889E+00  0.00000000E+00  0.00000000E+00 -1.62930923E+00 -1.40582459E-01
  1.94549518E-01  5.61230101E-02  0.00000000E+00  0.00000000E+00  0.00000000E+00
  7.39928256E-01 -9.96156185E-01  7.39928256E-01 -9.96156185E-01  6.75879845E-03
  9.77115014E-04  0.00000000E+00  0.00000000E+00  1.07053338E-04  1.89140029E-01
  0.00000000E+00  0.00000000E+00  1.25495017E-01 -1.62216870E+00  0.00000000E+00
  0.00000000E+00  1.07358716E+00 -1.04770877E-02  2.55611811E-01 -2.63894111E-01
  0.00000000E+00  0.00000000E+00  0.00000000E+00 -4.25203510E-02 -1.90684905E+00
  0.00000000E+00  0.00000000E+00  2.01563588E-01  4.67323937E+00  0.00000000E+00
  0.00000000E+00  3.12900660E-01 -3.75835587E-02 -4.52201878E-02 -2.13542838E-01
  0.00000000E+00  0.00000000E+00  0.00000000E+00  1.87015050E-01 -1.00558127E+00
  1.87015050E-01 -1.00558127E+00  0.00000000E+00  0.00000000E+00  0.00000000E+00
  6.48861196E-03  0.00000000E+00  0.00000000E+00  0.00000000E+00 -5.06768809E-03
  0.00000000E+00  0.00000000E+00  0.00000000E+00 -4.84837266E-01  0.00000000E+00
  0.00000000E+00  0.00000000E+00  0.00000000E+00  0.00000000E+00  0.00000000E+00
  9.01894967E-01  0.00000000E+00  0.00000000E+00  0.00000000E+00 -1.57057899E-02
  0.00000000E+00  0.00000000E+00  0.00000000E+00  1.28896402E+00  0.00000000E+00
  0.00000000E+00  0.00000000E+00  0.00000000E+00  0.00000000E+00  0.00000000E+00
  4.78136973E-02 -5.49353255E-01 -2.31647782E-01  5.49353255E-01  2.31647782E-01
 -8.99537137E-04 -5.11179137E-02  0.00000000E+00  0.00000000E+00  4.07893537E-02
 -1.69062288E-01  0.00000000E+00  0.00000000E+00 -6.17740903E-02  3.08840754E-01
  0.00000000E+00  0.00000000E+00 -3.01668696E-01 -4.94541150E-01 -5.14474599E-01
  9.21676856E-01  0.00000000E+00  0.00000000E+00  0.00000000E+00  4.83237574E-02
 -6.64336521E-01  0.00000000E+00  0.00000000E+00 -6.15927147E-01  3.84055160E-01
  0.00000000E+00  0.00000000E+00  2.36616898E-01 -1.19917498E-01 -8.82573627E-02
  1.04580927E-01  0.00000000E+00  0.00000000E+00  0.00000000E+00  8.11874411E-02
 -1.70552089E-01  8.11874411E-02 -1.70552089E-01  0.00000000E+00  0.00000000E+00
  0.00000000E+00  0.00000000E+00  0.00000000E+00  0.00000000E+00  0.00000000E+00
  0.00000000E+00  0.00000000E+00  0.00000000E+00  0.00000000E+00  0.00000000E+00
  0.00000000E+00  0.00000000E+00  0.00000000E+00  0.00000000E+00 -1.00174862E-01
  0.00000000E+00  0.00000000E+00  0.00000000E+00  0.00000000E+00  0.00000000E+00
  0.00000000E+00  0.00000000E+00  0.00000000E+00  0.00000000E+00  0.00000000E+00
  0.00000000E+00  0.00000000E+00  0.00000000E+00  0.00000000E+00  9.98411413E-01
  0.00000000E+00  0.00000000E+00  0.00000000E+00  0.00000000E+00  0.00000000E+00
  0.00000000E+00  0.00000000E+00  0.00000000E+00  3.98280054E-02  0.00000000E+00
  0.00000000E+00  0.00000000E+00 -1.31887234E-01  0.00000000E+00  0.00000000E+00
  0.00000000E+00 -1.21345633E-01  0.00000000E+00  0.00000000E+00  0.00000000E+00
  0.00000000E+00  0.00000000E+00  0.00000000E+00  4.31697183E-01  0.00000000E+00
  0.00000000E+00  0.00000000E+00 -3.97780679E-02  0.00000000E+00  0.00000000E+00
  0.00000000E+00  2.10655017E-01  0.00000000E+00  0.00000000E+00  0.00000000E+00
  0.00000000E+00  0.00000000E+00  0.00000000E+00  1.00901185E+00  0.00000000E+00
  0.00000000E+00  0.00000000E+00  0.00000000E+00  0.00000000E+00  1.69560595E-03
  7.49934519E-03  0.00000000E+00  0.00000000E+00 -6.08150983E-03  8.31633059E-02
  0.00000000E+00  0.00000000E+00  2.88432748E-02 -2.65487528E-01  0.00000000E+00
  0.00000000E+00  1.79341094E-01  8.57723866E-02 -4.80043513E-02 -5.59565027E-02
  0.00000000E+00  0.00000000E+00  0.00000000E+00 -5.32048060E-02 -2.39408967E-01
  0.00000000E+00  0.00000000E+00 -5.53587054E-02  1.06771939E+00  0.00000000E+00
  0.00000000E+00 -2.12130466E-01 -9.60051538E-01  8.92982512E-01 -1.20636998E-02
  0.00000000E+00  0.00000000E+00  0.00000000E+00 -5.55523385E-01 -9.29933173E-02
 -5.55523385E-01 -9.29933173E-02  0.00000000E+00  0.00000000E+00  0.00000000E+00
  3.47140537E-02  0.00000000E+00  0.00000000E+00  0.00000000E+00 -1.23348112E-01
  0.00000000E+00  0.00000000E+00  0.00000000E+00  1.29487997E-01  0.00000000E+00
  0.00000000E+00  0.00000000E+00  0.00000000E+00  0.00000000E+00  0.00000000E+00
  2.16345488E-01  0.00000000E+00  0.00000000E+00  0.00000000E+00 -1.35653581E-01
  0.00000000E+00  0.00000000E+00  0.00000000E+00 -4.31765264E-01  0.00000000E+00
  0.00000000E+00  0.00000000E+00  0.00000000E+00  0.00000000E+00  0.00000000E+00
  1.13535069E+00  6.60614543E-01 -8.58349639E-02 -6.60614543E-01  8.58349639E-02
 -2.86729324E-02  1.03593655E-01  0.00000000E+00  0.00000000E+00 -1.56170635E-01
 -6.53081761E-01  0.00000000E+00  0.00000000E+00  8.23302561E-01 -1.07478121E+00
  0.00000000E+00  0.00000000E+00  5.39878280E-01  3.89591224E-01  3.92397656E-01
 -5.31016112E-01  0.00000000E+00  0.00000000E+00  0.00000000E+00 -6.84074414E-02
 -3.56364094E-01  0.00000000E+00  0.00000000E+00  1.59490546E-01  1.61557804E+00
  0.00000000E+00  0.00000000E+00  1.15252942E+00 -5.76565360E-01 -6.48657675E-01
  1.14647252E+00  0.00000000E+00  0.00000000E+00  0.00000000E+00  4.37066781E-02
  7.17498028E-02  4.37066781E-02  7.17498028E-02  1.57298633E-01 -7.21414130E-01
  0.00000000E+00  0.00000000E+00 -1.44399661E-02  5.88257572E+00  0.00000000E+00
  0.00000000E+00  1.04948873E-01 -5.10149638E-01  0.00000000E+00  0.00000000E+00
  1.28460000E-01 -2.48871394E+00 -2.48316800E+00 -2.55680525E+00  0.00000000E+00
  0.00000000E+00  0.00000000E+00 -1.95221326E-01  1.03914373E+00  0.00000000E+00
  0.00000000E+00  7.78881287E-02  8.14101651E-01  0.00000000E+00  0.00000000E+00
  1.43498197E-01 -7.37238561E-01 -7.76745989E-01 -4.53295439E-01  0.00000000E+00
  0.00000000E+00  0.00000000E+00  8.10491828E-02 -1.40071193E-01  8.10491828E-02
 -1.40071193E-01 -6.13350156E-02  2.76128965E-01  0.00000000E+00  0.00000000E+00
  4.99019176E-02 -2.48702448E+00  0.00000000E+00  0.00000000E+00 -1.74526175E-01
 -2.90522434E-01  0.00000000E+00  0.00000000E+00  2.89684275E-01  1.00440250E+00
  1.02027059E+00  1.28484730E+00  0.00000000E+00  0.00000000E+00  0.00000000E+00
 -4.32498095E-01  2.83454307E+00  0.00000000E+00  0.00000000E+00 -9.48720504E-02
  1.78847239E+00  0.00000000E+00  0.00000000E+00  2.37081774E-02 -1.67004842E+00
 -1.70455168E+00 -1.88801626E+00  0.00000000E+00  0.00000000E+00  0.00000000E+00
  1.45460314E-01 -3.82831494E-01  1.45460314E-01 -3.82831494E-01
Orthonormal basis                          R   N=        1444
  3.22157512E-03  2.55654100E-02 -3.04740837E-21  1.54991712E-05 -9.38191987E-03
  9.20173083E-02  7.32393240E-20  1.04354221E-04 -6.46669603E-02  1.10539985E-01
  2.64073882E-19  1.82600105E-04 -1.06913266E-01  5.78096454E-02  5.83219816E-02
  8.43380829E-02  6.08291501E-20  2.32775499E-19 -6.27604178E-05  3.08948129E-02
  1.50409045E-01 -1.39241110E-18  3.13779898E-04  1.49678223E-02  1.73226511E-01
 -2.20129186E-18  2.73232829E-04  2.88118880E-02  1.07739744E-01  1.16974014E-01
  1.24813131E-01  1.03730808E-18  6.45088136E-19 -1.77819236E-04  6.66213308E-02
  1.14504347E-01  6.51307907E-02  1.13128709E-01  1.25091227E-02  8.06841292E-02
 -1.15032867E-16 -2.94590012E-05  8.77636934E-04  2.14407382E-01 -4.01942538E-18
 -1.54550471E-04  1.60839708E-02  1.72161768E-01 -3.43054832E-18 -2.72571703E-04
  7.36096801E-02  1.60278382E-01  1.59524749E-01  1.55613157E-01 -9.91203853E-20
 -2.24447128E-19  6.59052922E-05 -1.94610137E-02 -7.34456679E-02  1.60842212E-18
 -6.58976806E-04  1.14343336E-01 -5.03095673E-02  1.83948539E-18 -6.02784069E-04
  2.06313391E-01 -5.80302171E-02 -7.47956484E-02 -3.08644472E-02 -1.96875027E-18
 -1.79737497E-18  2.59419120E-04 -8.52465948E-02 -9.23665772E-02 -8.36556110E-02
 -9.16897265E-02  2.41218594E-05  1.20331964E-04  2.48481719E-17  3.83887298E-02
  1.21722950E-04  2.30049628E-04 -4.70595858E-18  1.47429008E-01  4.92613933E-04
  3.88991921E-05  4.40376097E-17  2.09586362E-01  8.81246075E-04  2.05310234E-04
  2.19544384E-04  8.81897876E-05 -3.14904437E-19 -7.86051822E-18 -4.96812204E-02
 -2.63971088E-06 -2.62880547E-04  3.10544275E-17  2.35432955E-01 -1.36665615E-05
 -7.89828278E-04  5.40284999E-17  3.31802287E-01  7.62784297E-04 -3.00019923E-04
 -1.95277371E-04 -1.83870536E-04 -5.59521974E-18  4.66152532E-18 -3.68138021E-02
  1.79198252E-01  1.61669874E-01 -1.80203414E-01 -1.64792135E-01 -4.29432932E-17
 -1.97627096E-16  1.12193820E-01  2.61747497E-16 -4.37543434E-16 -4.19316807E-16
  3.23295787E-01 -1.12915959E-16 -1.15512798E-15 -3.39961246E-16  3.65212410E-01
 -2.84386946E-16 -7.69932065E-16 -2.44354125E-16 -3.14555606E-16 -4.07515931E-17
  5.08904236E-05 -8.60532196E-02 -1.61559431E-16 -2.17325770E-18  2.09189135E-16
  2.51422205E-01  8.94554591E-17  8.66866680E-16 -5.18870280E-18  3.54590598E-01
 -6.07696138E-17  6.68107707E-16  1.35822957E-16 -2.62952493E-17  1.28175975E-16
 -4.53506709E-05  7.66857685E-02 -1.01414924E-16 -4.03742659E-16 -3.26221299E-16
 -4.89292434E-16 -2.88679986E-16  1.73522781E-02  6.54930177E-02  3.33307105E-16
 -1.62682627E-04  1.52951981E-01  1.18281207E-01  1.05390953E-15 -4.00641816E-04
  3.74526214E-01  1.21475832E-01  1.19989242E-15 -3.61258306E-04  2.52786025E-01
  1.08598190E-01  1.11363039E-01  3.04748512E-02  7.00763895E-19 -2.86485564E-16
  1.63949088E-04 -2.12933433E-02 -5.33495544E-02  8.26042750E-16  1.05630764E-03
 -2.95096105E-01  8.03676046E-03  1.16581330E-15  4.22290906E-05 -2.34515408E-01
 -5.58611084E-02  2.95203254E-03 -5.79250714E-02  8.10668140E-18  2.60397705E-16
 -7.95644404E-04  1.37654589E-01  1.07472690E-01  1.37129463E-01  1.08314914E-01
  2.72082249E-05  7.31112337E-05  5.64230469E-18  2.37482562E-01  5.78079136E-05
  9.90955613E-05  1.47213165E-16  4.43264782E-01  1.26404943E-04  2.45263001E-04
 -5.82275752E-17  3.46299201E-01 -3.86065549E-04  1.37073577E-04  1.92098366E-04
 -1.28824895E-04  1.07089081E-18 -5.87285304E-17 -5.43783605E-02 -3.65662034E-04
 -7.02389776E-04  1.21869127E-16 -1.12500336E-01  3.07319576E-04  6.58749736E-04
  1.23440268E-16 -2.99185180E-02 -8.15065573E-04 -2.33829609E-04 -7.30690716E-04
 -3.87432228E-04  1.56965163E-17  3.99227561E-17  3.23420371E-01 -2.08842084E-01
 -7.82892051E-02  2.09720858E-01  8.22482099E-02 -3.51739699E-16 -2.16754846E-16
 -4.13542386E-01  3.24776196E-15  1.52949054E-16  5.23015925E-17 -4.07218698E-01
  3.35803415E-16  4.08700247E-16 -1.23576351E-16 -1.84594871E-01 -1.41551261E-15
  7.33419942E-17  8.57506286E-17 -2.70434761E-16  1.06559579E-16  1.81433944E-04
 -3.06795934E-01 -9.68352569E-16  3.06583801E-16  3.90909257E-17  4.45814846E-01
  3.51849230E-16  1.89648067E-16 -1.01691205E-16  3.08654936E-01 -4.41208013E-16
 -1.30723036E-16 -9.66103310E-17  3.63523074E-16  3.30489091E-16  1.90430563E-05
 -3.22008777E-02 -1.32051999E-15 -2.85854996E-17 -1.58602466E-16 -7.48396739E-16
  2.16617640E-16  5.42685450E-05  5.17901314E-05  5.67065623E-16  2.90218465E-01
 -1.69404908E-04 -1.51891267E-06  6.43931825E-16  2.18797799E-01 -1.38719014E-04
 -1.47080069E-04  2.46643955E-16  1.11733282E-01  2.52208107E-04 -5.75892084E-05
 -2.34001906E-04  2.99598939E-04  1.70132037E-15 -1.23926194E-16  5.86764318E-01
  2.08854758E-04  3.58321247E-04 -7.65996118E-16 -1.87594132E-01 -4.56769018E-04
 -3.57048861E-04 -5.40252316E-16 -1.14832667E-01  4.05281810E-04 -1.14807448E-04
  6.85677337E-04  1.24725985E-04  2.19626836E-16  5.66972634E-16 -5.03822196E-01
  8.89717212E-02 -1.88479122E-02 -8.85965389E-02  1.70348415E-02  6.26166471E-01
  5.49173291E-01 -5.01181136E-17 -2.29867404E-04 -1.94793232E-01 -8.00949931E-03
 -3.39030187E-16 -1.76413217E-04 -1.41624404E-01 -2.67060691E-02 -2.34415996E-16
 -1.75574540E-05 -8.96625323E-02 -1.10177517E-02 -7.29581382E-03 -1.22307690E-01
  2.53761081E-18 -3.47471391E-16  1.02218498E-04 -5.63269332E-02 -8.84374174E-02
  3.81751780E-16  1.29778672E-03 -8.57791612E-02 -2.54271286E-03  2.05784820E-16
  3.25769456E-04 -2.87593627E-02 -8.90013131E-02 -3.54571335E-02 -4.88162494E-02
  1.42980015E-17 -5.52641037E-18 -7.59296058E-04  5.25430721E-02  3.88927113E-02
  5.29836461E-02  3.93949247E-02 -1.73922421E-16 -1.23472641E-16  5.01553310E-02
 -5.43542087E-16 -1.82005672E-16 -6.02880860E-17  3.95727737E-02 -3.94392401E-17
 -1.55596109E-16  9.23937643E-17 -6.09195313E-02 -1.05908373E-16  1.22579263E-17
  1.88660063E-16 -1.45558060E-17  1.04124638E-17  3.34847278E-04 -5.66210386E-01
 -4.81023780E-16 -2.12928114E-17 -1.18153643E-16 -1.78178187E-01  3.74461251E-16
 -7.92730060E-17 -2.03793404E-17 -1.50163520E-01  9.30847740E-17 -1.92204660E-17
 -4.27135327E-18 -5.75247298E-18 -4.56057289E-17 -4.09865262E-04  6.93062130E-01
  4.02403417E-16  2.42205004E-18 -1.22409341E-16  1.94983873E-16  1.08008392E-16
  2.89236540E-01  1.55935489E-01  3.02499852E-16  6.17741366E-04  5.44729213E-01
 -8.92338311E-02  2.59326874E-17  3.27896439E-04  2.65418622E-01 -2.70330491E-02
  8.67419064E-17 -6.43469544E-05  8.90681125E-02 -1.68212850E-01 -1.82404888E-01
  1.03976327E-01 -1.82979508E-17 -2.98973466E-17 -4.34426900E-04  2.50984480E-01
  2.35982374E-01 -2.82585885E-16 -4.01224960E-03  1.66423937E-01  7.13814618E-03
 -1.12467652E-16 -8.33188639E-04  8.23375357E-02  2.74111873E-01  8.99867591E-02
  5.24251610E-02 -7.00859987E-17  3.10958953E-16  2.48516589E-03 -1.52271537E-01
 -1.13744263E-01 -1.54110815E-01 -1.15538797E-01  1.20404194E-17 -6.26545019E-18
 -1.66578686E-15 -1.13182456E-16 -1.52087191E-17 -1.18463076E-17  3.42303807E-16
 -5.67919633E-16  1.92328679E-17  7.47671115E-17  8.70499930E-16 -3.67229647E-16
  4.81809918E-18  4.55516844E-17 -1.25235351E-16  1.09906969E-17  6.95284320E-01
  4.11179427E-04 -1.08255548E-15  3.83329973E-17 -3.76413765E-17 -6.26057298E-16
  2.04270446E-16 -4.56777466E-17 -9.50789666E-17 -1.92991371E-16  3.47302204E-16
  3.06843629E-17  1.09405223E-16  7.33169581E-17 -4.25570862E-18  6.95284320E-01
  4.11179427E-04  1.01305201E-15 -2.16119346E-16  1.63497129E-16  8.03177317E-17
 -9.73697989E-17 -4.57450937E-02  2.93640405E-03 -2.10450287E-17  6.99486756E-04
 -2.87803061E-01  2.64120167E-02  1.34799149E-16  3.12128898E-05 -1.41874515E-02
  2.59587139E-02  1.81411886E-16 -2.61988978E-04  4.26503573E-02  7.32051299E-02
  6.58810675E-02 -9.21371857E-02  1.94579330E-16  2.34205898E-16 -2.76140987E-04
  9.30279618E-01  2.31724958E-02 -1.21062715E-16 -1.42612523E-03 -1.54774052E-01
  1.22201837E-02 -1.69197397E-18 -2.13110266E-04 -2.90550268E-02 -3.24102397E-02
 -1.14455118E-01 -7.18952089E-02 -2.44561939E-16  7.78035499E-17  1.16272236E-03
 -4.86026343E-02 -1.47455518E-02 -4.97198414E-02 -1.55494444E-02 -3.71809982E-18
 -3.17291087E-17 -4.20551904E-15 -6.59632264E-14  9.51945549E-17 -2.31852142E-16
  7.31380407E-16  2.20391471E-15 -3.56928126E-16  3.40937400E-16  2.15748780E-15
  2.96165473E-14  2.52748100E-16 -3.60243522E-16  2.42038583E-16  2.63651414E-17
  7.19553325E-01  4.25531708E-04  3.28030856E-14 -3.18061439E-16 -2.45455717E-17
 -1.28059314E-15 -7.46575055E-15 -3.15579980E-16 -2.79627360E-17 -1.91770857E-16
  4.92214464E-15  2.43886685E-16  7.40845083E-16 -3.26927392E-16 -2.96496752E-16
 -7.19553325E-01 -4.25531708E-04  9.33633622E-15 -6.23103293E-15  1.23473584E-15
  6.81270886E-15 -1.44876688E-15  2.14443884E-04  8.57164187E-06 -5.45646630E-16
  8.32268748E-01 -1.64931872E-03  6.08107626E-06  2.40484050E-15 -3.80604249E-02
  4.41312625E-05 -2.45764156E-04  1.98399030E-15 -3.74163272E-01  1.37284854E-03
 -5.85688629E-04 -5.94054119E-04  1.29725680E-03  5.71714388E-14  1.45413849E-15
 -4.23920585E-01 -8.77880220E-04  8.55160664E-04 -3.61954085E-15  8.95469586E-02
 -3.93766652E-04 -7.50552434E-04 -1.85907908E-15 -5.66547717E-02  1.22563016E-04
 -5.66981836E-04  7.63158076E-04  1.90059008E-03 -5.80180750E-14  9.16061457E-17
 -1.04084187E-01  8.29211993E-02 -1.57774310E-02 -8.21894594E-02  1.34485333E-02
 -3.93788887E-16 -1.04705943E-16  8.17957647E-01  2.22498131E-15  8.15768634E-16
  2.50190047E-16 -9.54668500E-02  1.27986646E-17 -2.41701655E-16 -1.49224399E-16
 -3.83504163E-01 -1.13341014E-15 -5.32926031E-16  7.40561188E-16  7.85118080E-17
 -5.86378723E-16  1.93009677E-04 -3.26369933E-01 -1.26942295E-15  3.15264911E-16
 -2.51300222E-16  2.46283912E-01 -4.52532333E-17 -2.84612285E-16  2.67922362E-16
  3.08351685E-02  4.82320228E-17  2.29372291E-16 -1.11833652E-16 -4.59108686E-16
 -2.68940257E-16  1.68005376E-04 -2.84088882E-01 -3.31792771E-16  1.82342757E-16
 -3.61062133E-17 -4.55885924E-16  2.35475005E-16 -8.37086362E-02  2.02358498E-02
 -1.08778223E-15  2.83295649E-03  5.45458727E-01  1.06005075E-03 -2.93409882E-17
 -6.73569770E-04 -1.18105766E-01  8.26726558E-03  4.40191913E-16 -1.60632083E-03
 -3.92437305E-01  1.76278567E-01  2.15066461E-01 -4.16151046E-01  2.64600452E-16
  3.43218041E-16  3.34150400E-04  1.27398577E-01 -2.11841516E-01 -1.99631073E-16
  6.39701823E-03  1.08214748E-01  5.37588605E-02 -6.48920806E-18  4.74116290E-04
  1.52811265E-01 -1.51342176E-01  1.32830789E-01 -4.63135933E-01 -1.89480429E-16
  3.50587034E-16 -2.57948514E-03  1.04161762E-01  1.03679220E-01  1.07085059E-01
  1.06118636E-01 -5.05054056E-02  2.30881742E-02 -5.20386769E-16  2.09851983E-03
 -1.45629006E-01  5.81541309E-03  5.77001815E-17 -9.56998120E-04  5.08194775E-02
  6.51981358E-02  3.13148464E-17 -9.35360461E-04 -6.01335413E-02  2.49746178E-01
  1.23776897E-01 -4.01819747E-01 -4.69926199E-16 -1.39902545E-16  7.83867646E-05
 -2.19145991E-01  1.54723049E-01 -1.25810968E-16 -1.01162030E-02 -3.77229204E-01
  5.39897604E-02 -1.93698603E-17  4.61505601E-04  4.78471527E-02  6.97997160E-01
 -1.25217230E-01 -2.28032112E-01  2.83090492E-16 -2.00377233E-16  4.98222410E-03
 -2.56450957E-01 -8.39556034E-02 -2.62926219E-01 -9.10373781E-02  1.25783089E-01
 -1.36108922E-01  4.12741146E-16  3.22406443E-04 -4.28405572E-01 -7.68613181E-02
  3.30059012E-16 -4.99832137E-05  2.70959857E-01  1.17924702E-01  1.09184899E-16
 -8.41078733E-04  2.46971430E-01 -1.18650707E-01  1.90801902E-02 -8.63222144E-02
 -1.00712677E-16 -1.48427770E-15  3.75178535E-03 -2.29251487E-02  1.23009360E-01
 -5.49993333E-16  5.82110008E-03  2.86324016E-01 -2.45034370E-02 -6.63541548E-17
 -1.21541604E-03  1.81133634E-01  6.14019163E-02  6.93740544E-01 -4.98288784E-01
  4.93834875E-17 -1.49437244E-15  3.54802875E-03  1.38634731E-01 -7.62174647E-02
  1.40358630E-01 -7.27543323E-02  2.27367020E-04 -1.02517995E-04 -1.58495470E-16
  2.60185661E-01  8.37660655E-04  2.65169859E-04 -1.85133392E-16 -1.84150754E-01
 -6.10649896E-04 -2.66071238E-04  1.35176776E-16 -2.60066599E-01 -4.01997044E-04
  8.66333458E-05 -1.29138727E-03  2.11283588E-03 -2.59689785E-16 -9.98687266E-16
  7.06838688E-01 -5.43333420E-05 -3.37157262E-04 -3.41587959E-16  5.74298208E-01
 -3.31411395E-04  5.02098990E-04  1.38748622E-16  3.44544014E-02 -1.76976504E-03
  3.48606783E-03 -7.42604197E-03  3.24024992E-03 -1.12035649E-17 -7.47764769E-16
  5.95010741E-01 -5.40772156E-02  3.88839083E-03  5.09810792E-02 -1.81517166E-03
  2.30603862E-17 -1.60672294E-16  2.34854358E-01  1.83086824E-15 -8.19364626E-16
 -5.99356096E-17 -1.66201887E-01 -3.83500279E-16  3.31822700E-16  2.75211563E-16
 -2.49933244E-01 -8.99954930E-16  5.98984473E-16 -1.20212079E-15  9.10529144E-16
 -3.10277086E-16 -4.21554109E-04  7.12827400E-01  6.34822259E-17 -2.22720220E-16
  1.20475420E-16  4.97137654E-01  6.43855022E-16  2.71622389E-16  2.44933084E-16
  7.57584028E-03  1.17573076E-16  5.49801810E-16  6.98266790E-16  8.88640428E-16
 -1.00503664E-15 -4.03520104E-04  6.82332779E-01  3.14867773E-16  6.72678826E-16
 -6.17601235E-16  2.64474069E-16 -1.02507052E-16 -7.51613751E-01  8.69489337E-01
 -1.23934067E-20  6.33836219E-05 -4.06442935E-02 -9.94606459E-04 -6.91335964E-17
 -6.35277116E-06  3.10805460E-02 -5.91967662E-02  1.42135687E-16 -2.27203939E-04
  2.37520120E-02 -2.00257425E-01 -1.16582275E-01  2.92896502E-04 -1.72309665E-17
 -1.53935147E-16  1.04894385E-03 -1.02908904E-02  7.03153261E-02 -1.85082199E-16
 -5.47613335E-04 -1.07609156E-02 -3.37602695E-02  5.08174397E-17 -4.31734663E-04
  3.11003315E-02  2.48619760E-03  1.73263822E-01 -3.52630034E-02  1.92416695E-17
 -1.56473988E-16  2.42024388E-03  2.40668408E-02 -6.59698523E-02  2.28782264E-02
 -6.60364625E-02  3.84566611E-02 -4.65492758E-02 -3.39892254E-17  1.42290461E-03
  5.17048217E-02  1.13926030E-02 -1.22944599E-16 -1.47871134E-03 -5.38730439E-02
 -2.54107802E-02  3.08282851E-16 -9.19635418E-04 -1.37910536E-02 -7.78366175E-01
  8.91109787E-01 -6.16680825E-02 -4.31217499E-16 -8.42085181E-16  2.15328417E-03
 -1.66084421E-02  7.47248876E-02 -4.23599541E-16 -8.01765783E-03 -1.93481824E-01
 -2.81790343E-02  1.26201228E-16  1.12032865E-03  2.99352094E-02 -3.39572245E-02
  4.61760431E-02  1.33821194E-01  3.95358588E-16 -6.69072304E-16  6.23725177E-03
 -5.78758509E-02 -7.49383451E-02 -6.34559212E-02 -8.04680966E-02 -5.19343529E-02
  6.74546904E-02 -4.36092518E-18 -2.64399824E-03 -1.54229212E-01 -2.58292148E-02
 -9.02799744E-17  2.97963026E-03  1.82359306E-01  1.09913218E-01  1.26005942E-16
  2.05192541E-03 -1.87029456E-02 -3.54826563E-01  5.09584144E-02  1.94382406E-01
 -7.95782922E-17 -3.39920113E-16 -6.02651657E-03  9.44407288E-03 -2.80188087E-01
 -1.17821588E-16  2.03497876E-02  5.55298879E-01  1.63989872E-01  9.91322465E-18
 -1.22790365E-03 -2.16197717E-01  3.70210071E-01 -5.29047415E-01 -3.96424504E-01
  7.94850229E-17 -2.43896841E-16 -1.96540304E-02 -5.66943203E-02  3.77895593E-01
 -4.08557409E-02  3.90331254E-01  4.50287312E-04 -6.41582721E-04  4.34001462E-16
 -2.21590864E-01  4.14632775E-03  4.10891256E-04 -2.87237972E-16  3.33710756E-01
 -6.32669122E-03 -4.58277688E-03  3.06218596E-16  5.12959273E-02  4.12583918E-03
  2.13479455E-03  7.64051851E-03 -7.72387897E-03  1.34907838E-15  4.37218997E-16
 -1.78527778E-01  9.93559175E-04  1.40381494E-02 -5.10852521E-16  9.36256928E-01
 -1.95688164E-02 -8.38241209E-03 -2.40590649E-16 -3.49547467E-01  1.18886993E-02
  1.16759910E-02  1.40592746E-03  1.45193541E-02 -3.21994167E-16 -2.58587008E-16
 -4.70234891E-01 -1.36807114E-01 -4.16477238E-01  1.50404953E-01  3.83063793E-01
  1.24223296E-16 -3.92717771E-16  3.84815137E-01 -2.36306046E-16 -2.98791865E-16
  1.03224812E-16 -8.72160877E-01  9.67793061E-16 -1.45222737E-16  2.26817846E-16
  3.44026672E-01 -7.23007344E-16 -5.35288052E-16 -2.20927704E-16 -4.76186367E-16
  9.21492373E-16 -9.47017532E-05  1.60136037E-01 -3.24822997E-17 -1.58419173E-16
  1.69086586E-16 -7.79266693E-01 -7.66566445E-16 -8.75245063E-16 -7.25608914E-17
  8.73323783E-01 -6.28631915E-17  5.04725688E-16  3.34034927E-16 -4.17270740E-16
 -9.71079937E-16 -1.01656699E-04  1.71896512E-01  3.72231220E-16  1.20743993E-15
 -4.17618240E-16 -5.94174426E-17 -2.52844594E-16  4.92528637E-02 -1.09657679E-01
 -4.31366712E-16 -2.13309857E-02 -9.88662326E-02  1.65132078E-01  6.99900816E-16
  5.51849689E-02  3.08065895E-01 -2.87808050E-01 -4.41510922E-16 -3.99011995E-02
 -8.30803630E-01 -2.37082023E-01 -2.49682276E-01  9.12970854E-01  8.44346284E-17
 -1.45926457E-16 -8.25502217E-04  4.96090912E-03 -2.36418059E-01  6.53649585E-16
 -5.45323780E-03 -7.21213227E-01  5.18543404E-02 -9.04699240E-16 -2.22999705E-02
  2.48953893E-01 -2.58666587E-02  1.85260957E-01 -5.18207989E-01 -1.72031448E-16
 -1.05764705E-16  2.40192406E-02 -9.47227691E-02 -3.54100983E-02 -1.70351273E-01
 -1.75121260E-02 -5.65946218E-03  9.72607568E-03 -7.81911559E-16 -3.72586812E-01
 -6.86334342E-03 -2.43749185E-02  1.89380839E-15  9.83640485E-01  1.34241394E-02
  6.28706806E-02 -2.23127770E-15 -7.64107948E-01  3.87884682E-02  1.31382434E-02
  5.04535756E-04 -8.30365963E-02  2.31995609E-16  2.85360125E-16  1.07040895E-02
 -1.47511255E-02  1.02876876E-02  3.07298631E-16 -1.84454796E-01  5.09494424E-02
  3.65345332E-02  6.53920358E-16 -3.26178528E-01 -5.11940957E-02 -9.52758417E-02
  4.47802307E-02  3.85558609E-02 -2.19411825E-16 -3.91547341E-17  4.32651458E-01
  5.28675665E-01 -4.05074867E-02 -7.59822177E-01  1.67124543E-01  2.31748183E-02
 -1.75955255E-02 -1.12234669E-15 -5.34134588E-02  8.02231924E-02  1.45110167E-01
 -1.44435262E-16  1.46034143E-01 -2.12747776E-01 -4.13457275E-01  4.53156623E-16
 -1.25653655E-01  3.75396237E-02  4.44255626E-02  1.34058970E-01  2.54550990E-01
 -1.02927881E-15 -6.07528629E-16  5.35326558E-03  1.02630596E-01 -1.79959176E-02
  1.82530419E-15 -4.84344736E-02  4.49489635E-02 -2.94604780E-01 -1.06940687E-15
 -3.05178467E-02  1.68163387E-01  6.97591728E-01 -4.13901436E-01 -1.06862377E-01
  9.57935171E-16 -8.51485504E-16  6.75644990E-02  9.67147780E-01 -4.07334358E-01
  7.98926191E-01 -4.08874361E-01 -2.40846062E-02 -1.00863000E-01 -4.41355063E-16
 -4.89606310E-03  1.81817014E-01 -3.76353944E-01 -6.40282952E-16  1.41575546E-02
 -4.44191420E-01  1.03399518E+00  1.24055396E-15 -1.46033904E-02  4.15248065E-01
 -5.54232621E-01 -5.41683850E-01 -6.04562298E-02 -1.08734482E-15 -1.10174288E-15
  9.72083270E-04  9.35667838E-04 -2.54995396E-01  1.44711246E-15 -7.35079440E-03
 -5.73696586E-01  2.30177734E-01 -1.43210061E-15  6.25305594E-04  7.35790767E-01
  2.23651606E-02 -2.45095360E-01 -1.28982079E-01  8.05884276E-16 -7.42362885E-16
  6.17927801E-03  1.98164497E-01  5.51459643E-02  1.86954145E-01  4.95618708E-02
  4.66123783E-17  1.83951520E-17  2.89489547E-01 -2.83088708E-17 -3.30018282E-16
  3.11734532E-16 -9.24518736E-01  5.13892465E-16  3.27222002E-16 -7.50510130E-16
  1.31494520E+00  5.69051307E-16 -4.54730217E-16  1.10596345E-15  3.85753286E-16
  1.49382913E-16  9.80778895E-05 -1.65844919E-01 -3.78762751E-16 -3.70923456E-16
  2.01728141E-15  5.59819795E-01 -9.43389181E-16  6.73527174E-16 -1.31778828E-16
 -1.02583150E+00 -1.76298194E-15 -1.64751344E-15 -1.27781455E-15  1.42201502E-16
 -6.22427282E-16  3.92733256E-05 -6.64092746E-02  1.70596778E-15  1.58948115E-15
 -8.09434143E-16 -4.08497227E-15  1.41241050E-15  6.51630593E-04 -6.83538393E-04
 -1.11271669E-15  2.21547603E-01  9.13460453E-03  5.59550495E-03  1.80718616E-15
 -7.33018339E-01 -3.05102376E-02 -5.88686671E-03 -2.65692371E-15  1.04838165E+00
  1.95913760E-02 -5.48790754E-04  6.05190146E-04  1.28889145E-02  7.87722951E-17
  3.00002400E-16 -8.14371244E-02  2.74724747E-03 -8.38441191E-03 -1.52588508E-15
 -1.84415466E-02  3.89066309E-03 -7.43638167E-03  2.21461839E-15 -6.54834932E-01
 -5.46746587E-03  1.94308429E-02 -6.27887620E-03 -1.51456661E-02  3.96960730E-16
  1.13376663E-16  4.41018372E-01  8.56548571E-01 -5.78223420E-01 -8.27294144E-01
  5.79248328E-01 -2.85779220E-02  5.20083534E-03  2.20275840E-16  3.04103418E-03
 -3.81588776E-01 -3.14177053E-01 -4.57920001E-16 -1.04478956E-02  1.36690036E+00
  2.74526306E-01  5.42112266E-16  1.55472581E-02 -8.51032924E-01 -5.75701748E-02
 -4.05705036E-02 -6.08247632E-01  5.33712071E-16  2.30798447E-16 -5.31086616E-04
 -5.28035677E-02  6.47965658E-02  5.34354898E-17 -6.17269534E-03  2.06646017E-01
  8.63142217E-02 -3.35819343E-16 -1.22392548E-02  7.07172250E-01 -2.64444676E-01
 -5.31708742E-01  6.90010350E-01 -2.14305899E-16  1.51673561E-16  1.20124788E-02
  3.06513819E-01 -1.43657022E-01  2.68285245E-01 -1.24342425E-01  1.05700513E-03
  2.15644136E-03 -2.51284196E-16  1.81934979E-02  2.76682375E-03  8.24816726E-03
  2.91490797E-16 -8.98443928E-02 -4.45088440E-03 -2.74113691E-01 -2.80916296E-16
 -6.13634160E-01  1.59605334E-01  2.77843801E-02  1.97126086E-02  1.44649796E-02
 -6.96195917E-16  1.07413041E-15  2.55895856E-01 -4.62347347E-02  5.44728905E-01
 -4.07491180E-16 -6.46722040E-01 -8.73775391E-02 -3.24263012E-01  6.86572095E-16
  2.93654129E+00  4.10753091E-01 -1.58320159E-01 -2.17712646E-01 -1.70719971E-01
  4.21028911E-16  2.11698525E-16 -1.23341973E-01  5.28134349E-02 -1.79762976E+00
 -6.50108978E-02  2.45163135E+00  7.07577929E-03 -1.12351890E-02  2.15203583E-16
 -4.23128514E-03  2.58908035E-02  8.84142618E-02  1.84388391E-15  2.09997217E-02
 -8.19545530E-02 -8.95160762E-01 -2.54132537E-15  1.37021859E-01  5.29422671E-01
  4.47519958E-02  2.13369820E-02  9.85577356E-02  5.67288401E-16 -7.47684656E-16
 -5.73717932E-02 -3.12185091E-01  2.99539877E+00  1.30948399E-16  1.41650021E-01
 -2.94349078E-01 -9.99894758E-01  1.22602744E-15 -6.68817204E-01  1.33437008E+00
 -1.08594268E+00 -1.31961217E+00 -1.19788717E+00 -2.49470125E-16  4.01558759E-16
  3.08001760E-02  3.68757689E-02  1.55658833E+00  5.55791926E-02  5.78382064E-01
 -1.08216102E-02  8.91715895E-02  5.16941470E-16 -1.45432504E-03 -5.13233214E-02
 -2.64936668E-01 -3.02549793E-15  7.27159133E-03  2.61922308E-01 -1.60671431E+00
  3.10400247E-15  3.93339578E-02  9.64734000E-01  3.38348403E-01  2.95877637E-01
 -1.16663366E-01  6.15875959E-16  4.03022824E-16 -1.70005526E-02  3.22267056E-01
 -1.92149198E+00  3.39196397E-16  4.38658213E-02 -3.32340138E-01 -1.45195611E+00
 -1.24837588E-15 -2.09568477E-01  2.18442359E+00  1.16444452E+00  1.02867597E+00
  1.40214697E+00 -3.64226725E-16  1.06255411E-15  6.89902930E-03 -2.19055843E-01
  1.79666841E+00 -2.06696192E-01  1.47216289E+00 -3.58100033E-02  2.22431414E-01
 -1.55394212E-15  3.04057703E-04 -3.55738661E-02 -1.23776210E+00 -9.36827475E-16
 -1.68289226E-03  3.21125150E-01 -3.03600051E+00  1.88018189E-15 -6.17023343E-03
  2.08742769E+00  7.84624849E-01  7.96003864E-01  3.12880119E-01 -2.18498665E-16
 -1.24194638E-15  2.65155567E-03 -2.81721750E-01 -5.29989957E-01 -8.28976702E-16
 -4.81415889E-03 -1.53447066E-01  5.64005399E+00  3.34294332E-16  3.10792960E-02
  1.64092514E+00 -8.57978851E-01 -7.20520273E-01 -4.24707429E-01  4.02500398E-16
 -3.96492103E-16 -1.77697048E-03 -4.93660377E-02 -5.89901672E-01 -5.29463577E-02
 -5.32163966E-01  1.82580379E-01 -7.82002584E-01 -9.00514060E-16  4.39484825E-05
 -3.17851565E-02  6.51883247E+00 -8.21795346E-16 -2.44736768E-04  1.86110514E-01
 -1.36507287E+00  2.03891088E-15 -7.55108515E-04  5.38907151E-01 -2.52020634E+00
 -2.52073845E+00 -2.77503657E+00  1.99001623E-15  6.50088779E-16  3.70806931E-04
 -4.67546078E-02 -3.80775050E-01 -8.56238612E-16 -3.01930357E-04  3.73792683E-02
  1.17476510E+00 -7.40164852E-16  2.37920418E-03  5.39223998E-01 -1.02568616E-01
 -8.84228221E-02  2.30723508E-01 -7.59954348E-16  6.93334613E-16 -5.26241436E-04
 -2.01109463E-02  1.83636862E-03 -2.01010481E-02  6.27907659E-03
Total SCF Density                          R   N=         741
  2.15379613E+00 -6.00569409E-01  2.35623379E+00 -5.04449872E-17  1.79627021E-16
  2.04682277E+00  5.31508607E-06 -1.11773997E-05  1.20242301E-15  2.10903270E+00
 -6.09840380E-03  2.90963407E-02 -8.86577749E-16 -1.93893287E-05  2.05868708E+00
  3.01646834E-02 -3.98652138E-01 -7.02488054E-15  1.02210446E-04 -6.17170556E-02
  1.17590242E+00 -2.11307673E-16  2.57993664E-16 -1.53530850E-01  3.93555757E-16
  9.01674795E-16 -8.77323712E-17  5.49815446E-01 -1.64205427E-05  3.99467994E-05
  4.59066174E-16 -3.21029833E-01  3.99005343E-05 -2.94721931E-04 -7.76825763E-16
  9.99106976E-01  1.73032102E-02 -8.20750701E-02 -1.60672031E-16  4.67739962E-05
 -1.73826200E-01  1.73962598E-01 -3.40420371E-16 -9.84720439E-05  5.88966056E-01
  6.70659603E-02 -2.74744989E-01  1.45705636E-14 -2.63577041E-04 -1.26988321E-01
  5.11828540E-01 -1.59203953E-15  6.94634838E-04  3.02522232E-01  3.18867277E-01
  3.45530205E-16 -1.20356340E-16 -1.17937929E-01  7.01241292E-16 -3.44292099E-16
  1.61762255E-16  2.59714452E-01  9.69293326E-17 -1.99604424E-16 -1.04836498E-15
  1.23709664E-01 -1.65691342E-05  5.11429713E-05 -6.39086263E-16 -2.38392105E-01
 -4.35910084E-05 -2.46624444E-04 -6.87606338E-16  5.88550159E-01  1.14128161E-04
  5.05942537E-04 -1.25167519E-16  3.53579681E-01  8.00881294E-03 -3.87674157E-02
 -8.95970157E-15  1.78068082E-04 -6.09698304E-02  8.54971685E-02  1.14795044E-15
 -4.59005633E-04  1.20151636E-01  8.08688930E-02  7.46603096E-16 -2.43771713E-04
  2.83244741E-02  2.61037409E-02 -3.25621042E-02 -1.63425405E-17  1.96669822E-05
 -1.20223505E-02 -9.49649882E-03  1.45983005E-16 -4.94327875E-05  3.11956724E-02
  1.07247094E-02  7.22195862E-17 -2.40701173E-05  5.43265701E-03  2.68245292E-03
  2.44193077E-02 -2.45483293E-02  3.13592564E-15 -9.73433425E-06 -1.08917840E-02
 -2.89128825E-02  9.55758225E-17  2.85291013E-05  2.79640602E-02  2.05071655E-03
 -2.34884615E-17  2.07802179E-05  3.98829919E-03  2.78236422E-03  3.20562038E-03
  2.59677619E-02 -3.14361573E-02  2.60382762E-15  5.92957800E-06  2.23566859E-02
 -1.06145008E-02 -6.35477533E-17 -1.43384543E-05 -6.88710251E-02 -3.01565857E-02
 -7.41118812E-17 -2.18157209E-05 -1.27577570E-02 -3.22643699E-03 -3.01470551E-03
  9.42204055E-03  4.91450534E-17 -2.19118338E-16 -1.63809074E-05  2.94212813E-16
 -1.55374798E-15  4.99551569E-17  4.33267893E-05 -3.75494553E-16 -2.08494344E-16
 -2.91910208E-17  2.05631770E-05 -2.12864515E-16 -1.96637695E-17 -6.65490560E-18
 -7.61891067E-18  2.52701373E-17  3.42340697E-09  6.12282557E-17 -1.02306681E-16
  1.98948102E-02  1.09973482E-15 -6.35892441E-16 -2.87991555E-16 -5.34697530E-02
  4.21435808E-16  2.11495626E-16  1.72039685E-16 -2.53698206E-02  2.23509581E-16
 -1.09372140E-16  5.20915279E-18  2.21311915E-17 -1.22887351E-17 -4.22415356E-06
  5.21224877E-03 -3.43265823E-06  1.58748043E-05 -1.15747369E-15  5.60998540E-03
 -2.06341235E-05 -3.59573943E-05  1.28469514E-16 -1.74107303E-02  6.21597580E-05
  3.04291794E-05  3.13463595E-17 -6.89903019E-03  7.78078816E-06  3.06234871E-06
  7.25960595E-07 -7.85919706E-06  1.40578782E-17 -2.96107757E-17  2.29242581E-03
 -2.15968575E-03  9.95458396E-03  3.31745210E-16 -1.38306066E-04 -4.04225265E-02
 -1.29342188E-02  5.40199570E-16  3.79783108E-04  9.63141345E-02  4.20180674E-02
  1.42068954E-17  1.81612608E-04  4.66401541E-03  7.28169446E-03  7.00976969E-03
 -1.81843023E-02 -7.32400768E-17 -4.59434114E-16  1.74981169E-05  2.05423132E+00
  3.76472429E-03 -1.46423870E-02  7.61187155E-15  3.68373385E-04  8.51029050E-02
  1.12762327E-02  5.56320951E-16 -9.83275267E-04 -2.01933025E-01 -8.05785517E-02
  1.44562864E-16 -5.27368104E-04 -2.02685196E-02 -1.50324094E-02 -1.45273759E-02
  3.58825391E-02  1.07651278E-17 -2.28982227E-16 -5.97395267E-05 -7.08513614E-02
  3.45107190E-01  3.35864173E-16  1.80736099E-16 -1.48664004E-01 -8.08185054E-16
  3.61003103E-16 -9.19299923E-17  3.80937793E-01  1.23040462E-15 -3.80945235E-16
 -1.51244639E-15  1.80900713E-01  6.02430951E-16  9.33555215E-16  1.02354877E-16
  3.79635850E-18 -8.46440225E-17  3.01091933E-05 -3.71510955E-02  8.45566552E-17
  1.10540869E-16  6.99974010E-17  2.64823963E-01 -6.48721816E-06  3.00569909E-05
  5.83077594E-16 -1.04397135E-02 -3.60737311E-04 -5.56897154E-05 -9.51140387E-16
  1.57120085E-02  8.84373830E-04 -1.76028787E-04  2.45614392E-16 -4.08129581E-02
  3.88259616E-04  6.38929511E-05  9.21509995E-05 -5.25583253E-05 -1.19454789E-16
  2.20507678E-16 -3.00132592E-02 -6.01612875E-04  1.59034314E-03 -6.79280699E-16
  4.44930570E-01  1.49707440E-02 -6.42262671E-02  1.15118729E-15 -4.51089434E-04
  1.65680215E-01  1.32759426E-01 -2.92953210E-16  1.15414399E-03 -4.02323948E-01
 -1.08826671E-01 -1.66143650E-16  4.48680463E-04 -8.21854367E-02 -2.28781871E-02
 -2.51725046E-02  4.33189869E-02  1.57599841E-16 -1.26247304E-16 -5.33960610E-05
  3.33672017E-03 -2.30397160E-03 -5.26963029E-17 -1.65823610E-03  4.25779221E-01
 -7.00331452E-03  3.23989511E-02 -2.16368709E-14 -1.32512140E-04  1.08475905E-01
 -8.22541004E-02 -1.78361031E-15  1.27931984E-04 -2.41119736E-01 -1.32314797E-01
 -2.88374738E-16  4.66621071E-04 -3.35065335E-02 -1.56948567E-02 -1.36635177E-02
  3.84942808E-02  1.48168012E-17 -2.97026536E-17  1.33272696E-04 -1.83334989E-01
  3.22915637E-01 -8.65297229E-16 -1.70401846E-03  2.05543239E-02  3.19200911E-01
 -4.32174360E-16 -1.14291361E-16 -1.06535506E-01 -1.02571546E-15 -4.93913554E-16
  1.14568653E-16  2.78850163E-01  9.20603524E-17  7.57949004E-16 -6.02087583E-16
  1.32369226E-01 -2.91271440E-17  8.97128049E-16  1.26580222E-16  5.47634366E-17
 -1.79126323E-16  2.20353326E-05 -2.71892952E-02  6.87771015E-17 -1.99419313E-16
 -1.69183965E-16  1.93805428E-01 -4.15077655E-16 -8.78845028E-16 -9.43017021E-16
  1.41834722E-01  4.84448200E-05 -2.00556541E-04 -1.97769117E-15 -3.33533018E-02
  9.16037623E-05  4.43762291E-04  4.33483986E-17  7.47553675E-02 -2.84411018E-04
 -7.27130243E-05  3.77976809E-16  2.39942496E-02 -6.52322286E-05 -3.93033739E-06
  2.30343236E-06  3.43222816E-06 -7.40385115E-17  6.15062258E-17 -1.33111887E-02
  2.60773478E-04 -4.86980956E-04  1.90158283E-16  1.80744159E-01  7.76794562E-04
 -1.62320219E-03  1.15100181E-16  7.81384871E-02 -1.50723885E-04  1.94865306E-03
 -7.07991758E-15  1.72994403E-04  7.76497837E-02 -4.04887003E-03  2.70128794E-15
 -4.18857995E-04 -1.72841003E-01 -7.01913233E-02  1.41289363E-15 -5.28535438E-04
 -3.82617280E-02 -8.95915633E-03 -8.93941054E-03  1.78178331E-02  5.66396371E-17
 -3.28719164E-16 -1.13813070E-04  2.60844141E-03 -7.06025432E-03  2.08474078E-15
  9.26056192E-04  1.70471722E-01  7.62108948E-03  1.16298299E-15  9.06103475E-04
  7.12923139E-02 -3.71298749E-04  1.85150305E-03 -4.76244408E-16 -3.04986971E-06
 -3.27920418E-03 -3.11701869E-03 -3.20783380E-17  2.22944671E-05  6.17495552E-03
  1.43936609E-03 -5.44234919E-18  2.09073214E-05  2.06766621E-04  5.61812888E-04
  5.82788987E-04 -1.33000279E-03  1.31432957E-18  1.42828653E-17  9.83090079E-06
 -1.13578072E-02 -1.63631383E-02 -1.16118967E-18 -1.84144421E-04  2.27082309E-03
 -1.40515451E-02  6.25828414E-18 -1.76993827E-05  1.36697751E-03  9.03363238E-04
 -8.34717254E-04  4.23334661E-03  1.42098288E-15 -3.77087835E-05 -5.43484914E-03
 -9.73365684E-03 -8.52495643E-17  1.08317434E-04  1.30738035E-02  1.33556423E-03
 -6.88226905E-17  6.49157161E-05  2.87290469E-03  7.51985546E-04  9.29981972E-04
 -1.20446414E-03 -6.08670160E-18  2.13053362E-17 -7.43813251E-06 -2.11686759E-02
  4.71039787E-03 -9.41374792E-17  1.86695423E-04 -1.85405518E-02  4.95029059E-03
 -3.24468028E-17  6.36463506E-06 -7.29166982E-03 -1.59806603E-04  1.08240108E-03
  1.74467342E-03 -9.14872022E-03 -5.72653303E-16 -1.62085244E-05  7.57701898E-03
  1.62522310E-02 -5.15411404E-17  4.90048680E-05 -1.07179914E-02  1.85000296E-03
 -9.19144829E-18  4.18197036E-05 -1.39631678E-03 -8.15588703E-04 -1.07922653E-03
  1.46847178E-03  3.21466268E-18 -1.46926662E-18  8.32268535E-06 -2.01504198E-02
  3.15321432E-03 -1.97383862E-17 -1.94177951E-04  1.24040144E-02  3.65102540E-03
 -3.41198674E-17 -4.64151216E-05  4.29593648E-03  1.77439354E-05 -3.50148486E-04
  7.18672233E-04  2.39019445E-16 -8.41330633E-16 -7.84043994E-05 -1.24805850E-15
 -3.57819907E-16 -3.01637152E-16  2.04534120E-04  1.02102157E-16  2.37782561E-16
  2.87361143E-17  9.70975802E-05  9.41095708E-17  3.04985157E-17  3.48628898E-17
  3.87761623E-17 -1.98566841E-17  1.61632798E-08 -1.99437546E-05  7.62807822E-19
  7.23871647E-16 -1.64443161E-16  1.42160081E-04 -3.21421750E-17 -1.81472433E-16
 -1.90676963E-16  1.04038252E-04 -1.45090954E-18 -6.15440347E-17  2.46886998E-18
 -3.96016239E-19 -1.50761133E-17  7.63139129E-08  8.07795607E-17 -4.12531198E-16
 -9.64690083E-03  1.09532583E-15  7.46616063E-18 -1.92876226E-16  2.12709732E-02
 -2.23399238E-16  3.21568231E-18 -1.40369524E-16  1.01317122E-02 -1.63116885E-16
  5.30298234E-17  1.83830459E-17  1.35390551E-17 -6.05237414E-18  1.68412621E-06
 -2.07779277E-03  1.08402062E-17 -1.31166911E-15 -1.61554083E-16  1.48157576E-02
 -4.96450291E-17 -1.33525336E-17 -9.32025910E-17  1.08410458E-02 -1.61500557E-17
  1.27763934E-16  1.80446566E-17  5.97307807E-18  9.07669638E-18  7.95229474E-06
  8.29778359E-04  3.32744714E-06 -1.83073773E-05 -6.20810634E-16 -1.62618475E-02
  4.45798495E-05  4.41688742E-05 -7.31071902E-17  4.04147884E-02 -1.35743849E-04
  2.62764084E-05 -3.84691973E-17  2.65035458E-02 -6.44891532E-05 -8.98268555E-06
 -8.41739874E-06  5.88886096E-06 -9.51776786E-18  1.09430470E-17  8.45321140E-04
  8.42666828E-05 -2.56503491E-04  3.77739949E-17 -2.25269811E-02  3.08277489E-04
 -2.18000171E-05 -9.74547905E-18 -6.31573967E-03  6.23200495E-06  1.76211507E-05
 -1.46971148E-05  1.59174908E-05  8.00769394E-18 -1.07163204E-17  2.84772771E-03
 -2.82642121E-03  1.19393312E-02 -1.15675811E-15  2.87828106E-02 -2.18286388E-02
 -3.21738720E-02  9.48402705E-17 -8.25629546E-02  5.67665049E-02  8.07597141E-03
  4.21428118E-16 -7.48065777E-02  1.94756620E-02  1.90906629E-03  2.72640413E-03
 -1.01067032E-03 -7.30721606E-17  1.45729967E-17 -1.41034235E-02 -6.12479938E-02
  1.22087984E-01 -1.81997216E-16  2.31929462E-01 -1.35394511E-01  1.06886254E-01
  1.71086225E-16  8.71811870E-02 -5.57125531E-02 -6.28424994E-03  7.87576524E-03
 -2.50035319E-03 -4.19413801E-17 -1.67444725E-17 -1.55982410E-02  2.14262183E-01
 -2.23115712E-03  7.80674624E-03  3.39364244E-15  8.13061866E-02 -3.25253103E-02
 -1.50264814E-02  2.50089452E-15 -2.08218024E-01  8.04822610E-02  2.53145504E-02
  1.28814226E-15 -1.43517936E-01  1.90758096E-02  4.05160207E-03  4.37810606E-03
 -7.30602540E-03 -2.47223253E-18 -2.26672481E-16 -8.55441144E-03 -1.17661372E-02
  3.08823875E-02  1.20097768E-15  1.79393400E-01 -1.00020928E-01  2.10359510E-02
  1.26754316E-15  5.77173709E-02 -4.04750163E-02 -2.01615247E-03  4.75226336E-03
 -2.49723217E-03 -2.03591330E-17  1.20188615E-16 -1.80185945E-02  1.54777762E-01
  1.44351868E-01 -2.81162107E-03  1.18733071E-02  7.99173472E-16 -2.91456823E-02
 -2.17803525E-02 -3.20554249E-02 -3.30897918E-17  8.35374788E-02  5.66895430E-02
  8.79059480E-03 -3.35253540E-16  7.56868170E-02  1.91078486E-02  1.89019403E-03
  2.68826330E-03 -1.09174322E-03 -1.77701624E-17 -4.40919589E-17  1.41247559E-02
 -5.99747921E-02  1.19229479E-01  2.98513595E-17 -2.30799016E-01 -1.33654597E-01
  1.07692385E-01  9.96218940E-17 -8.82620639E-02 -5.68340578E-02 -6.04378693E-03
  7.69120124E-03 -2.30479819E-03  1.68127725E-17 -5.26265094E-17  1.53775916E-02
 -4.38461374E-02 -7.11127837E-02  2.12671890E-01 -2.22341090E-03  7.78030692E-03
  2.22972203E-16 -8.19293025E-02 -3.25467366E-02 -1.52002007E-02  1.98794858E-15
  2.10218982E-01  8.05732110E-02  2.60500965E-02  7.32132686E-16  1.45171220E-01
  1.88299610E-02  4.00821693E-03  4.34962460E-03 -7.30371244E-03 -6.93802645E-17
 -1.61781695E-16  8.73210844E-03 -1.18364679E-02  3.04454485E-02  1.69945277E-15
 -1.81441668E-01 -9.97813638E-02  2.36263637E-02  1.22584552E-15 -5.92316640E-02
 -4.21165986E-02 -1.92224472E-03  4.73615683E-03 -2.34257397E-03  6.99879862E-17
  1.60218260E-17  1.81031709E-02 -7.16109609E-02 -9.35591299E-02  1.56712334E-01
  1.47911486E-01
Grdnt Energy                               R     -4.374623345338026E+02
Grdnt NVar                                 I                0
Grdnt IGetFC                               I                4
Quartic Cent Dist                          R   N=          10
  6.01651775E-07  7.25498816E-04  1.62104107E-05 -3.55542908E-08 -1.03555825E-05
  5.92428883E-07  7.25452702E-04  1.62657481E-05  3.55542908E-08 -4.61144626E-09
Sextic Cent Dist                           R   N=          14
  6.98142645E-14  1.68357505E-07  1.15296837E-10 -1.15359459E-09 -5.67455246E-14
 -2.08065731E-08 -6.51188201E-11 -1.18757804E-14  1.68197303E-07  4.71286893E-11
 -9.25142083E-10 -4.91032483E-14  4.08450224E-14 -7.64227630E-15
Mulliken Charges                           R   N=           4
 -2.92059797E-02 -3.56623214E-01  1.94536782E-01  1.91292411E-01
APT Charges                                R   N=           4
 -2.30973391E-01  1.88153987E-01  2.36620252E-02  1.91573793E-02
Optimization MaxStp                        I                2
Optimization MaxJob                        I                1
Optimization Job offset                    I                0
Optimization Num results per geometry      I                8
Optimization Num geometry variables        I               12
Optimization Reference Energy              R     -4.370000000000000E+02
Optimization Number of geometries          I   N=           1
           1
Opt point       1 Results for each geome   R   N=           8
 -4.62334534E-01  0.00000000E+00  1.12599195E-05  4.38326636E-06  1.68843832E-05
  6.63083459E-06  0.00000000E+00  0.00000000E+00
Opt point       1 Geometries               R   N=          12
  0.00000000E+00 -8.56214147E-34  1.11142951E+00  0.00000000E+00  1.49968685E-33
 -1.94670483E+00  0.00000000E+00  1.74458949E+00 -3.05132156E+00 -2.13650593E-16
 -1.74458949E+00 -3.05132156E+00
Opt point       1 Gradient at each geome   R   N=          12
  3.56320550E-16  1.41527313E-16  1.12599195E-05  6.29423274E-16 -1.52940800E-15
 -9.87464522E-06 -1.70016655E-17  1.62824922E-06 -6.92637111E-07 -9.68742159E-16
 -1.62824922E-06 -6.92637111E-07
ONIOM Charges                              I   N=          16
           0           0           0           0           0           0
           0           0           0           0           0           0
           0           0           0           0
ONIOM Multiplicities                       I   N=          16
           1           0           0           0           0           0
           0           0           0           0           0           0
           0           0           0           0
Atom Layers                                I   N=           4
           1           1           1           1
Atom Modifiers                             I   N=           4
           0           0           0           0
Int Atom Modified Types                    I   N=           4
           0           0           0           0
Atom Modified Types                        C   N=           4
                                                
Link Atoms                                 I   N=           4
           0           0           0           0
Atom Modified MM Charges                   R   N=           4
  0.00000000E+00  0.00000000E+00  0.00000000E+00  0.00000000E+00
Link Distances                             R   N=          16
  0.00000000E+00  0.00000000E+00  0.00000000E+00  0.00000000E+00  0.00000000E+00
  0.00000000E+00  0.00000000E+00  0.00000000E+00  0.00000000E+00  0.00000000E+00
  0.00000000E+00  0.00000000E+00  0.00000000E+00  0.00000000E+00  0.00000000E+00
  0.00000000E+00
Cartesian Gradient                         R   N=          12
  3.56320550E-16  1.41527313E-16  1.12599195E-05  6.29423274E-16 -1.52940800E-15
 -9.87464522E-06 -1.70016655E-17  1.62824922E-06 -6.92637111E-07 -9.68742159E-16
 -1.62824922E-06 -6.92637111E-07
Cartesian Force Constants                  R   N=          78
  8.03228694E-03 -2.20847450E-17  2.89697675E-02 -5.54756701E-17  8.99599812E-16
  4.39967572E-01 -3.02370209E-02 -2.70254576E-18  7.97983950E-18  1.13930760E-01
  3.03527111E-17 -4.92964792E-02 -7.61837526E-16 -3.97259943E-16  5.73417076E-01
  4.40357490E-17 -6.28803379E-16 -3.96400210E-01 -2.52249185E-16  6.42552418E-16
  6.40792135E-01  1.11023670E-02 -9.90756801E-19  3.84584457E-17 -4.18468696E-02
  1.88938038E-17 -5.93848413E-17  1.53760906E-02 -2.84768208E-17  1.01633558E-02
 -1.19133959E-03 -3.02589806E-17 -2.62060298E-01  1.15812229E-01  1.91255164E-17
  2.69460729E-01 -4.62010212E-18  1.89506083E-02 -2.17836807E-02 -4.74202516E-18
  1.22717134E-01 -1.22195962E-01  1.71390281E-17 -1.28144316E-01  1.33450672E-01
  1.11023670E-02  3.70690634E-17 -4.84968925E-18 -4.18468696E-02  4.65095335E-16
  3.45933587E-16  1.53684120E-02  1.39741339E-17 -9.00985100E-18  1.53760906E-02
  6.86617367E-17  1.01633558E-02  1.19133959E-03  4.46289724E-16 -2.62060298E-01
 -1.15812229E-01  4.94364224E-18 -1.75637867E-02 -1.35234265E-02 -6.22631876E-16
  2.69460729E-01  4.89002213E-17 -1.89506083E-02 -2.17836807E-02  2.67485519E-16
 -1.22717134E-01 -1.22195962E-01  9.73790117E-18  1.35234265E-02  1.05289714E-02
 -3.89338927E-16  1.28144316E-01  1.33450672E-01
Cartesian 3rd/4th derivatives              R   N=         936
 -5.97139801E-10 -1.09193928E-15 -1.29744543E-09  8.59828397E-14  1.35505502E-02
 -2.76338722E-10 -3.24302607E-12  5.31666077E-16 -1.73436306E-13 -1.17970949E-11
  2.39410514E-15  4.48853609E-12 -1.01396805E-02  9.27175830E-15  7.19105782E-12
 -1.13451439E-13  6.49124730E-03  6.75536431E-10  9.34605567E-14 -8.50329094E-02
 -6.84586942E-10 -7.02811006E-03 -3.38449595E-15  5.04467468E-14  5.47980124E-03
 -5.76019856E-14  7.71517712E-15  1.54830882E-03 -4.68859417E-15  8.54424075E-04
 -1.70543507E-03 -6.87504759E-14  8.11071997E-02  3.92708311E-02  6.62731176E-14
 -8.19616238E-02  1.18684970E-14 -1.00208990E-02  1.68239151E-02  4.35843670E-14
  4.75862950E-02 -8.41997461E-02 -4.97259018E-14 -4.57393681E-02  6.73758310E-02
  7.02811006E-03  3.94476915E-15  3.70067195E-14 -5.47980124E-03  4.59361222E-14
  1.22757048E-14 -6.16879960E-14  7.16595242E-15 -5.72696224E-15 -1.54830882E-03
  3.38642831E-15 -8.54423874E-04 -1.70543456E-03  5.89470515E-14 -8.11071997E-02
  3.92708311E-02 -5.28663609E-15  3.08439980E-14  8.17397216E-03 -5.70468437E-14
  8.19616236E-02  1.56001019E-14 -1.00208985E-02 -1.68239139E-02  3.63913822E-14
  4.75862950E-02  8.41997461E-02 -8.43602215E-15  8.17397216E-03  1.10157136E-14
 -4.35554620E-14 -4.57393687E-02 -6.73758322E-02 -2.30414653E-09 -3.25091774E-16
 -7.25497833E-10  1.42027973E-03  1.14656061E-09 -2.13849369E-09 -7.99006424E-13
  3.06471659E-15  1.00085949E-02  5.59304497E-12  7.12008696E-15 -1.05750850E-12
 -1.18878231E-12  3.29329849E-15 -4.32403477E-12 -1.12367261E-02 -4.61606354E-13
  6.34505102E-13 -1.18112967E-01  3.98401393E-11 -1.75076408E-11 -5.86953938E-13
  5.19472087E-04 -5.71443731E-03 -1.88001512E-13 -9.59339962E-02  6.46748467E-02
  7.87256330E-13 -1.52016157E-03  2.46458232E-10 -5.72714292E-10 -7.26117800E-02
  2.86026675E-11 -1.98135968E-11  8.47732328E-02 -2.75046211E-10  4.90822318E-03
 -5.72966919E-10  1.35699620E-09  5.40521862E-02 -1.94405313E-11  1.20497219E-11
 -5.91855429E-02  5.92574889E-10 -1.36921501E-09 -2.62357578E-13 -5.19472087E-04
 -5.71443731E-03 -2.35001889E-13  9.59339962E-02  6.46748467E-02  6.24223769E-14
 -1.06412913E-02  2.25133541E-04  3.29002645E-13  1.52016157E-03 -2.47288082E-10
 -5.72704011E-10  7.26117800E-02 -2.87701063E-11 -1.96314703E-11  1.06412913E-02
 -9.69382794E-14 -3.41487121E-14 -8.47732328E-02  2.76344597E-10  4.90822318E-03
 -5.73097639E-10 -1.35653592E-09  5.40521862E-02 -1.94346563E-11 -1.21613478E-11
  2.25133541E-04  1.00059398E-13 -4.40628543E-15 -5.91855429E-02  5.92263512E-10
  1.36877438E-09  4.19893071E-02 -5.61736195E-15  3.28794882E-02 -1.52556229E-14
 -2.14974975E-10 -3.78961358E-01 -3.33057886E-02  4.43814824E-15  1.01611695E-14
  2.58067794E-02  7.60661216E-15 -2.80564999E-02  2.50313071E-12  1.49015943E-14
  9.64884970E-03  1.40037733E-14  8.95689830E-13  3.59153306E-01 -2.12060811E-14
  2.92095659E-11 -3.41267973E-01 -4.34175920E-03  3.80037641E-16  5.98771925E-15
  3.74950458E-03 -1.87177776E-14  1.00061686E-14 -5.69684436E-05 -2.07214706E-15
 -2.41149502E-03 -2.23866853E-03 -1.54765509E-14  9.20382512E-03  2.16663634E-03
  1.82871666E-14 -5.92405154E-03  7.87114253E-16 -7.00427722E-03  9.90402625E-03
  1.09215292E-14  8.94973746E-03 -8.94266649E-03 -1.32715203E-14 -9.36714022E-04
 -1.26782744E-03 -4.34175920E-03  7.99176071E-16 -8.93265818E-16  3.74950458E-03
 -3.79042882E-15 -2.80386075E-15  6.49223073E-04 -7.38468614E-16  1.56287686E-15
 -5.69684441E-05  8.28968454E-17 -2.41149497E-03  2.23866874E-03 -3.86319161E-15
  9.20382510E-03 -2.16663637E-03  5.05734011E-17 -8.68278559E-04 -1.00874621E-03
  3.72972136E-15 -5.92405158E-03  4.64735378E-16  7.00427743E-03  9.90402679E-03
  1.23382401E-16 -8.94973749E-03 -8.94266651E-03 -2.72236749E-15  1.00874621E-03
  3.06467671E-04  2.13424971E-15  9.36713840E-04 -1.26782796E-03 -5.07434129E-03
  2.25808566E-14 -1.52733118E-02 -8.26422663E-15  1.24071338E-14  1.15035970E-01
  1.11327415E-02 -1.98043568E-14  1.06161013E-14  1.31409405E-02 -2.17135848E-14
  1.36607341E-02  1.19692843E-14  8.63670947E-15 -2.58372343E-01  7.93750793E-15
  3.77643433E-14 -1.33014837E-01 -1.26206389E-14 -1.99538752E-13  2.70230730E-01
 -3.02920014E-03 -7.13750346E-16 -2.11760809E-15 -1.21368410E-02  3.35477608E-15
  7.72334726E-16 -1.95091809E-03 -1.32924084E-15  8.06289533E-04  7.12212851E-04
  4.41552948E-15  1.22355805E-01  6.83295701E-03 -2.88979861E-15 -8.80055471E-02
  6.65927501E-15 -7.70444376E-03  8.98943457E-03 -3.93259022E-15  2.49675022E-02
 -6.86079467E-02 -3.67822916E-16 -1.24041142E-02  5.75565888E-02 -3.02920014E-03
 -2.06274952E-15 -2.34266588E-16 -1.21368410E-02  9.72209925E-15  3.91079623E-15
  1.71169592E-02 -1.96490033E-16 -2.35886187E-15 -1.95091809E-03  4.61969003E-16
  8.06289533E-04 -7.12212851E-04  6.75211782E-15  1.22355805E-01 -6.83295701E-03
  2.48772882E-16 -3.51565472E-02 -4.85894429E-03 -7.46285970E-15 -8.80055471E-02
 -6.33255630E-15  7.70444376E-03  8.98943457E-03  5.93712780E-15 -2.49675022E-02
 -6.86079467E-02  1.71309628E-15  4.85894429E-03  2.06192329E-03 -1.31766778E-15
  1.24041142E-02  5.75565888E-02 -2.99964772E-03  1.08540790E-14 -8.51603148E-04
 -9.25059951E-15 -2.33331797E-10  4.20615573E-02  1.01706770E-02 -7.85835995E-15
  6.74217249E-15  1.65898891E-01 -1.12029733E-14  1.25117493E-02  1.81337897E-12
 -4.03242846E-15 -1.12060717E+00  8.23402542E-15  8.10347089E-13 -3.98240057E-02
 -7.16735307E-15 -1.23153124E-12 -2.99075628E-01 -3.58551630E-03 -2.11656944E-15
  1.67944998E-15 -8.80347841E-02  7.03869114E-15 -6.72368133E-15  1.08228503E-01
 -5.93463304E-16 -5.83007419E-03  1.31569769E-02  5.03571510E-15  5.54047712E-01
 -3.82128003E-01 -4.93828053E-15 -5.56076690E-01  1.84074070E-15 -3.33356515E-03
 -1.11877713E-03 -2.78411888E-15 -3.95255939E-01  1.69449817E-01  2.93151127E-15
  3.83780265E-01 -1.55844097E-01 -3.58551630E-03 -8.79149628E-16  8.28977049E-16
 -8.80347841E-02  8.19671066E-15  5.65700899E-15 -1.66082028E-02  4.96028731E-16
 -1.98813309E-15  1.08228503E-01  9.42357633E-16 -5.83007409E-03 -1.31569767E-02
  6.85507332E-15  5.54047712E-01  3.82128003E-01  1.61588169E-17  7.85905233E-03
  1.48092388E-02 -7.81358977E-15 -5.56076690E-01 -8.24166605E-16  3.33356538E-03
 -1.11877660E-03  3.20929946E-15  3.95255939E-01  1.69449817E-01  2.11272009E-15
 -1.48092388E-02 -1.24869426E-02 -4.49785295E-15 -3.83780266E-01 -1.55844098E-01
 -2.77640632E-09  4.64617570E-15 -6.36902121E-10  8.22591760E-15  1.39597891E-02
 -7.23500317E-10  7.05005668E-13 -4.67300066E-15 -1.22317749E-14  7.66106160E-12
 -4.13483947E-15 -9.40007558E-14 -5.97115863E-02 -2.20283362E-15 -3.36052702E-11
 -9.98327754E-15 -9.67596582E-03  2.37351908E-12  8.35692910E-15  9.16181304E-01
  4.21652140E-11 -3.59050454E-03 -4.18989957E-17  6.01275740E-16 -1.08561253E-01
  6.68591787E-16 -1.19465790E-15  1.12151758E-01 -9.91221890E-16 -5.28753197E-03
  2.28758988E-02 -1.75323315E-16  5.53148228E-01 -4.53252669E-01  6.06904196E-16
 -5.47860696E-01  2.04064750E-15 -2.14191145E-03 -4.98817441E-03 -5.37733149E-16
 -4.28234859E-01  1.87103941E-01  4.56710686E-18  4.15531248E-01 -1.82115767E-01
  3.59050454E-03  6.87239620E-17  3.40458161E-15  1.08561253E-01  5.66908130E-15
  2.82100634E-15  6.97661859E-14  5.59641009E-16 -1.50748146E-15 -1.12151758E-01
  4.79885661E-16  5.28753182E-03  2.28758984E-02  7.05115760E-15 -5.53148228E-01
 -4.53252669E-01 -1.23359699E-15  1.46876181E-15  1.48455227E-02 -6.29744627E-15
  5.47860696E-01 -2.83287563E-16 -2.14191182E-03  4.98817350E-03  4.41257900E-15
 -4.28234859E-01 -1.87103941E-01  5.88815048E-16  1.48455227E-02  1.98282844E-14
 -4.71810648E-15  4.15531248E-01  1.82115768E-01 -1.08334454E-02 -8.94423579E-13
 -5.00014748E-03  4.40610838E-12  1.75237644E-08 -2.82960662E-03  7.36302664E-03
  1.50690186E-12 -3.17017081E-12  4.58515026E-02  2.10845949E-12  1.53593960E-02
 -8.34539918E-11  3.78075812E-12 -4.38584469E-01 -3.89634892E-12 -6.11928947E-11
  1.77695151E-02  5.73216645E-12 -5.83416177E-10 -8.67331209E-02  1.73533114E-03
 -6.38150610E-13  7.55041810E-13 -2.66072635E-02 -3.51464546E-13  6.35742096E-13
  2.96109352E-02 -1.56455979E-13 -5.17943620E-03  9.65596629E-03 -6.87257748E-13
  2.11612535E-01 -1.71120716E-01  9.68890699E-13 -2.15882110E-01  6.78799223E-13
  1.14926226E-03 -7.46971015E-03  2.76524330E-13 -1.75163541E-01  3.44818032E-02
 -1.43500633E-12  1.67739514E-01 -1.64960925E-02  1.73533111E-03 -3.75638021E-14
 -1.91320385E-12 -2.66072635E-02 -6.19347853E-12 -2.91028204E-12 -4.73900279E-03
  1.84000978E-14  4.86587998E-13  2.96109352E-02 -1.32894371E-12 -5.17944687E-03
 -9.65598373E-03 -4.69039363E-12  2.11612538E-01  1.71120717E-01 -2.14343835E-13
  9.44901095E-03  6.27476472E-03  6.80906570E-12 -2.15882102E-01 -1.37248252E-12
 -1.14927972E-03 -7.46974777E-03 -2.94198574E-12  1.75163542E-01  3.44818036E-02
  1.08960373E-14 -6.27476472E-03 -1.05160005E-02  4.65761388E-12 -1.67739498E-01
 -1.64960553E-02 -2.72857883E-03 -3.24108549E-10 -5.18759849E-03  1.45532900E-13
 -5.31661524E-12 -1.77810504E-02  1.65308074E-02  1.27457872E-13  4.62843545E-12
  1.72381970E-01  9.44821422E-13  1.08243517E-02  9.25784731E-12 -4.76352544E-11
 -5.54942324E-01  4.37792459E-12  1.62995817E-11  2.60099335E-02  1.46135947E-11
 -3.77115390E-11 -2.29730694E-01 -6.90120086E-03  1.60991620E-10 -3.97304893E-10
 -9.44563861E-02  3.06824164E-11 -2.50975778E-11  1.07221906E-01  1.65350977E-10
 -2.81835825E-03  7.08138657E-03  2.70618082E-11  2.72058986E-01 -1.79897763E-01
 -1.92210528E-10 -2.54404962E-01 -3.97572474E-10 -3.56024980E-04 -4.11434701E-03
 -2.63022870E-11 -1.89552103E-01  1.01860383E-01  4.23686689E-10  1.81362252E-01
 -9.34485147E-02 -6.90120087E-03  1.60725028E-10  3.93534096E-10 -9.44563861E-02
  1.18129152E-11  4.30960313E-12 -5.86431864E-03  4.21172651E-14  5.72535234E-14
  1.07221906E-01  1.64147966E-10 -2.81835825E-03 -7.08138656E-03  1.03540514E-11
  2.72058986E-01  1.79897763E-01 -7.12322197E-13 -1.48356656E-02  8.54587577E-03
 -1.72789867E-10 -2.54404962E-01  3.92487405E-10  3.56024992E-04 -4.11434700E-03
  7.12438238E-12  1.89552103E-01  1.01860383E-01 -4.50109950E-13 -8.54587578E-03
 -4.29752112E-03 -3.98610566E-10 -1.81362252E-01 -9.34485147E-02 -4.72547507E-02
 -4.32552365E-13 -4.30484590E-02  8.18588223E-13 -2.13380903E-08  2.53454000E-01
  4.41411346E-02  5.33542569E-13  1.68890074E-12 -4.30913324E-02  1.13113266E-12
  4.20393288E-02 -6.96537457E-11  4.08187190E-12 -5.19923587E-02  3.20387050E-13
 -1.74601681E-11 -2.49686521E-01  2.07411528E-12  3.46475554E-09  2.44165876E-01
  1.55683254E-03  1.65286225E-13 -1.15030675E-14 -5.24900306E-04  1.62994140E-14
 -3.10887182E-13 -6.90266315E-04  3.68613414E-14  5.04699613E-04  1.83724235E-03
  7.72182787E-13  4.97651621E-03 -3.57372047E-03 -5.81863128E-13 -4.74094611E-03
 -2.86278849E-13  2.39523342E-03 -1.88359325E-03 -5.56504477E-13 -4.50142714E-03
  2.76032378E-03  3.51651538E-13  1.92133591E-03 -3.64347299E-04  1.55683256E-03
 -3.29512558E-13 -2.41821036E-12 -5.24900347E-04 -5.88502945E-12 -2.52233756E-12
 -3.41665913E-04 -8.36039304E-14  4.98037012E-13 -6.90266290E-04 -1.00680542E-12
  5.04710795E-04 -1.83722093E-03 -5.47758865E-12  4.97651301E-03  3.57371702E-03
  1.65209196E-13 -7.40269722E-04  1.84857801E-04  6.89456940E-12 -4.74095411E-03
 -1.03662027E-12 -2.39521204E-03 -1.88354286E-03 -3.30997731E-12  4.50142373E-03
  2.76032156E-03 -6.25876712E-14 -1.84857803E-04 -5.12383223E-04  4.76322690E-12
 -1.92135388E-03 -3.64395490E-04 -1.14605134E-02 -1.71543287E-12 -1.24853863E-02
  2.80044552E-12  7.29772505E-13  2.92359894E-02  1.11523455E-02  1.54718715E-12
 -4.09909273E-13  2.12305379E-02  2.30578355E-12  3.05027044E-02 -1.49120223E-11
  4.66035046E-12 -4.68106566E-01 -1.43422069E-12  1.43773837E-12 -1.41213168E-02
  3.57038191E-12 -1.39716808E-11 -1.98245427E-01  1.54125260E-04  3.24040243E-13
 -2.95004150E-13 -1.61914390E-02 -1.24333228E-12  7.23729831E-13  1.07567273E-02
  3.52265576E-13 -9.00847370E-03  8.96310112E-03 -5.07636890E-13  2.18801931E-01
 -1.80615977E-01  4.75103908E-13 -1.87742627E-01 -7.79999141E-13 -5.01349864E-04
 -7.55710465E-03  2.29619525E-13 -2.19814636E-01  1.06183373E-01 -1.24573122E-13
  1.95984431E-01 -9.38598102E-02  1.54125263E-04 -2.19030654E-13 -2.01775656E-12
 -1.61914390E-02 -6.37852719E-12 -3.29861346E-12  5.28058639E-03 -1.76155524E-13
  6.81857962E-13  1.07567274E-02 -1.21398003E-12 -9.00847370E-03 -8.96310111E-03
 -5.78989212E-12  2.18801932E-01  1.80615977E-01  2.09119835E-13 -2.20508304E-02
  2.43315552E-02  7.37013684E-12 -1.87742627E-01 -7.70149530E-13  5.01349898E-04
 -7.55710462E-03 -3.49355793E-12  2.19814636E-01  1.06183373E-01 -3.37478942E-13
 -2.43315552E-02 -4.76645808E-03  4.95522805E-12 -1.95984431E-01 -9.38598102E-02
  3.22052857E-03  2.41995212E-13  8.20441391E-04  1.28274753E-12 -3.65912589E-08
 -2.06326142E-02 -5.06541738E-03  2.33148133E-13  8.37010137E-13 -6.47457935E-01
  3.89680283E-13 -6.87362500E-03  7.15178630E-12  3.34575928E-12  2.07396638E+00
 -2.69818461E-13  1.28221004E-11  9.38617017E-03  2.52759100E-12  4.64612797E-09
  4.06939334E-01  9.22454814E-04 -7.50454865E-15  8.79852835E-14  3.26261675E-01
  3.27849006E-13 -5.64908333E-13 -3.46832064E-01  2.49148595E-13  3.02682192E-03
 -1.01346596E-02  6.56237003E-13 -1.03354637E+00  8.07005391E-01 -5.94591245E-13
  1.01665893E+00  2.62409371E-13 -1.30379851E-04  5.62330839E-03 -7.90752223E-13
  8.34381085E-01 -2.08162751E-01  3.29200063E-13 -8.15560718E-01  1.82809423E-01
  9.22454862E-04 -5.30874926E-13 -2.12996741E-12  3.26261675E-01 -4.71901404E-12
 -2.13158662E-12  1.96479347E-02 -1.67217284E-13  2.06048013E-13 -3.46832064E-01
 -1.15218787E-12  3.02683229E-03  1.01346962E-02 -4.32513582E-12 -1.03354638E+00
 -8.07005395E-01  3.91784948E-14  1.38606273E-02 -1.86899871E-02  6.01352972E-12
  1.01665892E+00 -1.45926228E-12  1.30416434E-04  5.62339951E-03 -2.67731468E-12
 -8.34381090E-01 -2.08162754E-01  1.14396603E-13  1.86899871E-02  1.97300198E-02
  4.37622202E-12  8.15560686E-01  1.82809335E-01  1.13048487E-02  7.08408452E-13
  8.21921988E-03  3.35123699E-12  3.07303713E-08 -5.03273852E-02 -1.53626912E-02
 -6.12063136E-13 -1.65569928E-12 -7.46041406E-01 -7.40934149E-13 -1.46612162E-02
 -3.39635355E-11  2.47242063E-12  2.07209699E+00 -2.01009294E-12 -2.00917217E-11
  5.09350283E-02  3.74240050E-12  1.19997931E-09  4.68694718E-01  2.02902571E-03
  2.12015803E-13 -1.15613689E-12  3.80702054E-01  6.85078639E-13 -3.99437848E-14
 -3.78829690E-01  6.48879150E-13  3.22119740E-03 -9.85692508E-03  6.61275691E-13
 -1.02871788E+00  9.52425070E-01 -1.30117429E-12  1.01548253E+00 -7.15019873E-13
 -1.82168871E-03 -3.03501705E-04 -4.52291794E-13  9.56206008E-01 -2.59814870E-01
  1.06981567E-12 -9.48476232E-01  2.75178786E-01  2.02902569E-03 -3.71597248E-13
 -4.61625284E-13  3.80702054E-01 -3.07229059E-12 -2.13108619E-12 -3.90138988E-03
  1.34596515E-13  1.04401226E-13 -3.78829690E-01 -8.87717230E-13  3.22118988E-03
  9.85689439E-03 -2.61162459E-12 -1.02871789E+00 -9.52425071E-01  1.69011553E-13
  1.00141547E-02 -5.90808743E-03  3.90571479E-12  1.01548254E+00 -8.10048019E-13
  1.82165799E-03 -3.03580324E-04 -1.73787519E-12 -9.56206009E-01 -2.59814871E-01
  9.29386288E-14  5.90808743E-03 -1.50604141E-02  2.80902624E-12  9.48476264E-01
  2.75178865E-01
Dipole Moment                              R   N=           3
 -3.49329396E-17  8.66826411E-18 -7.44513775E-01
Dipole Derivatives                         R   N=          36
 -1.28694917E-01  2.83769251E-15  1.62651647E-15 -3.67979667E-17 -1.44866364E-01
  1.99598464E-14  1.03236930E-17  7.75667240E-15 -4.19328999E-01 -1.89011926E-01
  2.33167771E-15  9.52304787E-16  1.54338020E-17  1.79909334E-01 -2.38748072E-14
 -3.65090357E-17 -1.00002221E-14  5.73442016E-01  1.58853422E-01  2.28432065E-16
  1.49551751E-15 -7.69772861E-18 -1.75214850E-02  7.23696043E-02  6.08801846E-18
  9.74990491E-02 -7.70565084E-02  1.58853422E-01 -2.84182861E-15 -2.88247988E-15
  2.05305129E-17 -1.75214850E-02 -7.23696043E-02 -1.65716421E-17 -9.74990491E-02
 -7.70565084E-02
Polarizability                             R   N=           6
  1.31151145E+01  2.33679580E-16  1.89104626E+01 -6.51548898E-16 -1.19025557E-13
  3.95047910E+01
Quadrupole Moment                          R   N=           6
 -4.05991978E-01 -9.68996889E-01  1.37498887E+00  7.18839245E-17  1.01879357E-16
  2.44761048E-16
NDeriv for static properties               I                6
ND12 for static properties                 I               -2
Dipole Moment num derivs                   R   N=          36
  7.28362173E-15 -8.14506567E-02  3.01308465E-15  2.19517390E-01  7.26846971E-16
 -7.00068620E-16  8.01428083E-16 -1.83759399E-15 -1.24794122E-01 -3.20105743E-17
 -2.47397370E-15  9.56207129E-02  2.43966383E-16  3.34770404E-15  1.74248050E-01
 -1.28887421E-16 -1.05412957E-01  1.18585634E-14 -3.52316674E-15 -1.35410965E-12
 -1.94513281E-02 -1.19368193E-12  3.01404489E-14  2.43522079E-01 -6.55334718E-15
 -1.52386902E-11  5.86055638E-03 -5.24063699E-15  4.50030722E-13  5.84534983E-02
  1.38101341E-14 -2.06164584E-11  3.02134711E-01  3.02927934E-15  2.42804268E-12
  4.76221191E-01
Dipole Derivatives num derivs              R   N=         432
  4.92769587E-13  8.62495411E-14 -4.61493146E-13  3.63727483E-14  1.01858631E-12
  9.72896001E-02 -1.91077540E-13  3.15277181E-02 -1.15899994E-11 -2.00485987E-13
 -7.19958362E-14  1.02194668E-13 -4.27412068E-14  1.50734446E-34 -4.94281873E-02
  1.40104695E-13 -5.26861327E-02  1.65558831E-11  4.63432362E-03 -5.30639600E-13
  2.51108000E-13  3.77993597E-14  5.83438754E-02 -2.39307064E-02  2.21643949E-14
  1.05792073E-02  1.97622747E-02 -4.63432362E-03  5.16385895E-13  1.08190479E-13
 -3.14309011E-14 -5.83438754E-02 -2.39307064E-02  2.88084510E-14  1.05792073E-02
 -1.97622747E-02 -1.44305848E-12 -2.97197757E-14 -1.31613217E-02  2.81719266E-14
 -2.14439224E-13  9.61751480E-12  3.38345230E-02  1.88445781E-11 -2.95074247E-12
  2.37058156E-12 -1.70278218E-14 -3.12766274E-01 -7.66216061E-14  9.28257463E-13
  1.41165593E-14 -1.21732611E-01 -3.46279418E-13  4.28878448E-12 -7.01333764E-13
 -7.68833798E-02  1.62963798E-01 -1.49072852E-03  3.25771369E-12 -4.25353420E-12
  4.39490438E-02 -8.71930448E-12  7.56412332E-12 -6.70489766E-13  7.68833798E-02
  1.62963798E-01  1.49072852E-03 -4.63247475E-12 -5.41973108E-12  4.39490438E-02
 -9.41109129E-12 -9.09457312E-12 -1.76398426E-02  3.95181996E-14 -2.72514442E-14
  7.98124750E-15 -2.93875531E-02 -1.71680291E-11 -2.07860826E-14 -4.18361112E-11
  2.39481554E-02  7.01973621E-03 -3.93479040E-14 -5.49793656E-14 -4.15615772E-14
 -1.32487718E-02  8.08447937E-13  2.68366199E-14 -3.08247832E-13 -9.42634084E-02
  5.31005317E-03 -7.18912014E-14  5.14105756E-14  2.57454671E-14  2.13181624E-02
 -4.92995495E-02 -1.59224279E-14 -1.42595979E-02  3.51576265E-02  5.31005317E-03
  7.17209059E-14  3.08202342E-14  7.83486260E-15  2.13181624E-02  4.92995495E-02
  9.87189053E-15  1.42595980E-02  3.51576265E-02  6.00173156E-02  4.80608037E-15
  3.61670147E-14 -1.68408609E-14  4.57272832E-02  4.12003705E-13 -1.19927556E-14
  5.91622360E-13 -5.55345953E-02  3.11784852E-02  3.18948691E-14 -4.96843387E-14
  3.11370260E-14  1.64243110E-01  4.33597145E-14 -2.38966596E-15  1.44642376E-13
  2.12600631E-01 -4.55979004E-02 -1.26378376E-14 -6.01240588E-14 -1.05633801E-14
 -1.04985196E-01  6.59850990E-02  9.71423124E-15  1.11419959E-01 -7.85330179E-02
 -4.55979004E-02 -2.40631119E-14  7.36413828E-14 -3.73278502E-15 -1.04985196E-01
 -6.59850990E-02  4.66819030E-15 -1.11419959E-01 -7.85330179E-02  7.21496145E-02
  5.20640746E-15 -1.10770741E-15  2.16142804E-14  2.35671050E-02 -1.52208286E-11
  2.20625629E-15 -3.53646160E-11 -3.24612477E-01 -5.19866193E-03 -7.42156539E-14
 -8.25530443E-15 -7.95561046E-16  4.04722932E-01  4.21489821E-13  6.77330068E-15
  8.68720095E-13  6.40590821E-01 -3.34754763E-02  7.21467753E-15 -7.46921086E-14
 -1.72909340E-15 -2.14145018E-01  1.29592130E-01  5.77897748E-16  7.95246961E-02
 -1.57989172E-01 -3.34754763E-02  6.17945689E-14  8.40551204E-14 -1.90896260E-14
 -2.14145018E-01 -1.29592130E-01 -9.55745471E-15 -7.95246961E-02 -1.57989172E-01
 -1.40633943E-12  1.33499736E-14  5.38988550E-14  1.18188802E-14 -2.92430476E-12
  3.87618412E-02 -3.76129622E-15  1.77873701E-01 -7.10586963E-12  2.11501701E-13
 -7.81649052E-15  6.67507845E-16 -1.26800666E-14  1.12213402E-12 -5.98129681E-01
  6.19102608E-15 -6.18362873E-01  1.72138884E-12 -8.67748857E-02  6.57571864E-15
 -2.48574955E-14  9.31506100E-15 -1.23577754E-01  2.79683920E-01 -3.10125511E-15
  2.20244586E-01 -1.47210752E-01  8.67748857E-02 -1.21092017E-14 -2.97088673E-14
 -8.45387458E-15  1.23577754E-01  2.79683920E-01  6.71525245E-16  2.20244586E-01
  1.47210752E-01 -1.47694519E-03  2.51829548E-12  5.16362732E-12  7.10281304E-13
 -1.10925344E-02  1.43589913E-10  1.59602437E-11  3.44971825E-10  2.28497803E-02
 -2.27652913E-03 -1.84413939E-11  2.41251542E-12 -3.44611652E-12  6.84181696E-02
  6.47353367E-11 -8.50501818E-12 -3.77191255E-11 -3.78037202E-02  1.87673682E-03
  1.09221982E-11 -1.80706336E-11  2.43551781E-12 -2.86628178E-02  4.12030031E-02
 -3.36429115E-12 -1.82071538E-02  7.47696982E-03  1.87673685E-03 -9.31401034E-12
  3.81940127E-12  3.48097997E-13 -2.86628178E-02 -4.12030034E-02 -3.88556725E-12
  1.82071535E-02  7.47696957E-03  9.44036856E-02 -3.09440525E-11  2.90340085E-11
 -1.02395658E-11  2.38762579E-02  1.08958532E-10 -9.08133960E-11  7.25089347E-11
  3.40918127E-02 -4.70575920E-03  1.95163336E-11 -2.88515889E-12  4.36837701E-12
  1.75676276E-01 -1.14771410E-10 -1.06889668E-11 -2.01217661E-11 -1.29696475E-01
 -4.48489635E-02 -1.38487016E-11 -3.15033584E-11  2.62177241E-11 -9.97762674E-02
  3.56192251E-02  5.72927739E-11  1.38794889E-02  4.78023311E-02 -4.48489635E-02
  6.86907510E-13 -5.61905623E-12  1.58013386E-11 -9.97762673E-02 -3.56192251E-02
  4.29673553E-11 -1.38794887E-02  4.78023310E-02  6.03915867E-03  1.03946343E-11
 -4.82528791E-12  1.08863909E-11  1.65481237E-02  7.70626840E-10  2.17283521E-12
  1.49533376E-09  2.36420592E-02 -6.29162962E-03 -1.87146395E-11 -1.36881040E-11
 -1.38678714E-11  6.18810147E-03  7.48349939E-11 -1.92334929E-12  2.42107141E-11
  1.14565596E-02  1.26235202E-04  4.07736953E-12  3.51477756E-12  1.21436911E-13
 -1.13681124E-02  1.48026460E-02 -1.75769159E-12  1.28595938E-02 -1.75493089E-02
  1.26235271E-04 -1.00722749E-11  8.32352471E-12  2.90782418E-12 -1.13681130E-02
 -1.48026468E-02  1.71357281E-12 -1.28595951E-02 -1.75493103E-02 -7.33368524E-04
  6.92037180E-12 -6.56651533E-12  3.77063605E-12 -1.20949730E-02  5.13240993E-11
 -1.17954152E-12  7.67948356E-11 -7.63655409E-02 -3.75510893E-02 -1.08148956E-11
 -1.28503032E-11 -9.00672269E-12 -6.04240418E-02 -4.21122721E-11  2.34671679E-12
  6.88452332E-12  2.70669187E-02  1.91422286E-02 -8.23145181E-13  1.17650522E-11
  1.13377819E-12  3.62595072E-02  5.77971623E-02 -3.36803201E-12  7.17661233E-02
  2.46493109E-02  1.91422286E-02 -9.59724155E-12  9.76676703E-13  4.15008904E-12
  3.62595072E-02 -5.77971623E-02  2.40622387E-12 -7.17661231E-02  2.46493108E-02
  5.51018034E-02  4.75768460E-12 -4.37012380E-12 -6.14533828E-12  1.58165392E-02
  1.97121758E-10 -2.93867823E-12  5.26762881E-10 -1.91483882E-01  2.49851705E-02
 -5.88900760E-12 -7.61814374E-12  3.87200855E-12  1.36339680E-01  5.33754015E-11
  2.07319467E-12 -5.31970645E-11  9.46869482E-02 -4.00434872E-02 -1.46642077E-12
  9.52937239E-12 -5.71677363E-13 -7.60781096E-02  1.50617638E-02  3.88625393E-13
  1.94049234E-02  4.83984669E-02 -4.00434873E-02 -1.17171668E-11 -4.21619445E-12
  2.89278769E-12 -7.60781098E-02 -1.50617640E-02  6.82225296E-13 -1.94049237E-02
  4.83984665E-02  8.13391507E-02  6.90917026E-13 -2.70662694E-12  2.72837186E-12
  8.04816579E-02  4.26198125E-10 -1.52093101E-12  1.16344065E-09 -3.29239780E-01
  1.46581151E-02 -5.69454131E-13 -1.09471979E-11 -3.05811301E-12 -1.53684748E-02
  1.42650744E-10  3.09451213E-12 -6.85352898E-11  6.86983131E-01 -4.79986332E-02
 -9.06482238E-13  5.37688941E-12 -3.28170519E-13 -3.25565915E-02 -6.20843890E-02
 -1.89110364E-12 -1.71998512E-01 -1.78871675E-01 -4.79986332E-02 -1.35298912E-11
  1.60184583E-12  7.05692270E-13 -3.25565920E-02  6.20843884E-02  5.22889648E-13
  1.71998511E-01 -1.78871676E-01
Polarizability num derivs                  R   N=          72
  8.64806953E-12  6.30409077E-14  5.82804686E-12 -1.58264939E-13 -2.15637416E+00
 -1.22200983E-11  6.34505102E-12 -4.31947985E-13  1.25961013E-11  1.33510546E-01
 -6.85866711E-12  1.46641179E-11  2.01721343E-01  2.37267325E-13 -6.01967985E-02
 -3.12577069E-14 -4.41230825E-12  5.21245420E+00 -6.24301124E-02 -1.69250721E-14
 -5.66873519E-01  4.40823807E-14  7.11630877E-12  3.29885996E+00  1.88903463E-01
 -4.14987422E-13  8.44620972E+00 -4.87517017E-14  1.41536549E-11  7.63135711E+00
 -5.17004157E-13  2.53784697E-13 -1.26901020E-11 -1.34010040E-13 -8.05633260E+00
  1.12800907E-11  2.91891346E-01  4.34364505E-11  1.95138626E+00 -1.43608734E-10
 -1.91676360E-09  2.51417944E+00  2.61858349E+00  1.08365173E-11  2.33615249E+00
 -1.10966441E-10  7.68837682E-10  2.35775743E+00 -1.13471886E-01  8.00595694E-12
  3.54804291E-02  2.92442456E-12  5.11887019E-10  8.81353648E-01  1.70835339E-01
  2.12597742E-11  1.47044526E+00  4.84244432E-11  1.21377837E-09  4.21705551E+00
 -4.71357829E-02  2.25091062E-11  8.14513335E+00  4.02067011E-11 -4.89924900E-10
  4.05803693E+00  1.13105863E-01  3.44447406E-11  4.86680053E+00  2.67812703E-11
  5.53911899E-10  7.81110672E+00
Quadrupole Moment num derivs               R   N=          72
 -2.96102381E-12 -6.88092649E-35  2.96102381E-12  4.80843666E-14  6.44921738E-13
 -6.06681802E-01 -3.90103137E-12 -2.25601814E-12  6.20404988E-12 -3.22130175E-14
 -3.97252890E-01 -6.54717150E-13 -4.02636802E-01 -2.95102232E-01  6.97739034E-01
  5.18032447E-14  1.78889959E-14 -6.06522920E-12  8.56296937E-02 -1.00669620E+00
  9.21066504E-01 -6.60658182E-13  8.97562056E-14 -7.73643318E-13 -1.83296227E-01
  4.75102660E-01 -2.91806433E-01 -2.22086980E-13 -1.88731303E-14 -2.87876611E-12
 -2.30301852E-12 -1.88001512E-12  4.04203250E-12 -3.19223224E-13  3.34607165E-14
  3.21993112E-01 -3.96835777E-02 -3.06667618E-02  7.03503395E-02 -3.32620916E-12
 -6.56646061E-11  2.49594402E-12  7.21965904E-01 -1.86187399E-01 -5.35778505E-01
 -1.39362349E-13  1.98804207E-11  2.67822721E-10  2.82463278E-02 -3.10499053E-02
  2.80357750E-03  8.27446983E-12  2.20102539E-11  3.70060196E-10  7.30158374E-02
  1.11568510E-01 -1.84584347E-01  4.84424705E-11  4.30340602E-12 -2.13435807E-10
  2.48074276E-01  1.43576114E-01 -3.91650390E-01  7.23681610E-12  7.42651337E-13
 -2.77589203E-10  5.43622564E-01  2.34513181E-01 -7.78135745E-01 -2.51862575E-11
  9.63903325E-12 -2.86906215E-11
QEq coupling tensors                       R   N=          24
 -2.00000895E+00  3.22986168E-17  3.02263120E+00  1.25321174E-17  7.00107992E-19
 -1.02262224E+00 -4.96805595E-01 -8.06144820E-18  2.98596751E-01 -6.92298982E-18
  7.37170328E-18  1.98208844E-01  1.43642419E-01 -1.76649000E-18 -1.65749757E-01
  1.59501658E-19  1.92276602E-01  2.21073376E-02  1.43642419E-01 -4.64471110E-17
 -1.65749757E-01 -2.87270386E-17 -1.92276602E-01  2.21073376E-02
NDeriv for magnetic props                  I                6
ND12 for magnetic props                    I               -2
QEq coupling tensors num derivs            R   N=         288
  8.02120199E-11  1.51160128E-11  8.02178950E-11  2.32888398E-12  7.31431112E-01
 -1.60447540E-11  2.00485987E-12 -1.00586468E-13 -2.50570765E-12  5.09375928E-15
  2.28579506E-02  5.01582158E-13 -6.07160085E-03 -2.39627648E-14  1.19210929E-01
  8.50318957E-15  5.68253364E-02 -1.13139328E-01  6.07160085E-03  3.28474867E-14
 -1.19210929E-01  1.54285079E-14  5.68253364E-02  1.13139328E-01  3.20895080E-11
 -3.19185229E-13 -1.60506291E-11 -6.43210314E-01 -1.16376088E-11 -6.41672659E-11
 -4.01118850E-12  4.85460799E-14  5.01435282E-12 -1.42522349E-01 -2.04014136E-12
  5.01582158E-13  9.40007558E-14 -1.14589411E-01 -2.58502078E-13  7.39339063E-02
  1.65235704E-13  1.64501323E-13  6.68286623E-14  1.14589411E-01 -1.80657703E-13
  7.39339063E-02 -1.54954371E-13  1.37145634E-13  4.31746549E-01 -3.14112012E-12
  3.02160933E-01 -1.14505762E-13 -1.96187869E-12 -7.33907482E-01 -4.73909848E-02
  7.35654747E-15  7.44458266E-02  5.08158377E-14 -2.07866108E-13 -2.70548418E-02
 -6.32879480E-03 -8.44189739E-15  1.16929864E-02  7.08894072E-15 -2.00201638E-03
 -5.36419164E-03 -6.32879480E-03  9.71931972E-15  1.16929864E-02  2.87993442E-15
  2.00201638E-03 -5.36419164E-03  2.48114565E-01 -1.04222789E-11 -1.59091771E-01
  3.64737486E-14 -2.93975551E-14 -8.90227938E-02 -2.01089502E-02  2.51138350E-14
  1.52409047E-02 -1.06711604E-14  2.93505068E-13  4.86804545E-03 -1.43101934E-02
 -3.25722148E-15  1.21766936E-01  6.45374278E-16  3.55271929E-02 -1.07456742E-01
 -1.43101934E-02 -7.33142547E-15  1.21766936E-01 -8.28511495E-15 -3.55271929E-02
 -1.07456742E-01  2.47445332E-01 -3.22198591E-12 -2.27291782E-01  2.76399224E-13
 -4.10083545E-12 -2.01535503E-02  1.90246920E-01  2.89553153E-15 -2.81074006E-01
  5.01483620E-15  2.94193813E-13  9.08270869E-02 -3.26349199E-01 -1.32095601E-15
  3.86170059E-01  1.50001571E-15 -4.42596554E-01 -5.98208604E-02 -3.26349199E-01
 -8.74014339E-16  3.86170059E-01  9.59881232E-16  4.42596554E-01 -5.98208604E-02
 -6.41731410E-11 -1.10040809E-11 -1.60388790E-11  5.68005824E-14  8.36962883E-02
  1.28340407E-10  1.50401209E-12 -6.38245657E-14 -3.00802419E-12  5.77396759E-14
  3.01604840E-01  1.50401209E-12 -3.34731985E-01 -6.94773965E-16  3.73563915E-01
 -1.36916432E-15 -4.70081729E-01 -3.88319295E-02  3.34731985E-01 -2.49797315E-15
 -3.73563915E-01 -5.24573426E-15 -4.70081729E-01  3.88319295E-02  1.17484668E-01
  4.61567507E-10  1.70061131E-03 -2.28300018E-10 -2.72847379E-09 -1.19185274E-01
  4.50683910E-02  1.35963315E-11 -7.94420553E-02  4.29019993E-12 -4.08904645E-11
  3.43736637E-02 -1.04087199E-01 -7.39632066E-13  1.65200027E-01  1.55470493E-12
 -2.10303771E-01 -6.11128277E-02 -1.04087199E-01 -3.20494754E-13  1.65200027E-01
 -9.86488419E-14  2.10303771E-01 -6.11128277E-02 -5.14767570E-01  1.58762449E-11
  1.78834927E-01  1.96439180E-10  4.65241887E-11  3.35932648E-01  1.72561245E-01
  5.46563077E-12 -9.70744735E-02  1.87045637E-11  7.12140560E-13 -7.54867714E-02
 -2.05705208E-01  1.28140169E-12  1.97626006E-01 -8.47958310E-13 -2.07839383E-01
  8.07920268E-03 -2.05705208E-01 -2.18659048E-15  1.97626006E-01 -1.57292889E-13
  2.07839383E-01  8.07920268E-03 -2.08873684E-02 -3.04406325E-10 -9.49784078E-02
  9.94181048E-12 -9.94587683E-10  1.15865797E-01  1.31366002E-02  5.15651087E-13
 -1.26368616E-02 -3.73607227E-12 -1.30660498E-10 -4.99739398E-04 -5.31997310E-04
  1.22789023E-12  1.08067235E-03 -2.94824748E-13 -1.47327634E-03 -5.48675037E-04
 -5.31997305E-04 -6.45385222E-13  1.08067234E-03 -4.13066625E-13  1.47327634E-03
 -5.48675038E-04  3.27721523E-02  3.96577308E-10 -3.52895740E-02 -3.77381459E-12
  3.85246698E-11  2.51742681E-03  6.06683630E-02  2.51336352E-12 -1.55916073E-03
  2.21830651E-12 -2.30215090E-11 -5.91092028E-02 -1.17659220E-01  4.79831733E-13
  1.31111290E-01  5.03463838E-13 -2.31812663E-01 -1.34520701E-02 -1.17659220E-01
 -5.00656075E-13  1.31111290E-01 -3.49646719E-13  2.31812663E-01 -1.34520701E-02
  1.83488102E-01  9.83722368E-10 -2.51306145E-01 -2.19683421E-11  1.17545359E-09
  6.78180577E-02  3.51032068E-02  2.39455723E-13 -6.42355520E-03  1.07621911E-12
 -1.73892753E-10 -2.86796520E-02  6.66831020E-01 -4.05531095E-13 -7.96109104E-01
  3.73609653E-13  9.11638281E-01  1.29278084E-01  6.66831020E-01  3.31604625E-13
 -7.96109104E-01  2.52142441E-13 -9.11638281E-01  1.29278084E-01  2.25625513E-01
 -5.19505076E-10 -3.23440438E-01  1.65777378E-11  1.87657176E-09  9.78149407E-02
  5.62018949E-02  1.42702464E-12 -1.37937305E-01 -4.86719224E-12  1.00588823E-10
  8.17354098E-02  7.21881409E-01 -1.12880878E-12 -7.69165045E-01  1.21558820E-12
  1.03026664E+00  4.72836357E-02  7.21881409E-01  8.79073181E-13 -7.69165045E-01
  7.08244061E-13 -1.03026664E+00  4.72836357E-02
Number of Normal Modes                     I                6
Vib-LE2Fix                                 I               14
Vib-NDFDPol                                I                0
Vib-NumROA                                 I                0
Vib-NDim                                   I                4
Vib-NDim0                                  I                4
Vib-LFlags                                 I                8
Vib-IFlags                                 I   N=          48
           0           0           1           0           0           0
           0           0           0           0           2           0
           0           0           0           0           0           0
           3           0           0           0           0           0
           0           0           4           0           0           0
           0           0           0           0           5           0
           0           0           0           0           0           0
           6           0           0           0           0           0
Vib-AtMass                                 R   N=           4
  3.19720718E+01  1.20000000E+01  1.00782504E+00  1.00782504E+00
Vib-E2                                     R   N=          84
  1.01941042E+03  1.03130523E+03  1.08792223E+03  1.52701129E+03  3.09193065E+03
  3.17410566E+03  1.20568569E+00  1.29557948E+00  4.85510538E+00  1.17179001E+00
  1.04960611E+00  1.12003107E+00  7.38214286E-01  8.11874135E-01  3.38566950E+00
  1.60984658E+00  5.91202201E+00  6.64849018E+00  6.46755946E+00  4.69774145E+01
  1.51823677E+01  8.91364233E+00  2.95996860E+01  1.08327630E+01  0.00000000E+00
  0.00000000E+00  0.00000000E+00  0.00000000E+00  0.00000000E+00  0.00000000E+00
  0.00000000E+00  0.00000000E+00  0.00000000E+00  0.00000000E+00  0.00000000E+00
  0.00000000E+00  0.00000000E+00  0.00000000E+00  0.00000000E+00  0.00000000E+00
  0.00000000E+00  0.00000000E+00  0.00000000E+00  0.00000000E+00  0.00000000E+00
  0.00000000E+00  0.00000000E+00  0.00000000E+00  0.00000000E+00  0.00000000E+00
  0.00000000E+00  0.00000000E+00  0.00000000E+00  0.00000000E+00  0.00000000E+00
  0.00000000E+00  0.00000000E+00  0.00000000E+00  0.00000000E+00  0.00000000E+00
  0.00000000E+00  0.00000000E+00  0.00000000E+00  0.00000000E+00  0.00000000E+00
  0.00000000E+00  0.00000000E+00  0.00000000E+00  0.00000000E+00  0.00000000E+00
  0.00000000E+00  0.00000000E+00  0.00000000E+00  0.00000000E+00  0.00000000E+00
  0.00000000E+00  0.00000000E+00  0.00000000E+00  0.00000000E+00  0.00000000E+00
  0.00000000E+00  0.00000000E+00  0.00000000E+00  0.00000000E+00
Vib-Modes                                  R   N=          72
 -5.08309354E-16  2.94646046E-02  5.91687857E-15  5.11419381E-15 -1.24717995E-01
 -1.14857396E-14 -2.24010015E-14  2.75132815E-01  6.45050822E-01 -2.23673075E-14
  2.75132815E-01 -6.45050822E-01  1.58937546E-02  1.02741963E-15 -3.98759241E-16
 -1.59582352E-01 -4.47369049E-15  8.16535704E-16  6.97954462E-01  9.55944823E-15
  2.34860746E-14  6.97954462E-01  1.11143303E-14 -2.05582542E-14 -1.11883346E-16
  3.35458782E-15 -2.14293663E-01  1.11358333E-15 -1.42722845E-14  4.69726587E-01
 -4.85128862E-15  5.96102454E-02  6.02631063E-01 -4.85858877E-15 -5.96102454E-02
  6.02631063E-01  1.78904775E-18  4.45783941E-16  9.25227333E-03 -2.72944898E-17
 -1.64425979E-15 -1.21141964E-01  1.58810890E-16  4.03270703E-01  5.74449519E-01
  1.09424473E-16 -4.03270703E-01  5.74449519E-01  1.76630103E-17  2.94305620E-17
 -9.48908729E-04 -1.71630921E-16  4.37884493E-15  6.16315436E-02  7.79082295E-16
  6.11792628E-01 -3.51866604E-01  7.04159307E-16 -6.11792628E-01 -3.51866604E-01
 -9.32761543E-18  2.51364896E-04  7.15172090E-18  8.76226381E-17 -1.01032828E-01
  2.60816625E-15 -4.10286533E-16  5.97503153E-01 -3.71330223E-01 -3.37113501E-16
  5.97503153E-01  3.71330223E-01
Anharmonic Number of Normal Modes          I               27
Anharmonic Vib-LE2Fix                      I               14
Anharmonic Vib-NDFDPol                     I                0
Anharmonic Vib-NumROA                      I                0
Anharmonic Vib-NDim                        I                4
Anharmonic Vib-NDim0                       I                4
Anharmonic Vib-LFlags                      I                8
Anharmonic Vib-IFlags                      I   N=         216
           1           0           6           0           0           0
           0           0           1           0           4           0
           0           0           0           0           1           0
           3           0           0           0           0           0
           1           0           2           0           0           0
           0           0           1           0           1           0
           0           0           0           0           1           0
           5           0           0           0           0           0
           2           0           6           0           0           0
           0           0           3           0           6           4
           0           0           0           0           2           0
           4           0           0           0           0           0
           3           0           6           3           0           0
           0           0           3           0           4           3
           0           0           0           0           2           0
           3           0           0           0           0           0
           3           0           6           2           0           0
           0           0           3           0           4           2
           0           0           0           0           3           0
           3           2           0           0           0           0
           2           0           2           0           0           0
           0           0           3           0           6           1
           0           0           0           0           3           0
           4           1           0           0           0           0
           3           0           3           1           0           0
           0           0           3           0           2           1
           0           0           0           0           2           0
           1           0           0           0           0           0
           3           0           6           5           0           0
           0           0           3           0           5           4
           0           0           0           0           3           0
           5           3           0           0           0           0
           3           0           5           2           0           0
           0           0           3           0           5           1
           0           0           0           0           2           0
           5           0           0           0           0           0
Anharmonic Vib-AtMass                      R   N=           4
  3.19720718E+01  1.20000000E+01  1.00782504E+00  1.00782504E+00
Anharmonic Vib-E2                          R   N=         378
  1.00662178E+03  1.01873863E+03  1.07403633E+03  1.49043726E+03  2.90541358E+03
  3.01541716E+03  2.00548266E+03  2.03366350E+03  2.04273600E+03  2.07670956E+03
  2.08929820E+03  2.13849416E+03  2.48136903E+03  2.50425955E+03  2.56059274E+03
  3.01548571E+03  3.94196814E+03  3.95167823E+03  4.01578853E+03  4.40053486E+03
  5.81944555E+03  4.01838730E+03  4.01744377E+03  4.09149415E+03  4.49035092E+03
  5.82464545E+03  5.95499566E+03  0.00000000E+00  0.00000000E+00  0.00000000E+00
  0.00000000E+00  0.00000000E+00  0.00000000E+00  0.00000000E+00  0.00000000E+00
  0.00000000E+00  0.00000000E+00  0.00000000E+00  0.00000000E+00  0.00000000E+00
  0.00000000E+00  0.00000000E+00  0.00000000E+00  0.00000000E+00  0.00000000E+00
  0.00000000E+00  0.00000000E+00  0.00000000E+00  0.00000000E+00  0.00000000E+00
  0.00000000E+00  0.00000000E+00  0.00000000E+00  0.00000000E+00  0.00000000E+00
  0.00000000E+00  0.00000000E+00  0.00000000E+00  0.00000000E+00  0.00000000E+00
  0.00000000E+00  0.00000000E+00  0.00000000E+00  0.00000000E+00  0.00000000E+00
  0.00000000E+00  0.00000000E+00  0.00000000E+00  0.00000000E+00  0.00000000E+00
  0.00000000E+00  0.00000000E+00  0.00000000E+00  0.00000000E+00  0.00000000E+00
  0.00000000E+00  0.00000000E+00  0.00000000E+00  0.00000000E+00  0.00000000E+00
  0.00000000E+00  5.66240330E+00  4.63239180E+01  1.60294465E+01  8.56408206E+00
  2.26485050E+01  1.64938278E+01  6.88792342E-02  1.56186130E-21  2.35423525E+00
  1.46016866E-02  2.40892948E-03  1.21096139E-01  1.97953741E-02  1.71342060E-01
  4.32387867E-02  1.47683355E+01  1.61659810E-01  3.25002465E-04  5.90196776E-01
  1.22486249E+00  5.22471892E-01  3.71297536E-02  2.33670307E-21  9.10185906E-02
  2.26230841E+00  2.20978486E+00  1.99500152E+00  0.00000000E+00  0.00000000E+00
  0.00000000E+00  0.00000000E+00  0.00000000E+00  0.00000000E+00  0.00000000E+00
  0.00000000E+00  0.00000000E+00  0.00000000E+00  0.00000000E+00  0.00000000E+00
  0.00000000E+00  0.00000000E+00  0.00000000E+00  0.00000000E+00  0.00000000E+00
  0.00000000E+00  0.00000000E+00  0.00000000E+00  0.00000000E+00  0.00000000E+00
  0.00000000E+00  0.00000000E+00  0.00000000E+00  0.00000000E+00  0.00000000E+00
  0.00000000E+00  0.00000000E+00  0.00000000E+00  0.00000000E+00  0.00000000E+00
  0.00000000E+00  0.00000000E+00  0.00000000E+00  0.00000000E+00  0.00000000E+00
  0.00000000E+00  0.00000000E+00  0.00000000E+00  0.00000000E+00  0.00000000E+00
  0.00000000E+00  0.00000000E+00  0.00000000E+00  0.00000000E+00  0.00000000E+00
  0.00000000E+00  0.00000000E+00  0.00000000E+00  0.00000000E+00  0.00000000E+00
  0.00000000E+00  0.00000000E+00  0.00000000E+00  0.00000000E+00  0.00000000E+00
  0.00000000E+00  0.00000000E+00  0.00000000E+00  0.00000000E+00  0.00000000E+00
  0.00000000E+00  0.00000000E+00  0.00000000E+00  0.00000000E+00  0.00000000E+00
  0.00000000E+00  0.00000000E+00  0.00000000E+00  0.00000000E+00  0.00000000E+00
  0.00000000E+00  0.00000000E+00  0.00000000E+00  0.00000000E+00  0.00000000E+00
  0.00000000E+00  0.00000000E+00  0.00000000E+00  0.00000000E+00  2.24409831E+01
  1.81405276E+02  5.95397435E+01  2.29231620E+01  3.10984670E+01  2.18213421E+01
  1.37017741E-01  3.06387311E-21  4.59774648E+00  2.80501162E-02  4.59971644E-03
  2.25906969E-01  3.18258316E-02  2.72955625E-01  6.73659428E-02  1.95380708E+01
  1.63604920E-01  3.28104725E-04  5.86318236E-01  1.11042511E+00  3.58169603E-01
  3.68618967E-02  2.32039075E-21  8.87473871E-02  2.00992074E+00  1.51351909E+00
  1.33650068E+00  0.00000000E+00  0.00000000E+00  0.00000000E+00  0.00000000E+00
  0.00000000E+00  0.00000000E+00  0.00000000E+00  0.00000000E+00  0.00000000E+00
  0.00000000E+00  0.00000000E+00  0.00000000E+00  0.00000000E+00  0.00000000E+00
  0.00000000E+00  0.00000000E+00  0.00000000E+00  0.00000000E+00  0.00000000E+00
  0.00000000E+00  0.00000000E+00  0.00000000E+00  0.00000000E+00  0.00000000E+00
  0.00000000E+00  0.00000000E+00  0.00000000E+00  0.00000000E+00  0.00000000E+00
  0.00000000E+00  0.00000000E+00  0.00000000E+00  0.00000000E+00  0.00000000E+00
  0.00000000E+00  0.00000000E+00  0.00000000E+00  0.00000000E+00  0.00000000E+00
  0.00000000E+00  0.00000000E+00  0.00000000E+00  0.00000000E+00  0.00000000E+00
  0.00000000E+00  0.00000000E+00  0.00000000E+00  0.00000000E+00  0.00000000E+00
  0.00000000E+00  0.00000000E+00  0.00000000E+00  0.00000000E+00  0.00000000E+00
  0.00000000E+00  0.00000000E+00  0.00000000E+00  0.00000000E+00  0.00000000E+00
  0.00000000E+00  0.00000000E+00  0.00000000E+00  0.00000000E+00  0.00000000E+00
  0.00000000E+00  0.00000000E+00  0.00000000E+00  0.00000000E+00  0.00000000E+00
  0.00000000E+00  0.00000000E+00  0.00000000E+00  0.00000000E+00  0.00000000E+00
  0.00000000E+00  0.00000000E+00  0.00000000E+00  0.00000000E+00  0.00000000E+00
  0.00000000E+00  0.00000000E+00  0.00000000E+00  0.00000000E+00  0.00000000E+00
  0.00000000E+00  0.00000000E+00  0.00000000E+00  0.00000000E+00  0.00000000E+00
  0.00000000E+00  0.00000000E+00  0.00000000E+00  0.00000000E+00  0.00000000E+00
  0.00000000E+00  0.00000000E+00  0.00000000E+00  0.00000000E+00  0.00000000E+00
  0.00000000E+00  0.00000000E+00  0.00000000E+00  0.00000000E+00  0.00000000E+00
  0.00000000E+00  0.00000000E+00  0.00000000E+00  0.00000000E+00  0.00000000E+00
  0.00000000E+00  0.00000000E+00  0.00000000E+00  0.00000000E+00  0.00000000E+00
  0.00000000E+00  0.00000000E+00  0.00000000E+00  0.00000000E+00  0.00000000E+00
  0.00000000E+00  0.00000000E+00  0.00000000E+00  0.00000000E+00  0.00000000E+00
  0.00000000E+00  0.00000000E+00  0.00000000E+00  0.00000000E+00  0.00000000E+00
  0.00000000E+00  0.00000000E+00  0.00000000E+00  0.00000000E+00  0.00000000E+00
  0.00000000E+00  0.00000000E+00  0.00000000E+00  0.00000000E+00  0.00000000E+00
  0.00000000E+00  0.00000000E+00  0.00000000E+00  0.00000000E+00  0.00000000E+00
  0.00000000E+00  0.00000000E+00  0.00000000E+00  0.00000000E+00  0.00000000E+00
  0.00000000E+00  0.00000000E+00  0.00000000E+00  0.00000000E+00  0.00000000E+00
  0.00000000E+00  0.00000000E+00  0.00000000E+00  0.00000000E+00  0.00000000E+00
  0.00000000E+00  0.00000000E+00  0.00000000E+00
Anharmonic Vib-Modes                       R   N=         324
  4.18174052E-16 -2.68337113E-02 -5.39067194E-15 -4.46823613E-15  1.13512607E-01
  1.04708588E-14  1.99860737E-14 -2.50153511E-01 -5.87715574E-01  1.99503649E-14
 -2.50153511E-01  5.87715574E-01  1.39635059E-02  8.79358613E-16 -3.50270855E-16
 -1.40201555E-01 -3.69658968E-15  7.16764700E-16  6.13189991E-01  7.37599440E-15
  2.06364083E-14  6.13189991E-01  8.74204076E-15 -1.80588692E-14  5.02160730E-17
 -1.53087707E-15  9.72481895E-02 -5.03079470E-16  6.46201171E-15 -2.13481666E-01
  2.14242417E-15 -3.24478069E-02 -2.71597791E-01  2.25461061E-15  3.24478069E-02
 -2.71597791E-01 -1.26367735E-18 -4.17694227E-16 -8.12438157E-03  2.12410863E-17
  1.57106299E-15  1.11420294E-01 -7.42876662E-16 -3.68170391E-01 -5.34462915E-01
  5.30051375E-16  3.68170391E-01 -5.34462915E-01  1.55313822E-17  4.91804765E-16
  7.86134947E-03 -1.60962684E-16  1.78263556E-15 -7.25566947E-02  2.27362799E-15
  9.03389036E-01  3.07264001E-01 -8.49787856E-16 -9.03389036E-01  3.07264001E-01
 -7.39176643E-18  1.71688695E-04 -6.44766167E-18 -8.73543621E-17 -9.51870976E-02
  2.48272849E-15  6.04292189E-16  5.63964918E-01 -3.52310291E-01  6.70316385E-16
  5.63964918E-01  3.52310291E-01  1.05767025E-02 -4.96699834E-02 -1.09307563E-03
 -1.06196120E-01  2.10243470E-01 -8.29479101E-03  4.64462734E-01 -5.48108006E-01
 -1.02067440E+00  4.64462734E-01 -3.79502769E-01  1.15411560E+00  1.39635059E-02
 -2.68338856E-02 -5.74094777E-15 -1.40201555E-01  1.13582668E-01  1.11858203E-14
  6.13189991E-01 -2.50567845E-01 -5.87458077E-01  6.13189991E-01 -2.50567845E-01
  5.87458077E-01  2.58466894E-02  2.03254131E-02  6.69459611E-06 -2.59515488E-01
 -8.60335576E-02  1.77963720E-03  1.13502521E+00  1.22107252E-01  4.34270907E-01
  1.13502521E+00  2.57479592E-01 -4.55673120E-01  4.60728518E-16 -2.63308979E-02
  9.72545658E-02 -4.88815999E-15  1.12050217E-01 -2.13179683E-01  2.17641882E-14
 -2.76476265E-01 -8.47694343E-01  2.18222211E-14 -2.22369499E-01  3.00700826E-01
  1.39500894E-02 -6.51467961E-16  9.72545658E-02 -1.40066845E-01  2.80079821E-15
 -2.13179683E-01  6.12600819E-01 -2.70533829E-02 -2.73496759E-01  6.12600819E-01
  2.70533829E-02 -2.73496759E-01  9.70989281E-17 -2.96598972E-15  1.87555978E-01
 -9.72501560E-16  1.25589300E-14 -4.08807414E-01  4.13564989E-15 -6.58751551E-02
 -5.41197224E-01  4.36340947E-15  6.58751551E-02 -5.41197224E-01  4.10025722E-16
 -2.63501868E-02 -8.54719394E-03 -4.33834010E-15  1.31550077E-01  1.11910211E-01
  1.87046533E-14 -7.37746692E-01 -1.03209577E+00  1.99436317E-14  7.33136258E-03
 -2.92501907E-02  1.43284177E-02  4.91189515E-16 -8.54719394E-03 -1.43865477E-01
 -2.28291591E-15  1.11910211E-01  6.29214636E-01 -3.72539027E-01 -5.30672979E-01
  6.29214636E-01  3.72539027E-01 -5.30672979E-01  4.95607582E-17 -1.96323270E-15
  9.04318505E-02 -4.88036689E-16  8.08837334E-15 -1.06069765E-01  1.43100466E-15
 -3.98185266E-01 -8.02945142E-01  2.80770741E-15  3.98185266E-01 -8.02945142E-01
  6.55437401E-18 -6.65581255E-16 -1.60432084E-02 -4.83296520E-17  4.92710640E-15
  2.26410740E-01 -3.21034455E-16 -2.92005397E-01 -1.09344092E+00  6.88557481E-16
  2.92005397E-01 -1.09344092E+00  4.58522419E-16 -2.83155977E-02 -9.26213839E-04
 -4.88252801E-15  1.19986060E-01  6.01575124E-02  2.28459040E-14  3.31973389E-01
 -9.62851346E-01  2.07434323E-14 -8.62347585E-01  2.75949207E-01  1.47887830E-02
  9.60129351E-16 -9.26213839E-04 -1.48487807E-01  3.54384037E-16  6.01575124E-02
  6.49431006E-01  5.97160487E-01 -3.43451070E-01  6.49431006E-01 -5.97160487E-01
 -3.43451070E-01  6.77127283E-17 -1.50477913E-15  9.65402809E-02 -6.73360428E-16
  1.07784372E-14 -1.53441976E-01  3.91988323E-15  5.69868135E-01 -6.17810153E-01
  1.94959679E-15 -5.69868135E-01 -6.17810153E-01  1.56088360E-17 -3.92592159E-16
 -9.63974799E-03 -1.42653480E-16  5.81766257E-15  1.74628100E-01  9.74803374E-16
  2.15832439E-01 -8.86728558E-01  2.28575079E-16 -2.15832439E-01 -8.86728558E-01
  3.44623696E-17  5.89904185E-17 -1.89726822E-03 -3.35314153E-16  8.53328421E-15
  1.20295827E-01  3.51511185E-15  1.19480619E+00 -6.86076592E-01 -6.15862109E-16
 -1.19480619E+00 -6.86076592E-01  4.09770855E-16 -2.65963714E-02 -2.14216531E-04
 -4.54423570E-15  1.81169435E-02  5.04795310E-03  2.05053431E-14  2.94664128E-01
 -9.64981962E-01  2.06025909E-14  3.33359340E-01  9.11672618E-01  1.39635059E-02
  2.37514206E-04 -3.43494786E-16 -1.40201555E-01 -9.54657243E-02  3.17381182E-15
  6.13189991E-01  5.64579579E-01 -3.50869213E-01  6.13189991E-01  5.64579579E-01
  3.50869213E-01  4.28377402E-17  1.80929936E-04  9.72545658E-02 -5.89877352E-16
 -9.48968888E-02 -2.13179683E-01  2.75262432E-15  5.35037218E-01 -6.24363343E-01
  2.91196696E-15  5.89143983E-01  7.73698256E-02  5.42174383E-18 -7.41672649E-04
 -8.54719394E-03 -2.09903647E-16 -8.74059150E-02  1.11910211E-01  4.88587922E-16
  1.59588947E-01 -8.88220945E-01  1.83870035E-15  9.04667002E-01 -1.73125013E-01
  1.01195306E-17  2.04784180E-04 -9.26213839E-04 -2.30392382E-16 -7.96545765E-02
  6.01575124E-02  2.21585440E-15  1.06812891E+00 -6.35958827E-01  2.06357924E-16
 -1.26192060E-01 -5.09433123E-02 -1.87669048E-17  4.75028412E-04  1.32933512E-04
 -1.34068232E-16 -1.90931449E-01 -7.63165286E-03  9.20732085E-16  1.06610747E+00
 -6.58412614E-01  1.27095351E-15  1.19221085E+00  7.45064236E-01
Anharmonic number of displacements         I                6
Anharmonic displacement N1                 I                0
Anharmonic displacement flags              I   N=           6
           1           2           3           4           5           6
Anharmonic displacements                   R   N=          72
  4.62925440E-16 -2.68338856E-02 -5.38859573E-15 -4.65757792E-15  1.13582668E-01
  1.04602463E-14  2.04009495E-14 -2.50567845E-01 -5.87458077E-01  2.03702638E-14
 -2.50567845E-01  5.87458077E-01  1.39635059E-02  9.02642606E-16 -3.50331130E-16
 -1.40201555E-01 -3.93037423E-15  7.17369898E-16  6.13189991E-01  8.39848198E-15
  2.06337614E-14  6.13189991E-01  9.76452834E-15 -1.80615161E-14  5.07768921E-17
 -1.52243877E-15  9.72545658E-02 -5.05386212E-16  6.47730225E-15 -2.13179683E-01
  2.20169818E-15 -2.70533829E-02 -2.73496759E-01  2.20501126E-15  2.70533829E-02
 -2.73496759E-01 -1.65271145E-18 -4.11812499E-16 -8.54719394E-03  2.52144840E-17
  1.51895721E-15  1.11910211E-01 -1.46708537E-16 -3.72539027E-01 -5.30672979E-01
 -1.01085664E-16  3.72539027E-01 -5.30672979E-01  1.72405671E-17  2.87266762E-17
 -9.26213839E-04 -1.67526054E-16  4.27411683E-15  6.01575124E-02  7.60449115E-16
  5.97160487E-01 -3.43451070E-01  6.87318047E-16 -5.97160487E-01 -3.43451070E-01
 -8.81364587E-18  2.37514206E-04  6.75764731E-18  8.27944621E-17 -9.54657243E-02
  2.46445127E-15 -3.87678955E-16  5.64579579E-01 -3.50869213E-01 -3.18537898E-16
  5.64579579E-01  3.50869213E-01
ClPar MaxAn                                I              200
ClPar NIntPar                              I               12
ClPar NRealPar                             I               16
ClPar NBits                                I               30
ClPar LenBitVec                            I                1
ClPar Read BitMap                          I   N=         200
           0           0           0           0           0           0
           0           0           0           0           0           0
           0           0           0           0           0           0
           0           0           0           0           0           0
           0           0           0           0           0           0
           0           0           0           0           0           0
           0           0           0           0           0           0
           0           0           0           0           0           0
           0           0           0           0           0           0
           0           0           0           0           0           0
           0           0           0           0           0           0
           0           0           0           0           0           0
           0           0           0           0           0           0
           0           0           0           0           0           0
           0           0           0           0           0           0
           0           0           0           0           0           0
           0           0           0           0           0           0
           0           0           0           0           0           0
           0           0           0           0           0           0
           0           0           0           0           0           0
           0           0           0           0           0           0
           0           0           0           0           0           0
           0           0           0           0           0           0
           0           0           0           0           0           0
           0           0           0           0           0           0
           0           0           0           0           0           0
           0           0           0           0           0           0
           0           0           0           0           0           0
           0           0           0           0           0           0
           0           0           0           0           0           0
           0           0           0           0           0           0
           0           0           0           0           0           0
           0           0           0           0           0           0
           0           0
ClPar Default BitMap                       I   N=         200
      516096      516096      516096      516096      516096      516096
      516096      516096      516096      516096      516096      516096
      516096      516096      516096      516096      516096      516096
      516096      516096      516096      516096      516096      516096
      516096      516096      516096      516096      516096      516096
      516096      516096      516096      516096      516096      516096
      516096      516096      516096      516096      516096      516096
      516096      516096      516096      516096      516096      516096
      516096      516096      516096      516096      516096      516096
      516096      516096      516096      516096      516096      516096
      516096      516096      516096      516096      516096      516096
      516096      516096      516096      516096      516096      516096
      516096      516096      516096      516096      516096      516096
      516096      516096      516096      516096      516096      516096
      516096      516096      122880      122880      122880      122880
      122880      122880      122880      122880      122880      122880
      122880      122880      122880      122880      122880      122880
      122880      122880      122880      122880      122880      122880
      122880      122880      122880      122880      122880      122880
      122880      122880      122880      122880      122880      122880
      122880      122880      122880      122880      122880      122880
      122880      122880      122880      122880      122880      122880
      122880      122880      122880      122880      122880      122880
      122880      122880      122880      122880      122880      122880
      122880      122880      122880      122880      122880      122880
      122880      122880      122880      122880      122880      122880
      122880      122880      122880      122880      122880      122880
      122880      122880      122880      122880      122880      122880
      122880      122880      122880      122880      122880      122880
      122880      122880      122880      122880      122880      122880
      122880      122880      122880      122880      122880      122880
      122880      122880      122880      122880      122880      122880
      122880      122880      122880      122880      122880      122880
      122880      122880
ClPar Int Params                           I   N=        2400
           0           0           0           0           0           0
           0           0           0           0           0           0
           0           0           0           0           0           0
           0           0           0           0           0           0
           0           0           0           0           0           0
           0           0           0           0           0           0
           0           0           0           0           0           0
           0           0           0           0           0           0
           0           0           0           0           0           0
           0           0           0           0           0           0
           0           0           0           0           0           0
           0           0           0           0           0           0
           0           0           0           0           0           0
           0           0           0           0           0           0
           0           0           0           0           0           0
           0           0           0           0           0           0
           0           0           0           0           0           0
           0           0           0           0           0           0
           0           0           0           0           0           0
           0           0           0           0           0           0
           0           0           0           0           0           0
           0           0           0           0           0           0
           0           0           0           0           0           0
           0           0           0           0           0           0
           0           0           0           0           0           0
           0           0           0           0           0           0
           0           0           0           0           0           0
           0           0           0           0           0           0
           0           0           0           0           0           0
           0           0           0           0           0           0
           0           0           0           0           0           0
           0           0           0           0           0           0
           0           0           0           0           0           0
           0           0           0           0           0           0
           0           0           0           0           0           0
           0           0           0           0           0           0
           0           0           0           0           0           0
           0           0           0           0           0           0
           0           0           0           0           0           0
           0           0           0           0           0           0
           0           0           0           0           0           0
           0           0           0           0           0           0
           0           0           0           0           0           0
           0           0           0           0           0           0
           0           0           0           0           0           0
           0           0           0           0           0           0
           0           0           0           0           0           0
           0           0           0           0           0           0
           0           0           0           0           0           0
           0           0           0           0           0           0
           0           0           0           0           0           0
           0           0           0           0           0           0
           0           0           0           0           0           0
           0           0           0           0           0           0
           0           0           0           0           0           0
           0           0           0           0           0           0
           0           0           0           0           0           0
           0           0           0           0           0           0
           0           0           0           0           0           0
           0           0           0           0           0           0
           0           0           0           0           0           0
           0           0           0           0           0           0
           0           0           0           0           0           0
           0           0           0           0           0           0
           0           0           0           0           0           0
           0           0           0           0           0           0
           0           0           0           0           0           0
           0           0           0           0           0           0
           0           0           0           0           0           0
           0           0           0           0           0           0
           0           0           0           0           0           0
           0           0           0           0           0           0
           0           0           0           0           0           0
           0           0           0           0           0           0
           0           0           0           0           0           0
           0           0           0           0           0           0
           0           0           0           0           0           0
           0           0           0           0           0           0
           0           0           0           0           0           0
           0           0           0           0           0           0
           0           0           0           0           0           0
           0           0           0           0           0           0
           0           0           0           0           0           0
           0           0           0           0           0           0
           0           0           0           0           0           0
           0           0           0           0           0           0
           0           0           0           0           0           0
           0           0           0           0           0           0
           0           0           0           0           0           0
           0           0           0           0           0           0
           0           0           0           0           0           0
           0           0           0           0           0           0
           0           0           0           0           0           0
           0           0           0           0           0           0
           0           0           0           0           0           0
           0           0           0           0           0           0
           0           0           0           0           0           0
           0           0           0           0           0           0
           0           0           0           0           0           0
           0           0           0           0           0           0
           0           0           0           0           0           0
           0           0           0           0           0           0
           0           0           0           0           0           0
           0           0           0           0           0           0
           0           0           0           0           0           0
           0           0           0           0           0           0
           0           0           0           0           0           0
           0           0           0           0           0           0
           0           0           0           0           0           0
           0           0           0           0           0           0
           0           0           0           0           0           0
           0           0           0           0           0           0
           0           0           0           0           0           0
           0           0           0           0           0           0
           0           0           0           0           0           0
           0           0           0           0           0           0
           0           0           0           0           0           0
           0           0           0           0           0           0
           0           0           0           0           0           0
           0           0           0           0           0           0
           0           0           0           0           0           0
           0           0           0           0           0           0
           0           0           0           0           0           0
           0           0           0           0           0           0
           0           0           0           0           0           0
           0           0           0           0           0           0
           0           0           0           0           0           0
           0           0           0           0           0           0
           0           0           0           0           0           0
           0           0           0           0           0           0
           0           0           0           0           0           0
           0           0           0           0           0           0
           0           0           0           0           0           0
           0           0           0           0           0           0
           0           0           0           0           0           0
           0           0           0           0           0           0
           0           0           0           0           0           0
           0           0           0           0           0           0
           0           0           0           0           0           0
           0           0           0           0           0           0
           0           0           0           0           0           0
           0           0           0           0           0           0
           0           0           0           0           0           0
           0           0           0           0           0           0
           0           0           0           0           0           0
           0           0           0           0           0           0
           0           0           0           0           0           0
           0           0           0           0           0           0
           0           0           0           0           0           0
           0           0           0           0           0           0
           0           0           0           0           0           0
           0           0           0           0           0           0
           0           0           0           0           0           0
           0           0           0           0           0           0
           0           0           0           0           0           0
           0           0           0           0           0           0
           0           0           0           0           0           0
           0           0           0           0           0           0
           0           0           0           0           0           0
           0           0           0           0           0           0
           0           0           0           0           0           0
           0           0           0           0           0           0
           0           0           0           0           0           0
           0           0           0           0           0           0
           0           0           0           0           0           0
           0           0           0           0           0           0
           0           0           0           0           0           0
           0           0           0           0           0           0
           0           0           0           0           0           0
           0           0           0           0           0           0
           0           0           0           0           0           0
           0           0           0           0           0           0
           0           0           0           0           0           0
           0           0           0           0           0           0
           0           0           0           0           0           0
           0           0           0           0           0           0
           0           0           0           0           0           0
           0           0           0           0           0           0
           0           0           0           0           0           0
           0           0           0           0           0           0
           0           0           0           0           0           0
           0           0           0           0           0           0
           0           0           0           0           0           0
           0           0           0           0           0           0
           0           0           0           0           0           0
           0           0           0           0           0           0
           0           0           0           0           0           0
           0           0           0           0           0           0
           0           0           0           0           0           0
           0           0           0           0           0           0
           0           0           0           0           0           0
           0           0           0           0           0           0
           0           0           0           0           0           0
           0           0           0           0           0           0
           0           0           0           0           0           0
           0           0           0           0           0           0
           0           0           0           0           0           0
           0           0           0           0           0           0
           0           0           0           0           0           0
           0           0           0           0           0           0
           0           0           0           0           0           0
           0           0           0           0           0           0
           0           0           0           0           0           0
           0           0           0           0           0           0
           0           0           0           0           0           0
           0           0           0           0           0           0
           0           0           0           0           0           0
           0           0           0           0           0           0
           0           0           0           0           0           0
           0           0           0           0           0           0
           0           0           0           0           0           0
           0           0           0           0           0           0
           0           0           0           0           0           0
           0           0           0           0           0           0
           0           0           0           0           0           0
           0           0           0           0           0           0
           0           0           0           0           0           0
           0           0           0           0           0           0
           0           0           0           0           0           0
           0           0           0           0           0           0
           0           0           0           0           0           0
           0           0           0           0           0           0
           0           0           0           0           0           0
           0           0           0           0           0           0
           0           0           0           0           0           0
           0           0           0           0           0           0
           0           0           0           0           0           0
           0           0           0           0           0           0
           0           0           0           0           0           0
           0           0           0           0           0           0
           0           0           0           0           0           0
           0           0           0           0           0           0
           0           0           0           0           0           0
           0           0           0           0           0           0
           0           0           0           0           0           0
           0           0           0           0           0           0
           0           0           0           0           0           0
           0           0           0           0           0           0
           0           0           0           0           0           0
           0           0           0           0           0           0
           0           0           0           0           0           0
           0           0           0           0           0           0
           0           0           0           0           0           0
           0           0           0           0           0           0
           0           0           0           0           0           0
           0           0           0           0           0           0
           0           0           0           0           0           0
           0           0           0           0           0           0
           0           0           0           0           0           0
           0           0           0           0           0           0
           0           0           0           0           0           0
           0           0           0           0           0           0
           0           0           0           0           0           0
           0           0           0           0           0           0
           0           0           0           0           0           0
           0           0           0           0           0           0
           0           0           0           0           0           0
           0           0           0           0           0           0
           0           0           0           0           0           0
           0           0           0           0           0           0
           0           0           0           0           0           0
           0           0           0           0           0           0
           0           0           0           0           0           0
           0           0           0           0           0           0
           0           0           0           0           0           0
           0           0           0           0           0           0
           0           0           0           0           0           0
           0           0           0           0           0           0
           0           0           0           0           0           0
           0           0           0           0           0           0
           0           0           0           0           0           0
           0           0           0           0           0           0
           0           0           0           0           0           0
           0           0           0           0           0           0
           0           0           0           0           0           0
           0           0           0           0           0           0
           0           0           0           0           0           0
           0           0           0           0           0           0
           0           0           0           0           0           0
           0           0           0           0           0           0
           0           0           0           0           0           0
           0           0           0           0           0           0
           0           0           0           0           0           0
           0           0           0           0           0           0
           0           0           0           0           0           0
           0           0           0           0           0           0
           0           0           0           0           0           0
           0           0           0           0           0           0
           0           0           0           0           0           0
           0           0           0           0           0           0
           0           0           0           0           0           0
           0           0           0           0           0           0
           0           0           0           0           0           0
           0           0           0           0           0           0
           0           0           0           0           0           0
           0           0           0           0           0           0
           0           0           0           0           0           0
           0           0           0           0           0           0
           0           0           0           0           0           0
           0           0           0           0           0           0
           0           0           0           0           0           0
           0           0           0           0           0           0
           0           0           0           0           0           0
           0           0           0           0           0           0
           0           0           0           0           0           0
           0           0           0           0           0           0
           0           0           0           0           0           0
           0           0           0           0           0           0
           0           0           0           0           0           0
           0           0           0           0           0           0
           0           0           0           0           0           0
           0           0           0           0           0           0
           0           0           0           0           0           0
           0           0           0           0           0           0
           0           0           0           0           0           0
           0           0           0           0           0           0
           0           0           0           0           0           0
           0           0           0           0           0           0
           0           0           0           0           0           0
           0           0           0           0           0           0
           0           0           0           0           0           0
           0           0           0           0           0           0
           0           0           0           0           0           0
           0           0           0           0           0           0
           0           0           0           0           0           0
           0           0           0           0           0           0
           0           0           0           0           0           0
           0           0           0           0           0           0
           0           0           0           0           0           0
           0           0           0           0           0           0
           0           0           0           0           0           0
           0           0           0           0           0           0
           0           0           0           0           0           0
           0           0           0           0           0           0
           0           0           0           0           0           0
           0           0           0           0           0           0
           0           0           0           0           0           0
           0           0           0           0           0           0
           0           0           0           0           0           0
           0           0           0           0           0           0
           0           0           0           0           0           0
           0           0           0           0           0           0
           0           0           0           0           0           0
           0           0           0           0           0           0
           0           0           0           0           0           0
           0           0           0           0           0           0
           0           0           0           0           0           0
           0           0           0           0           0           0
           0           0           0           0           0           0
           0           0           0           0           0           0
           0           0           0           0           0           0
           0           0           0           0           0           0
           0           0           0           0           0           0
           0           0           0           0           0           0
           0           0           0           0           0           0
           0           0           0           0           0           0
           0           0           0           0           0           0
           0           0           0           0           0           0
           0           0           0           0           0           0
           0           0           0           0           0           0
           0           0           0           0           0           0
           0           0           0           0           0           0
           0           0           0           0           0           0
           0           0           0           0           0           0
           0           0           0           0           0           0
           0           0           0           0           0           0
           0           0           0           0           0           0
           0           0           0           0           0           0
           0           0           0           0           0           0
           0           0           0           0           0           0
           0           0           0           0           0           0
           0           0           0           0           0           0
           0           0           0           0           0           0
           0           0           0           0           0           0
           0           0           0           0           0           0
           0           0           0           0           0           0
           0           0           0           0           0           0
           0           0           0           0           0           0
           0           0           0           0           0           0
           0           0           0           0           0           0
           0           0           0           0           0           0
           0           0           0           0           0           0
           0           0           0           0           0           0
           0           0           0           0           0           0
           0           0           0           0           0           0
           0           0           0           0           0           0
           0           0           0           0           0           0
           0           0           0           0           0           0
           0           0           0           0           0           0
           0           0           0           0           0           0
           0           0           0           0           0           0
           0           0           0           0           0           0
           0           0           0           0           0           0
           0           0           0           0           0           0
           0           0           0           0           0           0
           0           0           0           0           0           0
           0           0           0           0           0           0
           0           0           0           0           0           0
           0           0           0           0           0           0
           0           0           0           0           0           0
ClPar Real Params                          R   N=        3200
  0.00000000E+00  0.00000000E+00  0.00000000E+00  0.00000000E+00  0.00000000E+00
  0.00000000E+00  0.00000000E+00  0.00000000E+00  0.00000000E+00  0.00000000E+00
  0.00000000E+00  0.00000000E+00  0.00000000E+00  0.00000000E+00  0.00000000E+00
  0.00000000E+00  0.00000000E+00  0.00000000E+00  0.00000000E+00  0.00000000E+00
  0.00000000E+00  0.00000000E+00  0.00000000E+00  0.00000000E+00  0.00000000E+00
  0.00000000E+00  0.00000000E+00  0.00000000E+00  0.00000000E+00  0.00000000E+00
  0.00000000E+00  0.00000000E+00  0.00000000E+00  0.00000000E+00  0.00000000E+00
  0.00000000E+00  0.00000000E+00  0.00000000E+00  0.00000000E+00  0.00000000E+00
  0.00000000E+00  0.00000000E+00  0.00000000E+00  0.00000000E+00  0.00000000E+00
  0.00000000E+00  0.00000000E+00  0.00000000E+00  0.00000000E+00  0.00000000E+00
  0.00000000E+00  0.00000000E+00  0.00000000E+00  0.00000000E+00  0.00000000E+00
  0.00000000E+00  0.00000000E+00  0.00000000E+00  0.00000000E+00  0.00000000E+00
  0.00000000E+00  0.00000000E+00  0.00000000E+00  0.00000000E+00  0.00000000E+00
  0.00000000E+00  0.00000000E+00  0.00000000E+00  0.00000000E+00  0.00000000E+00
  0.00000000E+00  0.00000000E+00  0.00000000E+00  0.00000000E+00  0.00000000E+00
  0.00000000E+00  0.00000000E+00  0.00000000E+00  0.00000000E+00  0.00000000E+00
  0.00000000E+00  0.00000000E+00  0.00000000E+00  0.00000000E+00  0.00000000E+00
  0.00000000E+00  0.00000000E+00  0.00000000E+00  0.00000000E+00  0.00000000E+00
  0.00000000E+00  0.00000000E+00  0.00000000E+00  0.00000000E+00  0.00000000E+00
  0.00000000E+00  0.00000000E+00  0.00000000E+00  0.00000000E+00  0.00000000E+00
  0.00000000E+00  0.00000000E+00  0.00000000E+00  0.00000000E+00  0.00000000E+00
  0.00000000E+00  0.00000000E+00  0.00000000E+00  0.00000000E+00  0.00000000E+00
  0.00000000E+00  0.00000000E+00  0.00000000E+00  0.00000000E+00  0.00000000E+00
  0.00000000E+00  0.00000000E+00  0.00000000E+00  0.00000000E+00  0.00000000E+00
  0.00000000E+00  0.00000000E+00  0.00000000E+00  0.00000000E+00  0.00000000E+00
  0.00000000E+00  0.00000000E+00  0.00000000E+00  0.00000000E+00  0.00000000E+00
  0.00000000E+00  0.00000000E+00  0.00000000E+00  0.00000000E+00  0.00000000E+00
  0.00000000E+00  0.00000000E+00  0.00000000E+00  0.00000000E+00  0.00000000E+00
  0.00000000E+00  0.00000000E+00  0.00000000E+00  0.00000000E+00  0.00000000E+00
  0.00000000E+00  0.00000000E+00  0.00000000E+00  0.00000000E+00  0.00000000E+00
  0.00000000E+00  0.00000000E+00  0.00000000E+00  0.00000000E+00  0.00000000E+00
  0.00000000E+00  0.00000000E+00  0.00000000E+00  0.00000000E+00  0.00000000E+00
  0.00000000E+00  0.00000000E+00  0.00000000E+00  0.00000000E+00  0.00000000E+00
  0.00000000E+00  0.00000000E+00  0.00000000E+00  0.00000000E+00  0.00000000E+00
  0.00000000E+00  0.00000000E+00  0.00000000E+00  0.00000000E+00  0.00000000E+00
  0.00000000E+00  0.00000000E+00  0.00000000E+00  0.00000000E+00  0.00000000E+00
  0.00000000E+00  0.00000000E+00  0.00000000E+00  0.00000000E+00  0.00000000E+00
  0.00000000E+00  0.00000000E+00  0.00000000E+00  0.00000000E+00  0.00000000E+00
  0.00000000E+00  0.00000000E+00  0.00000000E+00  0.00000000E+00  0.00000000E+00
  0.00000000E+00  0.00000000E+00  0.00000000E+00  0.00000000E+00  0.00000000E+00
  2.26000000E-01  4.43000000E-01  1.01000000E-01  1.47000000E-01  1.92000000E-01
  2.40000000E-01  2.75000000E-01  3.03000000E-01  3.25000000E-01  4.13000000E-01
  9.60000000E-02  1.35000000E-01  1.73000000E-01  2.11000000E-01  2.48000000E-01
  2.86000000E-01  3.23000000E-01  3.60000000E-01  8.20000000E-02  1.04000000E-01
  1.17000000E-01  1.23000000E-01  1.29000000E-01  1.34000000E-01  1.40000000E-01
  1.44000000E-01  1.48000000E-01  1.52000000E-01  1.55000000E-01  1.76000000E-01
  1.98000000E-01  2.19000000E-01  2.39000000E-01  2.60000000E-01  2.80000000E-01
  3.00000000E-01  7.90000000E-02  9.90000000E-02  1.19000000E-01  1.26000000E-01
  1.33000000E-01  1.40000000E-01  1.47000000E-01  1.53000000E-01  1.58000000E-01
  1.63000000E-01  1.57000000E-01  1.70000000E-01  1.87000000E-01  2.03000000E-01
  2.19000000E-01  2.34000000E-01  2.50000000E-01  2.65000000E-01  7.40000000E-02
  9.20000000E-02  1.05000000E-01  1.06000000E-01  1.07000000E-01  1.08000000E-01
  1.09000000E-01  1.10000000E-01  1.11000000E-01  1.12000000E-01  1.13000000E-01
  1.14000000E-01  1.15000000E-01  1.16000000E-01  1.17000000E-01  1.17000000E-01
  1.26000000E-01  1.36000000E-01  1.46000000E-01  1.55000000E-01  1.65000000E-01
  1.73000000E-01  1.82000000E-01  1.90000000E-01  1.62000000E-01  1.78000000E-01
  1.10000000E-01  1.35000000E-01  1.59000000E-01  1.83000000E-01  2.07000000E-01
  2.31000000E-01  6.90000000E-02  9.40000000E-02  1.02000000E-01  1.03000000E-01
  1.05000000E-01  1.07000000E-01  1.09000000E-01  1.11000000E-01  1.13000000E-01
  1.15000000E-01  1.17000000E-01  1.19000000E-01  1.20000000E-01  1.22000000E-01
  1.24000000E-01  1.26000000E-01  1.28000000E-01  1.28000000E-01  1.28000000E-01
  1.28000000E-01  1.28000000E-01  1.28000000E-01  1.28000000E-01  1.28000000E-01
  1.28000000E-01  1.28000000E-01  1.28000000E-01  1.28000000E-01  1.28000000E-01
  1.28000000E-01  1.28000000E-01  1.28000000E-01  1.28000000E-01  1.28000000E-01
  1.28000000E-01  1.28000000E-01  1.28000000E-01  1.28000000E-01  1.28000000E-01
  1.28000000E-01  1.28000000E-01  1.28000000E-01  1.28000000E-01  1.28000000E-01
  1.28000000E-01  1.28000000E-01  1.28000000E-01  1.28000000E-01  1.28000000E-01
  1.28000000E-01  1.28000000E-01  1.28000000E-01  1.28000000E-01  1.28000000E-01
  1.28000000E-01  1.28000000E-01  1.28000000E-01  1.28000000E-01  1.28000000E-01
  1.28000000E-01  1.28000000E-01  1.28000000E-01  1.28000000E-01  1.28000000E-01
  1.28000000E-01  1.28000000E-01  1.28000000E-01  1.28000000E-01  1.28000000E-01
  1.28000000E-01  1.28000000E-01  1.28000000E-01  1.28000000E-01  1.28000000E-01
  1.28000000E-01  1.28000000E-01  1.28000000E-01  1.28000000E-01  1.28000000E-01
  1.28000000E-01  1.28000000E-01  1.28000000E-01  1.28000000E-01  1.28000000E-01
  1.28000000E-01  1.28000000E-01  1.28000000E-01  1.28000000E-01  1.28000000E-01
  1.28000000E-01  1.28000000E-01  1.28000000E-01  1.28000000E-01  1.28000000E-01
  1.28000000E-01  1.28000000E-01  1.28000000E-01  1.28000000E-01  1.28000000E-01
  1.28000000E-01  1.28000000E-01  1.28000000E-01  1.28000000E-01  1.28000000E-01
  1.28000000E-01  1.28000000E-01  1.28000000E-01  1.28000000E-01  1.28000000E-01
  1.28000000E-01  1.28000000E-01  1.28000000E-01  1.28000000E-01  1.28000000E-01
  5.47000000E-01  5.92000000E-01  5.99000000E-01  6.68000000E-01  6.98000000E-01
  7.18000000E-01  7.26000000E-01  7.36000000E-01  7.43000000E-01  7.45000000E-01
  6.07000000E-01  6.66000000E-01  6.93000000E-01  7.09000000E-01  7.20000000E-01
  7.29000000E-01  7.35000000E-01  7.40000000E-01  6.08000000E-01  7.34000000E-01
  7.46000000E-01  7.55000000E-01  7.61000000E-01  7.65000000E-01  7.67000000E-01
  7.60000000E-01  7.49000000E-01  7.33000000E-01  7.08000000E-01  6.48000000E-01
  6.88000000E-01  7.09000000E-01  7.22000000E-01  7.31000000E-01  7.38000000E-01
  7.44000000E-01  6.09000000E-01  7.30000000E-01  7.41000000E-01  7.52000000E-01
  7.58000000E-01  7.63000000E-01  7.66000000E-01  7.58000000E-01  7.48000000E-01
  7.33000000E-01  7.01000000E-01  6.45000000E-01  6.86000000E-01  7.08000000E-01
  7.22000000E-01  7.31000000E-01  7.38000000E-01  7.44000000E-01  6.08000000E-01
  7.28000000E-01  7.32000000E-01  7.32000000E-01  7.32000000E-01  7.32000000E-01
  7.32000000E-01  7.32000000E-01  7.32000000E-01  7.32000000E-01  7.32000000E-01
  7.31000000E-01  7.31000000E-01  7.31000000E-01  7.31000000E-01  7.46000000E-01
  7.37000000E-01  7.46000000E-01  7.51000000E-01  7.55000000E-01  7.58000000E-01
  7.47000000E-01  7.32000000E-01  7.11000000E-01  7.41000000E-01  7.07000000E-01
  7.47000000E-01  7.43000000E-01  7.42000000E-01  7.42000000E-01  7.43000000E-01
  7.44000000E-01  6.05000000E-01  7.24000000E-01  7.26000000E-01  7.26000000E-01
  7.27000000E-01  7.27000000E-01  7.27000000E-01  7.28000000E-01  7.28000000E-01
  7.28000000E-01  7.28000000E-01  7.28000000E-01  7.29000000E-01  7.29000000E-01
  7.29000000E-01  7.29000000E-01  7.29000000E-01  7.29000000E-01  7.29000000E-01
  7.29000000E-01  7.29000000E-01  7.29000000E-01  7.29000000E-01  7.29000000E-01
  7.29000000E-01  7.29000000E-01  7.29000000E-01  7.29000000E-01  7.29000000E-01
  7.29000000E-01  7.29000000E-01  7.29000000E-01  7.29000000E-01  7.29000000E-01
  7.29000000E-01  7.29000000E-01  7.29000000E-01  7.29000000E-01  7.29000000E-01
  7.29000000E-01  7.29000000E-01  7.29000000E-01  7.29000000E-01  7.29000000E-01
  7.29000000E-01  7.29000000E-01  7.29000000E-01  7.29000000E-01  7.29000000E-01
  7.29000000E-01  7.29000000E-01  7.29000000E-01  7.29000000E-01  7.29000000E-01
  7.29000000E-01  7.29000000E-01  7.29000000E-01  7.29000000E-01  7.29000000E-01
  7.29000000E-01  7.29000000E-01  7.29000000E-01  7.29000000E-01  7.29000000E-01
  7.29000000E-01  7.29000000E-01  7.29000000E-01  7.29000000E-01  7.29000000E-01
  7.29000000E-01  7.29000000E-01  7.29000000E-01  7.29000000E-01  7.29000000E-01
  7.29000000E-01  7.29000000E-01  7.29000000E-01  7.29000000E-01  7.29000000E-01
  7.29000000E-01  7.29000000E-01  7.29000000E-01  7.29000000E-01  7.29000000E-01
  7.29000000E-01  7.29000000E-01  7.29000000E-01  7.29000000E-01  7.29000000E-01
  7.29000000E-01  7.29000000E-01  7.29000000E-01  7.29000000E-01  7.29000000E-01
  7.29000000E-01  7.29000000E-01  7.29000000E-01  7.29000000E-01  7.29000000E-01
  7.29000000E-01  7.29000000E-01  7.29000000E-01  7.29000000E-01  7.29000000E-01
  7.29000000E-01  7.29000000E-01  7.29000000E-01  7.29000000E-01  7.29000000E-01
  7.29000000E-01  7.29000000E-01  7.29000000E-01  7.29000000E-01  7.29000000E-01
  1.00000000E+00  1.70400000E+00  3.23000000E-01  3.89000000E-01  4.67000000E-01
  5.67000000E-01  6.36000000E-01  6.64000000E-01  6.96000000E-01  8.79000000E-01
  3.07000000E-01  3.48000000E-01  4.00000000E-01  4.54000000E-01  5.09000000E-01
  5.65000000E-01  6.21000000E-01  6.77000000E-01  2.56000000E-01  3.50000000E-01
  3.64000000E-01  3.62000000E-01  3.62000000E-01  3.62000000E-01  3.62000000E-01
  3.65000000E-01  3.69000000E-01  3.75000000E-01  3.86000000E-01  4.46000000E-01
  4.55000000E-01  4.74000000E-01  4.96000000E-01  5.20000000E-01  5.45000000E-01
  5.70000000E-01  2.45000000E-01  3.22000000E-01  3.55000000E-01  3.59000000E-01
  3.64000000E-01  3.70000000E-01  3.76000000E-01  3.85000000E-01  3.95000000E-01
  4.08000000E-01  3.76000000E-01  4.23000000E-01  4.22000000E-01  4.32000000E-01
  4.45000000E-01  4.59000000E-01  4.75000000E-01  4.91000000E-01  2.28000000E-01
  2.92000000E-01  2.89000000E-01  2.92000000E-01  2.95000000E-01  2.98000000E-01
  3.00000000E-01  3.03000000E-01  3.06000000E-01  3.09000000E-01  3.12000000E-01
  3.15000000E-01  3.18000000E-01  3.21000000E-01  3.24000000E-01  3.61000000E-01
  3.69000000E-01  3.70000000E-01  3.72000000E-01  3.75000000E-01  3.78000000E-01
  3.85000000E-01  3.94000000E-01  4.07000000E-01  5.26000000E-01  6.21000000E-01
  3.36000000E-01  3.54000000E-01  3.71000000E-01  3.86000000E-01  4.02000000E-01
  4.17000000E-01  2.09000000E-01  2.94000000E-01  2.65000000E-01  2.72000000E-01
  2.78000000E-01  2.84000000E-01  2.91000000E-01  2.97000000E-01  3.03000000E-01
  3.10000000E-01  3.16000000E-01  3.22000000E-01  3.29000000E-01  3.35000000E-01
  3.41000000E-01  3.48000000E-01  3.54000000E-01  3.54000000E-01  3.54000000E-01
  3.54000000E-01  3.54000000E-01  3.54000000E-01  3.54000000E-01  3.54000000E-01
  3.54000000E-01  3.54000000E-01  3.54000000E-01  3.54000000E-01  3.54000000E-01
  3.54000000E-01  3.54000000E-01  3.54000000E-01  3.54000000E-01  3.54000000E-01
  3.54000000E-01  3.54000000E-01  3.54000000E-01  3.54000000E-01  3.54000000E-01
  3.54000000E-01  3.54000000E-01  3.54000000E-01  3.54000000E-01  3.54000000E-01
  3.54000000E-01  3.54000000E-01  3.54000000E-01  3.54000000E-01  3.54000000E-01
  3.54000000E-01  3.54000000E-01  3.54000000E-01  3.54000000E-01  3.54000000E-01
  3.54000000E-01  3.54000000E-01  3.54000000E-01  3.54000000E-01  3.54000000E-01
  3.54000000E-01  3.54000000E-01  3.54000000E-01  3.54000000E-01  3.54000000E-01
  3.54000000E-01  3.54000000E-01  3.54000000E-01  3.54000000E-01  3.54000000E-01
  3.54000000E-01  3.54000000E-01  3.54000000E-01  3.54000000E-01  3.54000000E-01
  3.54000000E-01  3.54000000E-01  3.54000000E-01  3.54000000E-01  3.54000000E-01
  3.54000000E-01  3.54000000E-01  3.54000000E-01  3.54000000E-01  3.54000000E-01
  3.54000000E-01  3.54000000E-01  3.54000000E-01  3.54000000E-01  3.54000000E-01
  3.54000000E-01  3.54000000E-01  3.54000000E-01  3.54000000E-01  3.54000000E-01
  3.54000000E-01  3.54000000E-01  3.54000000E-01  3.54000000E-01  3.54000000E-01
  3.54000000E-01  3.54000000E-01  3.54000000E-01  3.54000000E-01  3.54000000E-01
  3.54000000E-01  3.54000000E-01  3.54000000E-01  3.54000000E-01  3.54000000E-01
  3.54000000E-01  3.54000000E-01  3.54000000E-01  3.54000000E-01  3.54000000E-01
  2.74000000E-01  2.96000000E-01  5.80000000E-02  4.40000000E-02  3.90000000E-02
  3.90000000E-02  3.60000000E-02  3.20000000E-02  2.90000000E-02  3.30000000E-02
  5.50000000E-02  3.90000000E-02  3.30000000E-02  3.00000000E-02  2.80000000E-02
  2.60000000E-02  2.50000000E-02  2.50000000E-02  4.50000000E-02  4.40000000E-02
  3.30000000E-02  2.50000000E-02  2.10000000E-02  1.80000000E-02  1.50000000E-02
  1.80000000E-02  2.10000000E-02  2.50000000E-02  3.30000000E-02  5.00000000E-02
  3.80000000E-02  3.10000000E-02  2.70000000E-02  2.40000000E-02  2.20000000E-02
  2.10000000E-02  4.30000000E-02  4.00000000E-02  3.20000000E-02  2.50000000E-02
  2.10000000E-02  1.80000000E-02  1.60000000E-02  1.90000000E-02  2.20000000E-02
  2.80000000E-02  3.10000000E-02  4.70000000E-02  3.40000000E-02  2.80000000E-02
  2.40000000E-02  2.10000000E-02  1.90000000E-02  1.80000000E-02  3.90000000E-02
  3.60000000E-02  2.50000000E-02  2.50000000E-02  2.50000000E-02  2.60000000E-02
  2.60000000E-02  2.60000000E-02  2.70000000E-02  2.70000000E-02  2.70000000E-02
  2.70000000E-02  2.80000000E-02  2.80000000E-02  2.80000000E-02  3.30000000E-02
  3.30000000E-02  2.60000000E-02  2.10000000E-02  1.80000000E-02  1.60000000E-02
  1.80000000E-02  2.20000000E-02  2.60000000E-02  4.90000000E-02  8.20000000E-02
  3.00000000E-02  2.40000000E-02  2.10000000E-02  1.80000000E-02  1.60000000E-02
  1.50000000E-02  3.50000000E-02  3.60000000E-02  2.20000000E-02  2.30000000E-02
  2.40000000E-02  2.40000000E-02  2.50000000E-02  2.50000000E-02  2.60000000E-02
  2.70000000E-02  2.70000000E-02  2.80000000E-02  2.80000000E-02  2.90000000E-02
  3.00000000E-02  3.00000000E-02  3.10000000E-02  3.10000000E-02  3.10000000E-02
  3.10000000E-02  3.10000000E-02  3.10000000E-02  3.10000000E-02  3.10000000E-02
  3.10000000E-02  3.10000000E-02  3.10000000E-02  3.10000000E-02  3.10000000E-02
  3.10000000E-02  3.10000000E-02  3.10000000E-02  3.10000000E-02  3.10000000E-02
  3.10000000E-02  3.10000000E-02  3.10000000E-02  3.10000000E-02  3.10000000E-02
  3.10000000E-02  3.10000000E-02  3.10000000E-02  3.10000000E-02  3.10000000E-02
  3.10000000E-02  3.10000000E-02  3.10000000E-02  3.10000000E-02  3.10000000E-02
  3.10000000E-02  3.10000000E-02  3.10000000E-02  3.10000000E-02  3.10000000E-02
  3.10000000E-02  3.10000000E-02  3.10000000E-02  3.10000000E-02  3.10000000E-02
  3.10000000E-02  3.10000000E-02  3.10000000E-02  3.10000000E-02  3.10000000E-02
  3.10000000E-02  3.10000000E-02  3.10000000E-02  3.10000000E-02  3.10000000E-02
  3.10000000E-02  3.10000000E-02  3.10000000E-02  3.10000000E-02  3.10000000E-02
  3.10000000E-02  3.10000000E-02  3.10000000E-02  3.10000000E-02  3.10000000E-02
  3.10000000E-02  3.10000000E-02  3.10000000E-02  3.10000000E-02  3.10000000E-02
  3.10000000E-02  3.10000000E-02  3.10000000E-02  3.10000000E-02  3.10000000E-02
  3.10000000E-02  3.10000000E-02  3.10000000E-02  3.10000000E-02  3.10000000E-02
  3.10000000E-02  3.10000000E-02  3.10000000E-02  3.10000000E-02  3.10000000E-02
  3.10000000E-02  3.10000000E-02  3.10000000E-02  3.10000000E-02  3.10000000E-02
  3.10000000E-02  3.10000000E-02  3.10000000E-02  3.10000000E-02  3.10000000E-02
  3.10000000E-02  3.10000000E-02  3.10000000E-02  3.10000000E-02  3.10000000E-02
 -5.92770000E-01 -9.17860000E-01 -2.48668000E+00 -8.36430000E-01 -3.18470000E-01
 -4.55790000E-01 -5.70730000E-01 -6.77940000E-01 -7.69860000E-01 -8.51140000E-01
 -1.51908000E+00 -3.18830000E-01 -2.17900000E-01 -3.01260000E-01 -3.72750000E-01
 -4.15890000E-01 -4.45930000E-01 -5.91320000E-01 -9.56370000E-01 -2.88450000E-01
 -4.87320000E-01 -6.34280000E-01 -7.17490000E-01 -7.91980000E-01 -8.68490000E-01
 -9.17520000E-01 -9.54890000E-01 -9.88460000E-01 -1.50055000E+00 -2.92560000E-01
 -2.14960000E-01 -2.91180000E-01 -3.42080000E-01 -3.84480000E-01 -4.34940000E-01
 -5.24310000E-01 -8.10070000E-01 -2.58460000E-01 -4.35550000E-01 -5.32740000E-01
 -6.08450000E-01 -6.10260000E-01 -7.58920000E-01 -8.90130000E-01 -8.45780000E-01
 -8.69340000E-01 -1.38234000E+00 -2.64850000E-01 -1.97280000E-01 -2.65040000E-01
 -2.94470000E-01 -3.16570000E-01 -3.63590000E-01 -4.57840000E-01 -8.61830000E-01
 -1.33004000E+00 -6.82880000E-01 -6.25540000E-01 -6.35430000E-01 -8.79690000E-01
 -9.02690000E-01 -9.59650000E-01 -1.01869000E+00 -6.81170000E-01 -7.96500000E-01
 -9.04950000E-01 -8.34790000E-01 -9.01560000E-01 -9.74130000E-01 -1.03326000E+00
 -7.15490000E-01 -7.83960000E-01 -8.28380000E-01 -5.61040000E-01 -1.03841000E+00
 -8.62500000E-01 -9.59300000E-01 -1.01755000E+00 -7.64900000E-01 -1.29467000E+00
 -1.92740000E-01 -2.56010000E-01 -3.19820000E-01 -1.94660000E-01 -2.60090000E-01
 -4.27990000E-01  0.00000000E+00  0.00000000E+00  0.00000000E+00  0.00000000E+00
  0.00000000E+00  0.00000000E+00  0.00000000E+00  0.00000000E+00  0.00000000E+00
  0.00000000E+00  0.00000000E+00  0.00000000E+00  0.00000000E+00  0.00000000E+00
  0.00000000E+00  0.00000000E+00  0.00000000E+00  0.00000000E+00  0.00000000E+00
  0.00000000E+00  0.00000000E+00  0.00000000E+00  0.00000000E+00  0.00000000E+00
  0.00000000E+00  0.00000000E+00  0.00000000E+00  0.00000000E+00  0.00000000E+00
  0.00000000E+00  0.00000000E+00  0.00000000E+00  0.00000000E+00  0.00000000E+00
  0.00000000E+00  0.00000000E+00  0.00000000E+00  0.00000000E+00  0.00000000E+00
  0.00000000E+00  0.00000000E+00  0.00000000E+00  0.00000000E+00  0.00000000E+00
  0.00000000E+00  0.00000000E+00  0.00000000E+00  0.00000000E+00  0.00000000E+00
  0.00000000E+00  0.00000000E+00  0.00000000E+00  0.00000000E+00  0.00000000E+00
  0.00000000E+00  0.00000000E+00  0.00000000E+00  0.00000000E+00  0.00000000E+00
  0.00000000E+00  0.00000000E+00  0.00000000E+00  0.00000000E+00  0.00000000E+00
  0.00000000E+00  0.00000000E+00  0.00000000E+00  0.00000000E+00  0.00000000E+00
  0.00000000E+00  0.00000000E+00  0.00000000E+00  0.00000000E+00  0.00000000E+00
  0.00000000E+00  0.00000000E+00  0.00000000E+00  0.00000000E+00  0.00000000E+00
  0.00000000E+00  0.00000000E+00  0.00000000E+00  0.00000000E+00  0.00000000E+00
  0.00000000E+00  0.00000000E+00  0.00000000E+00  0.00000000E+00  0.00000000E+00
  0.00000000E+00  0.00000000E+00  0.00000000E+00  0.00000000E+00  0.00000000E+00
  0.00000000E+00  0.00000000E+00  0.00000000E+00  0.00000000E+00  0.00000000E+00
  0.00000000E+00  0.00000000E+00  0.00000000E+00  0.00000000E+00  0.00000000E+00
  0.00000000E+00  0.00000000E+00  0.00000000E+00  0.00000000E+00  0.00000000E+00
  0.00000000E+00  0.00000000E+00  0.00000000E+00  0.00000000E+00  0.00000000E+00
  1.90440000E+00  1.36430000E+00  4.84000000E-01  7.31600000E+00  9.24030000E+00
  8.78200000E+00  5.61290000E+00  4.83340000E+00  3.24870000E+00  2.71090000E+00
  2.01130000E+00  1.50282000E+01  1.46788000E+01  2.13546000E+01  2.38290000E+01
  1.98022000E+01  1.50468000E+01  1.09745000E+01  1.27219000E+01  1.51949000E+01
  1.57342000E+01  2.79222000E+01  1.61366000E+01  2.21252000E+01  2.45676000E+01
  1.96016000E+01  1.79818000E+01  1.72396000E+01  5.01500000E+00  1.92898000E+01
  2.34477000E+01  2.23993000E+01  2.96586000E+01  2.60081000E+01  2.15580000E+01
  1.69594000E+01  1.56479000E+01  1.86897000E+01  1.93530000E+01  3.43444000E+01
  1.98480000E+01  2.72140000E+01  3.02182000E+01  2.41099000E+01  2.21176000E+01
  2.12047000E+01  7.56690000E+00  2.37264000E+01  2.93879000E+01  3.01278000E+01
  4.19382000E+01  3.85203000E+01  3.39511000E+01  2.75774000E+01  1.56460000E+01
  1.04460000E+01  2.01830000E+01  4.99540000E+01  4.76430000E+01  1.18690000E+01
  1.08670000E+01  9.96100000E+00  9.18700000E+00  3.67980000E+01  1.34070000E+01
  9.38200000E+00  9.81700000E+00  8.90800000E+00  8.40700000E+00  8.05800000E+00
  1.29600000E+01  2.67920000E+01  2.49300000E+01  3.45630000E+01  1.11860000E+01
  1.09440000E+01  1.01270000E+01  9.40400000E+00  1.36660000E+01  7.81000000E+00
  6.93600000E+01  5.86630000E+01  4.79690000E+01  4.52740000E+01  3.92290000E+01
  3.30660000E+01  0.00000000E+00  0.00000000E+00  0.00000000E+00  0.00000000E+00
  0.00000000E+00  0.00000000E+00  0.00000000E+00  0.00000000E+00  0.00000000E+00
  0.00000000E+00  0.00000000E+00  0.00000000E+00  0.00000000E+00  0.00000000E+00
  0.00000000E+00  0.00000000E+00  0.00000000E+00  0.00000000E+00  0.00000000E+00
  0.00000000E+00  0.00000000E+00  0.00000000E+00  0.00000000E+00  0.00000000E+00
  0.00000000E+00  0.00000000E+00  0.00000000E+00  0.00000000E+00  0.00000000E+00
  0.00000000E+00  0.00000000E+00  0.00000000E+00  0.00000000E+00  0.00000000E+00
  0.00000000E+00  0.00000000E+00  0.00000000E+00  0.00000000E+00  0.00000000E+00
  0.00000000E+00  0.00000000E+00  0.00000000E+00  0.00000000E+00  0.00000000E+00
  0.00000000E+00  0.00000000E+00  0.00000000E+00  0.00000000E+00  0.00000000E+00
  0.00000000E+00  0.00000000E+00  0.00000000E+00  0.00000000E+00  0.00000000E+00
  0.00000000E+00  0.00000000E+00  0.00000000E+00  0.00000000E+00  0.00000000E+00
  0.00000000E+00  0.00000000E+00  0.00000000E+00  0.00000000E+00  0.00000000E+00
  0.00000000E+00  0.00000000E+00  0.00000000E+00  0.00000000E+00  0.00000000E+00
  0.00000000E+00  0.00000000E+00  0.00000000E+00  0.00000000E+00  0.00000000E+00
  0.00000000E+00  0.00000000E+00  0.00000000E+00  0.00000000E+00  0.00000000E+00
  0.00000000E+00  0.00000000E+00  0.00000000E+00  0.00000000E+00  0.00000000E+00
  0.00000000E+00  0.00000000E+00  0.00000000E+00  0.00000000E+00  0.00000000E+00
  0.00000000E+00  0.00000000E+00  0.00000000E+00  0.00000000E+00  0.00000000E+00
  0.00000000E+00  0.00000000E+00  0.00000000E+00  0.00000000E+00  0.00000000E+00
  0.00000000E+00  0.00000000E+00  0.00000000E+00  0.00000000E+00  0.00000000E+00
  0.00000000E+00  0.00000000E+00  0.00000000E+00  0.00000000E+00  0.00000000E+00
  0.00000000E+00  0.00000000E+00  0.00000000E+00  0.00000000E+00  0.00000000E+00
  0.00000000E+00  0.00000000E+00  0.00000000E+00  0.00000000E+00  0.00000000E+00
  0.00000000E+00  0.00000000E+00  0.00000000E+00  0.00000000E+00  0.00000000E+00
  0.00000000E+00  0.00000000E+00  0.00000000E+00  0.00000000E+00  0.00000000E+00
  0.00000000E+00  0.00000000E+00  0.00000000E+00  0.00000000E+00  0.00000000E+00
  0.00000000E+00  0.00000000E+00  0.00000000E+00  0.00000000E+00  0.00000000E+00
  0.00000000E+00  0.00000000E+00  0.00000000E+00  0.00000000E+00  0.00000000E+00
  0.00000000E+00  0.00000000E+00  0.00000000E+00  0.00000000E+00  0.00000000E+00
  0.00000000E+00  0.00000000E+00  0.00000000E+00  0.00000000E+00  0.00000000E+00
  0.00000000E+00  0.00000000E+00  0.00000000E+00  0.00000000E+00  0.00000000E+00
  0.00000000E+00  0.00000000E+00  0.00000000E+00  0.00000000E+00  0.00000000E+00
  0.00000000E+00  0.00000000E+00  0.00000000E+00  0.00000000E+00  0.00000000E+00
  0.00000000E+00  0.00000000E+00  0.00000000E+00  0.00000000E+00  0.00000000E+00
  0.00000000E+00  0.00000000E+00  0.00000000E+00  0.00000000E+00  0.00000000E+00
  0.00000000E+00  0.00000000E+00  0.00000000E+00  0.00000000E+00  0.00000000E+00
  0.00000000E+00  0.00000000E+00  0.00000000E+00  0.00000000E+00  0.00000000E+00
  0.00000000E+00  0.00000000E+00  0.00000000E+00  0.00000000E+00  0.00000000E+00
  0.00000000E+00  0.00000000E+00  0.00000000E+00  0.00000000E+00  0.00000000E+00
  0.00000000E+00  0.00000000E+00  0.00000000E+00  0.00000000E+00  0.00000000E+00
  0.00000000E+00  0.00000000E+00  0.00000000E+00  0.00000000E+00  0.00000000E+00
  0.00000000E+00  0.00000000E+00  0.00000000E+00  0.00000000E+00  0.00000000E+00
  0.00000000E+00  0.00000000E+00  0.00000000E+00  0.00000000E+00  0.00000000E+00
  0.00000000E+00  0.00000000E+00  0.00000000E+00  0.00000000E+00  0.00000000E+00
  0.00000000E+00  0.00000000E+00  0.00000000E+00  0.00000000E+00  0.00000000E+00
  0.00000000E+00  0.00000000E+00  0.00000000E+00  0.00000000E+00  0.00000000E+00
  0.00000000E+00  0.00000000E+00  0.00000000E+00  0.00000000E+00  0.00000000E+00
  0.00000000E+00  0.00000000E+00  0.00000000E+00  0.00000000E+00  0.00000000E+00
  0.00000000E+00  0.00000000E+00  0.00000000E+00  0.00000000E+00  0.00000000E+00
  0.00000000E+00  0.00000000E+00  0.00000000E+00  0.00000000E+00  0.00000000E+00
  0.00000000E+00  0.00000000E+00  0.00000000E+00  0.00000000E+00  0.00000000E+00
  0.00000000E+00  0.00000000E+00  0.00000000E+00  0.00000000E+00  0.00000000E+00
  0.00000000E+00  0.00000000E+00  0.00000000E+00  0.00000000E+00  0.00000000E+00
  0.00000000E+00  0.00000000E+00  0.00000000E+00  0.00000000E+00  0.00000000E+00
  0.00000000E+00  0.00000000E+00  0.00000000E+00  0.00000000E+00  0.00000000E+00
  0.00000000E+00  0.00000000E+00  0.00000000E+00  0.00000000E+00  0.00000000E+00
  0.00000000E+00  0.00000000E+00  0.00000000E+00  0.00000000E+00  0.00000000E+00
  0.00000000E+00  0.00000000E+00  0.00000000E+00  0.00000000E+00  0.00000000E+00
  0.00000000E+00  0.00000000E+00  0.00000000E+00  0.00000000E+00  0.00000000E+00
  0.00000000E+00  0.00000000E+00  0.00000000E+00  0.00000000E+00  0.00000000E+00
  0.00000000E+00  0.00000000E+00  0.00000000E+00  0.00000000E+00  0.00000000E+00
  0.00000000E+00  0.00000000E+00  0.00000000E+00  0.00000000E+00  0.00000000E+00
  0.00000000E+00  0.00000000E+00  0.00000000E+00  0.00000000E+00  0.00000000E+00
  0.00000000E+00  0.00000000E+00  0.00000000E+00  0.00000000E+00  0.00000000E+00
  0.00000000E+00  0.00000000E+00  0.00000000E+00  0.00000000E+00  0.00000000E+00
  0.00000000E+00  0.00000000E+00  0.00000000E+00  0.00000000E+00  0.00000000E+00
  0.00000000E+00  0.00000000E+00  0.00000000E+00  0.00000000E+00  0.00000000E+00
  0.00000000E+00  0.00000000E+00  0.00000000E+00  0.00000000E+00  0.00000000E+00
  0.00000000E+00  0.00000000E+00  0.00000000E+00  0.00000000E+00  0.00000000E+00
  0.00000000E+00  0.00000000E+00  0.00000000E+00  0.00000000E+00  0.00000000E+00
  0.00000000E+00  0.00000000E+00  0.00000000E+00  0.00000000E+00  0.00000000E+00
  0.00000000E+00  0.00000000E+00  0.00000000E+00  0.00000000E+00  0.00000000E+00
  0.00000000E+00  0.00000000E+00  0.00000000E+00  0.00000000E+00  0.00000000E+00
  0.00000000E+00  0.00000000E+00  0.00000000E+00  0.00000000E+00  0.00000000E+00
  0.00000000E+00  0.00000000E+00  0.00000000E+00  0.00000000E+00  0.00000000E+00
  0.00000000E+00  0.00000000E+00  0.00000000E+00  0.00000000E+00  0.00000000E+00
  0.00000000E+00  0.00000000E+00  0.00000000E+00  0.00000000E+00  0.00000000E+00
  0.00000000E+00  0.00000000E+00  0.00000000E+00  0.00000000E+00  0.00000000E+00
  0.00000000E+00  0.00000000E+00  0.00000000E+00  0.00000000E+00  0.00000000E+00
  0.00000000E+00  0.00000000E+00  0.00000000E+00  0.00000000E+00  0.00000000E+00
  0.00000000E+00  0.00000000E+00  0.00000000E+00  0.00000000E+00  0.00000000E+00
  0.00000000E+00  0.00000000E+00  0.00000000E+00  0.00000000E+00  0.00000000E+00
  0.00000000E+00  0.00000000E+00  0.00000000E+00  0.00000000E+00  0.00000000E+00
  0.00000000E+00  0.00000000E+00  0.00000000E+00  0.00000000E+00  0.00000000E+00
  0.00000000E+00  0.00000000E+00  0.00000000E+00  0.00000000E+00  0.00000000E+00
  0.00000000E+00  0.00000000E+00  0.00000000E+00  0.00000000E+00  0.00000000E+00
  0.00000000E+00  0.00000000E+00  0.00000000E+00  0.00000000E+00  0.00000000E+00
  0.00000000E+00  0.00000000E+00  0.00000000E+00  0.00000000E+00  0.00000000E+00
  0.00000000E+00  0.00000000E+00  0.00000000E+00  0.00000000E+00  0.00000000E+00
  0.00000000E+00  0.00000000E+00  0.00000000E+00  0.00000000E+00  0.00000000E+00
  0.00000000E+00  0.00000000E+00  0.00000000E+00  0.00000000E+00  0.00000000E+00
  0.00000000E+00  0.00000000E+00  0.00000000E+00  0.00000000E+00  0.00000000E+00
  0.00000000E+00  0.00000000E+00  0.00000000E+00  0.00000000E+00  0.00000000E+00
  0.00000000E+00  0.00000000E+00  0.00000000E+00  0.00000000E+00  0.00000000E+00
  0.00000000E+00  0.00000000E+00  0.00000000E+00  0.00000000E+00  0.00000000E+00
  0.00000000E+00  0.00000000E+00  0.00000000E+00  0.00000000E+00  0.00000000E+00
  0.00000000E+00  0.00000000E+00  0.00000000E+00  0.00000000E+00  0.00000000E+00
  0.00000000E+00  0.00000000E+00  0.00000000E+00  0.00000000E+00  0.00000000E+00
  0.00000000E+00  0.00000000E+00  0.00000000E+00  0.00000000E+00  0.00000000E+00
  0.00000000E+00  0.00000000E+00  0.00000000E+00  0.00000000E+00  0.00000000E+00
  0.00000000E+00  0.00000000E+00  0.00000000E+00  0.00000000E+00  0.00000000E+00
  0.00000000E+00  0.00000000E+00  0.00000000E+00  0.00000000E+00  0.00000000E+00
  0.00000000E+00  0.00000000E+00  0.00000000E+00  0.00000000E+00  0.00000000E+00
  0.00000000E+00  0.00000000E+00  0.00000000E+00  0.00000000E+00  0.00000000E+00
  0.00000000E+00  0.00000000E+00  0.00000000E+00  0.00000000E+00  0.00000000E+00
  0.00000000E+00  0.00000000E+00  0.00000000E+00  0.00000000E+00  0.00000000E+00
  0.00000000E+00  0.00000000E+00  0.00000000E+00  0.00000000E+00  0.00000000E+00
  0.00000000E+00  0.00000000E+00  0.00000000E+00  0.00000000E+00  0.00000000E+00
  0.00000000E+00  0.00000000E+00  0.00000000E+00  0.00000000E+00  0.00000000E+00
  0.00000000E+00  0.00000000E+00  0.00000000E+00  0.00000000E+00  0.00000000E+00
  0.00000000E+00  0.00000000E+00  0.00000000E+00  0.00000000E+00  0.00000000E+00
  0.00000000E+00  0.00000000E+00  0.00000000E+00  0.00000000E+00  0.00000000E+00
  0.00000000E+00  0.00000000E+00  0.00000000E+00  0.00000000E+00  0.00000000E+00
  0.00000000E+00  0.00000000E+00  0.00000000E+00  0.00000000E+00  0.00000000E+00
  0.00000000E+00  0.00000000E+00  0.00000000E+00  0.00000000E+00  0.00000000E+00
  0.00000000E+00  0.00000000E+00  0.00000000E+00  0.00000000E+00  0.00000000E+00
  0.00000000E+00  0.00000000E+00  0.00000000E+00  0.00000000E+00  0.00000000E+00
  0.00000000E+00  0.00000000E+00  0.00000000E+00  0.00000000E+00  0.00000000E+00
  0.00000000E+00  0.00000000E+00  0.00000000E+00  0.00000000E+00  0.00000000E+00
  0.00000000E+00  0.00000000E+00  0.00000000E+00  0.00000000E+00  0.00000000E+00
  0.00000000E+00  0.00000000E+00  0.00000000E+00  0.00000000E+00  0.00000000E+00
  0.00000000E+00  0.00000000E+00  0.00000000E+00  0.00000000E+00  0.00000000E+00
  0.00000000E+00  0.00000000E+00  0.00000000E+00  0.00000000E+00  0.00000000E+00
  0.00000000E+00  0.00000000E+00  0.00000000E+00  0.00000000E+00  0.00000000E+00
  0.00000000E+00  0.00000000E+00  0.00000000E+00  0.00000000E+00  0.00000000E+00
  0.00000000E+00  0.00000000E+00  0.00000000E+00  0.00000000E+00  0.00000000E+00
  0.00000000E+00  0.00000000E+00  0.00000000E+00  0.00000000E+00  0.00000000E+00
  0.00000000E+00  0.00000000E+00  0.00000000E+00  0.00000000E+00  0.00000000E+00
  0.00000000E+00  0.00000000E+00  0.00000000E+00  0.00000000E+00  0.00000000E+00
  0.00000000E+00  0.00000000E+00  0.00000000E+00  0.00000000E+00  0.00000000E+00
  0.00000000E+00  0.00000000E+00  0.00000000E+00  0.00000000E+00  0.00000000E+00
  0.00000000E+00  0.00000000E+00  0.00000000E+00  0.00000000E+00  0.00000000E+00
  0.00000000E+00  0.00000000E+00  0.00000000E+00  0.00000000E+00  0.00000000E+00
  0.00000000E+00  0.00000000E+00  0.00000000E+00  0.00000000E+00  0.00000000E+00
  0.00000000E+00  0.00000000E+00  0.00000000E+00  0.00000000E+00  0.00000000E+00
  0.00000000E+00  0.00000000E+00  0.00000000E+00  0.00000000E+00  0.00000000E+00
  0.00000000E+00  0.00000000E+00  0.00000000E+00  0.00000000E+00  0.00000000E+00
  0.00000000E+00  0.00000000E+00  0.00000000E+00  0.00000000E+00  0.00000000E+00
  0.00000000E+00  0.00000000E+00  0.00000000E+00  0.00000000E+00  0.00000000E+00
  0.00000000E+00  0.00000000E+00  0.00000000E+00  0.00000000E+00  0.00000000E+00
  0.00000000E+00  0.00000000E+00  0.00000000E+00  0.00000000E+00  0.00000000E+00
  0.00000000E+00  0.00000000E+00  0.00000000E+00  0.00000000E+00  0.00000000E+00
  0.00000000E+00  0.00000000E+00  0.00000000E+00  0.00000000E+00  0.00000000E+00
  0.00000000E+00  0.00000000E+00  0.00000000E+00  0.00000000E+00  0.00000000E+00
  0.00000000E+00  0.00000000E+00  0.00000000E+00  0.00000000E+00  0.00000000E+00
  0.00000000E+00  0.00000000E+00  0.00000000E+00  0.00000000E+00  0.00000000E+00
  0.00000000E+00  0.00000000E+00  0.00000000E+00  0.00000000E+00  0.00000000E+00
  0.00000000E+00  0.00000000E+00  0.00000000E+00  0.00000000E+00  0.00000000E+00
  0.00000000E+00  0.00000000E+00  0.00000000E+00  0.00000000E+00  0.00000000E+00
  0.00000000E+00  0.00000000E+00  0.00000000E+00  0.00000000E+00  0.00000000E+00
  0.00000000E+00  0.00000000E+00  0.00000000E+00  0.00000000E+00  0.00000000E+00
  0.00000000E+00  0.00000000E+00  0.00000000E+00  0.00000000E+00  0.00000000E+00
  0.00000000E+00  0.00000000E+00  0.00000000E+00  0.00000000E+00  0.00000000E+00
  0.00000000E+00  0.00000000E+00  0.00000000E+00  0.00000000E+00  0.00000000E+00
  0.00000000E+00  0.00000000E+00  0.00000000E+00  0.00000000E+00  0.00000000E+00
  0.00000000E+00  0.00000000E+00  0.00000000E+00  0.00000000E+00  0.00000000E+00
  0.00000000E+00  0.00000000E+00  0.00000000E+00  0.00000000E+00  0.00000000E+00
  0.00000000E+00  0.00000000E+00  0.00000000E+00  0.00000000E+00  0.00000000E+00
  0.00000000E+00  0.00000000E+00  0.00000000E+00  0.00000000E+00  0.00000000E+00
  0.00000000E+00  0.00000000E+00  0.00000000E+00  0.00000000E+00  0.00000000E+00
  0.00000000E+00  0.00000000E+00  0.00000000E+00  0.00000000E+00  0.00000000E+00
  0.00000000E+00  0.00000000E+00  0.00000000E+00  0.00000000E+00  0.00000000E+00
  0.00000000E+00  0.00000000E+00  0.00000000E+00  0.00000000E+00  0.00000000E+00
  0.00000000E+00  0.00000000E+00  0.00000000E+00  0.00000000E+00  0.00000000E+00
  0.00000000E+00  0.00000000E+00  0.00000000E+00  0.00000000E+00  0.00000000E+00
  0.00000000E+00  0.00000000E+00  0.00000000E+00  0.00000000E+00  0.00000000E+00
  0.00000000E+00  0.00000000E+00  0.00000000E+00  0.00000000E+00  0.00000000E+00
  0.00000000E+00  0.00000000E+00  0.00000000E+00  0.00000000E+00  0.00000000E+00
  0.00000000E+00  0.00000000E+00  0.00000000E+00  0.00000000E+00  0.00000000E+00
  0.00000000E+00  0.00000000E+00  0.00000000E+00  0.00000000E+00  0.00000000E+00
  0.00000000E+00  0.00000000E+00  0.00000000E+00  0.00000000E+00  0.00000000E+00
  0.00000000E+00  0.00000000E+00  0.00000000E+00  0.00000000E+00  0.00000000E+00
  0.00000000E+00  0.00000000E+00  0.00000000E+00  0.00000000E+00  0.00000000E+00
  0.00000000E+00  0.00000000E+00  0.00000000E+00  0.00000000E+00  0.00000000E+00
  0.00000000E+00  0.00000000E+00  0.00000000E+00  0.00000000E+00  0.00000000E+00
  0.00000000E+00  0.00000000E+00  0.00000000E+00  0.00000000E+00  0.00000000E+00
  0.00000000E+00  0.00000000E+00  0.00000000E+00  0.00000000E+00  0.00000000E+00
  0.00000000E+00  0.00000000E+00  0.00000000E+00  0.00000000E+00  0.00000000E+00
  0.00000000E+00  0.00000000E+00  0.00000000E+00  0.00000000E+00  0.00000000E+00
  0.00000000E+00  0.00000000E+00  0.00000000E+00  0.00000000E+00  0.00000000E+00
  0.00000000E+00  0.00000000E+00  0.00000000E+00  0.00000000E+00  0.00000000E+00
  0.00000000E+00  0.00000000E+00  0.00000000E+00  0.00000000E+00  0.00000000E+00
  0.00000000E+00  0.00000000E+00  0.00000000E+00  0.00000000E+00  0.00000000E+00
  0.00000000E+00  0.00000000E+00  0.00000000E+00  0.00000000E+00  0.00000000E+00
  0.00000000E+00  0.00000000E+00  0.00000000E+00  0.00000000E+00  0.00000000E+00
  0.00000000E+00  0.00000000E+00  0.00000000E+00  0.00000000E+00  0.00000000E+00
  0.00000000E+00  0.00000000E+00  0.00000000E+00  0.00000000E+00  0.00000000E+00
  0.00000000E+00  0.00000000E+00  0.00000000E+00  0.00000000E+00  0.00000000E+00
  0.00000000E+00  0.00000000E+00  0.00000000E+00  0.00000000E+00  0.00000000E+00
  0.00000000E+00  0.00000000E+00  0.00000000E+00  0.00000000E+00  0.00000000E+00
  0.00000000E+00  0.00000000E+00  0.00000000E+00  0.00000000E+00  0.00000000E+00
  0.00000000E+00  0.00000000E+00  0.00000000E+00  0.00000000E+00  0.00000000E+00
  0.00000000E+00  0.00000000E+00  0.00000000E+00  0.00000000E+00  0.00000000E+00
  0.00000000E+00  0.00000000E+00  0.00000000E+00  0.00000000E+00  0.00000000E+00
  0.00000000E+00  0.00000000E+00  0.00000000E+00  0.00000000E+00  0.00000000E+00
  0.00000000E+00  0.00000000E+00  0.00000000E+00  0.00000000E+00  0.00000000E+00
  0.00000000E+00  0.00000000E+00  0.00000000E+00  0.00000000E+00  0.00000000E+00
  0.00000000E+00  0.00000000E+00  0.00000000E+00  0.00000000E+00  0.00000000E+00
  0.00000000E+00  0.00000000E+00  0.00000000E+00  0.00000000E+00  0.00000000E+00
  0.00000000E+00  0.00000000E+00  0.00000000E+00  0.00000000E+00  0.00000000E+00
  0.00000000E+00  0.00000000E+00  0.00000000E+00  0.00000000E+00  0.00000000E+00
  0.00000000E+00  0.00000000E+00  0.00000000E+00  0.00000000E+00  0.00000000E+00
  0.00000000E+00  0.00000000E+00  0.00000000E+00  0.00000000E+00  0.00000000E+00
  0.00000000E+00  0.00000000E+00  0.00000000E+00  0.00000000E+00  0.00000000E+00
  0.00000000E+00  0.00000000E+00  0.00000000E+00  0.00000000E+00  0.00000000E+00
  0.00000000E+00  0.00000000E+00  0.00000000E+00  0.00000000E+00  0.00000000E+00
  0.00000000E+00  0.00000000E+00  0.00000000E+00  0.00000000E+00  0.00000000E+00
  0.00000000E+00  0.00000000E+00  0.00000000E+00  0.00000000E+00  0.00000000E+00
  0.00000000E+00  0.00000000E+00  0.00000000E+00  0.00000000E+00  0.00000000E+00
  0.00000000E+00  0.00000000E+00  0.00000000E+00  0.00000000E+00  0.00000000E+00
  0.00000000E+00  0.00000000E+00  0.00000000E+00  0.00000000E+00  0.00000000E+00
  0.00000000E+00  0.00000000E+00  0.00000000E+00  0.00000000E+00  0.00000000E+00
  0.00000000E+00  0.00000000E+00  0.00000000E+00  0.00000000E+00  0.00000000E+00
  0.00000000E+00  0.00000000E+00  0.00000000E+00  0.00000000E+00  0.00000000E+00
  0.00000000E+00  0.00000000E+00  0.00000000E+00  0.00000000E+00  0.00000000E+00
  0.00000000E+00  0.00000000E+00  0.00000000E+00  0.00000000E+00  0.00000000E+00
  0.00000000E+00  0.00000000E+00  0.00000000E+00  0.00000000E+00  0.00000000E+00
  0.00000000E+00  0.00000000E+00  0.00000000E+00  0.00000000E+00  0.00000000E+00
  0.00000000E+00  0.00000000E+00  0.00000000E+00  0.00000000E+00  0.00000000E+00
  0.00000000E+00  0.00000000E+00  0.00000000E+00  0.00000000E+00  0.00000000E+00
  0.00000000E+00  0.00000000E+00  0.00000000E+00  0.00000000E+00  0.00000000E+00
  0.00000000E+00  0.00000000E+00  0.00000000E+00  0.00000000E+00  0.00000000E+00
  0.00000000E+00  0.00000000E+00  0.00000000E+00  0.00000000E+00  0.00000000E+00
  0.00000000E+00  0.00000000E+00  0.00000000E+00  0.00000000E+00  0.00000000E+00
  0.00000000E+00  0.00000000E+00  0.00000000E+00  0.00000000E+00  0.00000000E+00
  0.00000000E+00  0.00000000E+00  0.00000000E+00  0.00000000E+00  0.00000000E+00
  0.00000000E+00  0.00000000E+00  0.00000000E+00  0.00000000E+00  0.00000000E+00
  0.00000000E+00  0.00000000E+00  0.00000000E+00  0.00000000E+00  0.00000000E+00
  0.00000000E+00  0.00000000E+00  0.00000000E+00  0.00000000E+00  0.00000000E+00
  0.00000000E+00  0.00000000E+00  0.00000000E+00  0.00000000E+00  0.00000000E+00
  0.00000000E+00  0.00000000E+00  0.00000000E+00  0.00000000E+00  0.00000000E+00
  0.00000000E+00  0.00000000E+00  0.00000000E+00  0.00000000E+00  0.00000000E+00
  0.00000000E+00  0.00000000E+00  0.00000000E+00  0.00000000E+00  0.00000000E+00
  0.00000000E+00  0.00000000E+00  0.00000000E+00  0.00000000E+00  0.00000000E+00
  0.00000000E+00  0.00000000E+00  0.00000000E+00  0.00000000E+00  0.00000000E+00
  0.00000000E+00  0.00000000E+00  0.00000000E+00  0.00000000E+00  0.00000000E+00
  0.00000000E+00  0.00000000E+00  0.00000000E+00  0.00000000E+00  0.00000000E+00
  0.00000000E+00  0.00000000E+00  0.00000000E+00  0.00000000E+00  0.00000000E+00
  0.00000000E+00  0.00000000E+00  0.00000000E+00  0.00000000E+00  0.00000000E+00
  0.00000000E+00  0.00000000E+00  0.00000000E+00  0.00000000E+00  0.00000000E+00
  0.00000000E+00  0.00000000E+00  0.00000000E+00  0.00000000E+00  0.00000000E+00
  0.00000000E+00  0.00000000E+00  0.00000000E+00  0.00000000E+00  0.00000000E+00
  0.00000000E+00  0.00000000E+00  0.00000000E+00  0.00000000E+00  0.00000000E+00
  0.00000000E+00  0.00000000E+00  0.00000000E+00  0.00000000E+00  0.00000000E+00
  0.00000000E+00  0.00000000E+00  0.00000000E+00  0.00000000E+00  0.00000000E+00
  0.00000000E+00  0.00000000E+00  0.00000000E+00  0.00000000E+00  0.00000000E+00
  0.00000000E+00  0.00000000E+00  0.00000000E+00  0.00000000E+00  0.00000000E+00
  0.00000000E+00  0.00000000E+00  0.00000000E+00  0.00000000E+00  0.00000000E+00
  0.00000000E+00  0.00000000E+00  0.00000000E+00  0.00000000E+00  0.00000000E+00
  0.00000000E+00  0.00000000E+00  0.00000000E+00  0.00000000E+00  0.00000000E+00
  0.00000000E+00  0.00000000E+00  0.00000000E+00  0.00000000E+00  0.00000000E+00
  0.00000000E+00  0.00000000E+00  0.00000000E+00  0.00000000E+00  0.00000000E+00
  0.00000000E+00  0.00000000E+00  0.00000000E+00  0.00000000E+00  0.00000000E+00
  0.00000000E+00  0.00000000E+00  0.00000000E+00  0.00000000E+00  0.00000000E+00
  0.00000000E+00  0.00000000E+00  0.00000000E+00  0.00000000E+00  0.00000000E+00
  0.00000000E+00  0.00000000E+00  0.00000000E+00  0.00000000E+00  0.00000000E+00
  0.00000000E+00  0.00000000E+00  0.00000000E+00  0.00000000E+00  0.00000000E+00
  0.00000000E+00  0.00000000E+00  0.00000000E+00  0.00000000E+00  0.00000000E+00
  0.00000000E+00  0.00000000E+00  0.00000000E+00  0.00000000E+00  0.00000000E+00
  0.00000000E+00  0.00000000E+00  0.00000000E+00  0.00000000E+00  0.00000000E+00
  0.00000000E+00  0.00000000E+00  0.00000000E+00  0.00000000E+00  0.00000000E+00
  0.00000000E+00  0.00000000E+00  0.00000000E+00  0.00000000E+00  0.00000000E+00
  0.00000000E+00  0.00000000E+00  0.00000000E+00  0.00000000E+00  0.00000000E+00
  0.00000000E+00  0.00000000E+00  0.00000000E+00  0.00000000E+00  0.00000000E+00
  0.00000000E+00  0.00000000E+00  0.00000000E+00  0.00000000E+00  0.00000000E+00
  0.00000000E+00  0.00000000E+00  0.00000000E+00  0.00000000E+00  0.00000000E+00
  0.00000000E+00  0.00000000E+00  0.00000000E+00  0.00000000E+00  0.00000000E+00
  0.00000000E+00  0.00000000E+00  0.00000000E+00  0.00000000E+00  0.00000000E+00
  0.00000000E+00  0.00000000E+00  0.00000000E+00  0.00000000E+00  0.00000000E+00
  0.00000000E+00  0.00000000E+00  0.00000000E+00  0.00000000E+00  0.00000000E+00
  0.00000000E+00  0.00000000E+00  0.00000000E+00  0.00000000E+00  0.00000000E+00
  0.00000000E+00  0.00000000E+00  0.00000000E+00  0.00000000E+00  0.00000000E+00
  0.00000000E+00  0.00000000E+00  0.00000000E+00  0.00000000E+00  0.00000000E+00
  0.00000000E+00  0.00000000E+00  0.00000000E+00  0.00000000E+00  0.00000000E+00
  0.00000000E+00  0.00000000E+00  0.00000000E+00  0.00000000E+00  0.00000000E+00
  0.00000000E+00  0.00000000E+00  0.00000000E+00  0.00000000E+00  0.00000000E+00
  0.00000000E+00  0.00000000E+00  0.00000000E+00  0.00000000E+00  0.00000000E+00
  0.00000000E+00  0.00000000E+00  0.00000000E+00  0.00000000E+00  0.00000000E+00
  0.00000000E+00  0.00000000E+00  0.00000000E+00  0.00000000E+00  0.00000000E+00
  0.00000000E+00  0.00000000E+00  0.00000000E+00  0.00000000E+00  0.00000000E+00
  0.00000000E+00  0.00000000E+00  0.00000000E+00  0.00000000E+00  0.00000000E+00
  0.00000000E+00  0.00000000E+00  0.00000000E+00  0.00000000E+00  0.00000000E+00
  0.00000000E+00  0.00000000E+00  0.00000000E+00  0.00000000E+00  0.00000000E+00
  0.00000000E+00  0.00000000E+00  0.00000000E+00  0.00000000E+00  0.00000000E+00
  0.00000000E+00  0.00000000E+00  0.00000000E+00  0.00000000E+00  0.00000000E+00
  0.00000000E+00  0.00000000E+00  0.00000000E+00  0.00000000E+00  0.00000000E+00
  0.00000000E+00  0.00000000E+00  0.00000000E+00  0.00000000E+00  0.00000000E+00
  0.00000000E+00  0.00000000E+00  0.00000000E+00  0.00000000E+00  0.00000000E+00
  0.00000000E+00  0.00000000E+00  0.00000000E+00  0.00000000E+00  0.00000000E+00
  0.00000000E+00  0.00000000E+00  0.00000000E+00  0.00000000E+00  0.00000000E+00
  0.00000000E+00  0.00000000E+00  0.00000000E+00  0.00000000E+00  0.00000000E+00
  0.00000000E+00  0.00000000E+00  0.00000000E+00  0.00000000E+00  0.00000000E+00
  0.00000000E+00  0.00000000E+00  0.00000000E+00  0.00000000E+00  0.00000000E+00
  0.00000000E+00  0.00000000E+00  0.00000000E+00  0.00000000E+00  0.00000000E+00
  0.00000000E+00  0.00000000E+00  0.00000000E+00  0.00000000E+00  0.00000000E+00
  0.00000000E+00  0.00000000E+00  0.00000000E+00  0.00000000E+00  0.00000000E+00
  0.00000000E+00  0.00000000E+00  0.00000000E+00  0.00000000E+00  0.00000000E+00
  0.00000000E+00  0.00000000E+00  0.00000000E+00  0.00000000E+00  0.00000000E+00
  0.00000000E+00  0.00000000E+00  0.00000000E+00  0.00000000E+00  0.00000000E+00
  0.00000000E+00  0.00000000E+00  0.00000000E+00  0.00000000E+00  0.00000000E+00
  0.00000000E+00  0.00000000E+00  0.00000000E+00  0.00000000E+00  0.00000000E+00
  0.00000000E+00  0.00000000E+00  0.00000000E+00  0.00000000E+00  0.00000000E+00
  0.00000000E+00  0.00000000E+00  0.00000000E+00  0.00000000E+00  0.00000000E+00
  0.00000000E+00  0.00000000E+00  0.00000000E+00  0.00000000E+00  0.00000000E+00
  0.00000000E+00  0.00000000E+00  0.00000000E+00  0.00000000E+00  0.00000000E+00
  0.00000000E+00  0.00000000E+00  0.00000000E+00  0.00000000E+00  0.00000000E+00
  0.00000000E+00  0.00000000E+00  0.00000000E+00  0.00000000E+00  0.00000000E+00
  0.00000000E+00  0.00000000E+00  0.00000000E+00  0.00000000E+00  0.00000000E+00
  0.00000000E+00  0.00000000E+00  0.00000000E+00  0.00000000E+00  0.00000000E+00
  0.00000000E+00  0.00000000E+00  0.00000000E+00  0.00000000E+00  0.00000000E+00
  0.00000000E+00  0.00000000E+00  0.00000000E+00  0.00000000E+00  0.00000000E+00
  0.00000000E+00  0.00000000E+00  0.00000000E+00  0.00000000E+00  0.00000000E+00
  0.00000000E+00  0.00000000E+00  0.00000000E+00  0.00000000E+00  0.00000000E+00
  0.00000000E+00  0.00000000E+00  0.00000000E+00  0.00000000E+00  0.00000000E+00
  0.00000000E+00  0.00000000E+00  0.00000000E+00  0.00000000E+00  0.00000000E+00
  0.00000000E+00  0.00000000E+00  0.00000000E+00  0.00000000E+00  0.00000000E+00
  0.00000000E+00  0.00000000E+00  0.00000000E+00  0.00000000E+00  0.00000000E+00
  0.00000000E+00  0.00000000E+00  0.00000000E+00  0.00000000E+00  0.00000000E+00
  0.00000000E+00  0.00000000E+00  0.00000000E+00  0.00000000E+00  0.00000000E+00
  0.00000000E+00  0.00000000E+00  0.00000000E+00  0.00000000E+00  0.00000000E+00
  0.00000000E+00  0.00000000E+00  0.00000000E+00  0.00000000E+00  0.00000000E+00
  0.00000000E+00  0.00000000E+00  0.00000000E+00  0.00000000E+00  0.00000000E+00
  0.00000000E+00  0.00000000E+00  0.00000000E+00  0.00000000E+00  0.00000000E+00
  0.00000000E+00  0.00000000E+00  0.00000000E+00  0.00000000E+00  0.00000000E+00
  0.00000000E+00  0.00000000E+00  0.00000000E+00  0.00000000E+00  0.00000000E+00
  0.00000000E+00  0.00000000E+00  0.00000000E+00  0.00000000E+00  0.00000000E+00
  0.00000000E+00  0.00000000E+00  0.00000000E+00  0.00000000E+00  0.00000000E+00
  0.00000000E+00  0.00000000E+00  0.00000000E+00  0.00000000E+00  0.00000000E+00
  0.00000000E+00  0.00000000E+00  0.00000000E+00  0.00000000E+00  0.00000000E+00
  0.00000000E+00  0.00000000E+00  0.00000000E+00  0.00000000E+00  0.00000000E+00
  0.00000000E+00  0.00000000E+00  0.00000000E+00  0.00000000E+00  0.00000000E+00
  0.00000000E+00  0.00000000E+00  0.00000000E+00  0.00000000E+00  0.00000000E+00
  0.00000000E+00  0.00000000E+00  0.00000000E+00  0.00000000E+00  0.00000000E+00
  0.00000000E+00  0.00000000E+00  0.00000000E+00  0.00000000E+00  0.00000000E+00
  0.00000000E+00  0.00000000E+00  0.00000000E+00  0.00000000E+00  0.00000000E+00
  0.00000000E+00  0.00000000E+00  0.00000000E+00  0.00000000E+00  0.00000000E+00
  0.00000000E+00  0.00000000E+00  0.00000000E+00  0.00000000E+00  0.00000000E+00
  0.00000000E+00  0.00000000E+00  0.00000000E+00  0.00000000E+00  0.00000000E+00
  0.00000000E+00  0.00000000E+00  0.00000000E+00  0.00000000E+00  0.00000000E+00
  0.00000000E+00  0.00000000E+00  0.00000000E+00  0.00000000E+00  0.00000000E+00
  0.00000000E+00  0.00000000E+00  0.00000000E+00  0.00000000E+00  0.00000000E+00
  0.00000000E+00  0.00000000E+00  0.00000000E+00  0.00000000E+00  0.00000000E+00
  0.00000000E+00  0.00000000E+00  0.00000000E+00  0.00000000E+00  0.00000000E+00
  0.00000000E+00  0.00000000E+00  0.00000000E+00  0.00000000E+00  0.00000000E+00
  0.00000000E+00  0.00000000E+00  0.00000000E+00  0.00000000E+00  0.00000000E+00
  0.00000000E+00  0.00000000E+00  0.00000000E+00  0.00000000E+00  0.00000000E+00
  0.00000000E+00  0.00000000E+00  0.00000000E+00  0.00000000E+00  0.00000000E+00
  0.00000000E+00  0.00000000E+00  0.00000000E+00  0.00000000E+00  0.00000000E+00
  0.00000000E+00  0.00000000E+00  0.00000000E+00  0.00000000E+00  0.00000000E+00
  0.00000000E+00  0.00000000E+00  0.00000000E+00  0.00000000E+00  0.00000000E+00
  0.00000000E+00  0.00000000E+00  0.00000000E+00  0.00000000E+00  0.00000000E+00
  0.00000000E+00  0.00000000E+00  0.00000000E+00  0.00000000E+00  0.00000000E+00
  0.00000000E+00  0.00000000E+00  0.00000000E+00  0.00000000E+00  0.00000000E+00
  0.00000000E+00  0.00000000E+00  0.00000000E+00  0.00000000E+00  0.00000000E+00
  0.00000000E+00  0.00000000E+00  0.00000000E+00  0.00000000E+00  0.00000000E+00
  0.00000000E+00  0.00000000E+00  0.00000000E+00  0.00000000E+00  0.00000000E+00
  0.00000000E+00  0.00000000E+00  0.00000000E+00  0.00000000E+00  0.00000000E+00
  0.00000000E+00  0.00000000E+00  0.00000000E+00  0.00000000E+00  0.00000000E+00
  0.00000000E+00  0.00000000E+00  0.00000000E+00  0.00000000E+00  0.00000000E+00
  0.00000000E+00  0.00000000E+00  0.00000000E+00  0.00000000E+00  0.00000000E+00
  0.00000000E+00  0.00000000E+00  0.00000000E+00  0.00000000E+00  0.00000000E+00
  0.00000000E+00  0.00000000E+00  0.00000000E+00  0.00000000E+00  0.00000000E+00
  0.00000000E+00  0.00000000E+00  0.00000000E+00  0.00000000E+00  0.00000000E+00
  0.00000000E+00  0.00000000E+00  0.00000000E+00  0.00000000E+00  0.00000000E+00
  0.00000000E+00  0.00000000E+00  0.00000000E+00  0.00000000E+00  0.00000000E+00
  0.00000000E+00  0.00000000E+00  0.00000000E+00  0.00000000E+00  0.00000000E+00
  0.00000000E+00  0.00000000E+00  0.00000000E+00  0.00000000E+00  0.00000000E+00
  0.00000000E+00  0.00000000E+00  0.00000000E+00  0.00000000E+00  0.00000000E+00
  0.00000000E+00  0.00000000E+00  0.00000000E+00  0.00000000E+00  0.00000000E+00
  0.00000000E+00  0.00000000E+00  0.00000000E+00  0.00000000E+00  0.00000000E+00
  0.00000000E+00  0.00000000E+00  0.00000000E+00  0.00000000E+00  0.00000000E+00
  0.00000000E+00  0.00000000E+00  0.00000000E+00  0.00000000E+00  0.00000000E+00
  0.00000000E+00  0.00000000E+00  0.00000000E+00  0.00000000E+00  0.00000000E+00
  0.00000000E+00  0.00000000E+00  0.00000000E+00  0.00000000E+00  0.00000000E+00
  0.00000000E+00  0.00000000E+00  0.00000000E+00  0.00000000E+00  0.00000000E+00
  0.00000000E+00  0.00000000E+00  0.00000000E+00  0.00000000E+00  0.00000000E+00
  0.00000000E+00  0.00000000E+00  0.00000000E+00  0.00000000E+00  0.00000000E+00
  0.00000000E+00  0.00000000E+00  0.00000000E+00  0.00000000E+00  0.00000000E+00
  0.00000000E+00  0.00000000E+00  0.00000000E+00  0.00000000E+00  0.00000000E+00
  0.00000000E+00  0.00000000E+00  0.00000000E+00  0.00000000E+00  0.00000000E+00
  0.00000000E+00  0.00000000E+00  0.00000000E+00  0.00000000E+00  0.00000000E+00
  0.00000000E+00  0.00000000E+00  0.00000000E+00  0.00000000E+00  0.00000000E+00
Gaussian Version                           C   N=           2
AppleM1-GDVRevJ.32+     
