H20                                                                     
Freq      RHF                                                         Gen                 
Number of atoms                            I                3
Info1-9                                    I   N=           9
          11           9           0           0           0         101
           6           1           2
Full Title                                 C   N=           1
H20         
Route                                      C   N=           6
#P Freq=ANHARM SYMM=COM geom=checkpoint guess=read chkbas io
p(7/8=10)   
Point Group                                C   N=           2
C02V                    
Point Group NOp                            I                4
Point Group Abelian NOp                    I                4
Point Group NClass                         I                4
Point Group NIrrep                         I                4
Point Group NGen                           I                2
Point Group NOp symm assign                I                2
Point Group Irrep Names                    H   N=           4
A1      A2      B1      B2      
Point Group Class Names                    H   N=           4
E       C2      Sgm     Sgm'    
Point Group Generators                     I   N=           2
           2           3
Point Group Class of Operators             I   N=           4
           1           2           3           4
Point Group Rotations                      R   N=          48
  1.00000000E+00 -3.94430453E-31  8.32485946E-48 -3.94430453E-31  1.00000000E+00
 -6.75392837E-17  2.46519033E-32 -6.75392837E-17  1.00000000E+00  0.00000000E+00
  0.00000000E+00  0.00000000E+00 -1.00000000E+00 -1.22464680E-16  2.06779419E-33
  1.22464680E-16 -1.00000000E+00  1.23259516E-32 -2.06779419E-33  1.23259516E-32
  1.00000000E+00  0.00000000E+00  0.00000000E+00  0.00000000E+00 -1.00000000E+00
  9.86076132E-32  3.32994378E-48  9.86076132E-32  1.00000000E+00 -6.75392837E-17
  2.46519033E-32 -6.75392837E-17  1.00000000E+00  0.00000000E+00  0.00000000E+00
  0.00000000E+00  1.00000000E+00 -1.22464680E-16  2.67196975E-32 -1.22464680E-16
 -1.00000000E+00 -3.69778549E-32  2.67196975E-32  1.23259516E-32  1.00000000E+00
  0.00000000E+00  0.00000000E+00  0.00000000E+00
Point Group Cell Trans                     I   N=          12
           0           0           0           0           0           0
           0           0           0           0           0           0
Point Group Char Table                     R   N=          16
  1.00000000E+00  1.00000000E+00  1.00000000E+00  1.00000000E+00  1.00000000E+00
  1.00000000E+00 -1.00000000E+00 -1.00000000E+00  1.00000000E+00 -1.00000000E+00
 -1.00000000E+00  1.00000000E+00  1.00000000E+00 -1.00000000E+00  1.00000000E+00
 -1.00000000E+00
Point Group Atom Permutations              I   N=          12
           1           2           3           3           2           1
           1           2           3           3           2           1
Charge                                     I                0
Multiplicity                               I                1
Number of electrons                        I               10
Number of alpha electrons                  I                5
Number of beta electrons                   I                5
Number of basis functions                  I               19
Number of independent functions            I               19
Number of point charges in /Mol/           I                0
Number of translation vectors              I                0
Atomic numbers                             I   N=           3
           1           8           1
Nuclear charges                            R   N=           3
  1.00000000E+00  8.00000000E+00  1.00000000E+00
Current cartesian coordinates              R   N=           9
 -2.95822839E-31  1.43912837E+00 -1.00481518E+00  6.16297582E-33 -6.41412046E-18
  1.26624982E-01 -1.76242395E-16 -1.43912837E+00 -1.00481518E+00
Number of symbols in /Mol/                 I                0
Int Atom Types                             I   N=           3
           0           0           0
Force Field                                I                0
Atom Types                                 C   N=           3
                                    
MM charges                                 R   N=           3
  0.00000000E+00  0.00000000E+00  0.00000000E+00
Integer atomic weights                     I   N=           3
           1          16           1
Real atomic weights                        R   N=           3
  1.00782504E+00  1.59949146E+01  1.00782504E+00
Atom fragment info                         I   N=           3
           0           0           0
Atom residue num                           I   N=           3
           0           0           0
Nuclear spins                              I   N=           3
           1           0           1
Nuclear ZEff                               R   N=           3
 -1.00000000E+00 -5.60000000E+00 -1.00000000E+00
Nuclear ZNuc                               R   N=           3
  1.00000000E+00  8.00000000E+00  1.00000000E+00
Nuclear QMom                               R   N=           3
  0.00000000E+00  0.00000000E+00  0.00000000E+00
Nuclear GFac                               R   N=           3
  2.79284600E+00  0.00000000E+00  2.79284600E+00
MicOpt                                     I   N=           3
          -1          -1          -1
Number of residues                         I                0
Number of secondary structures             I                0
Redundant internal dimensions              I   N=           4
           3           0           0           0
CrData-IFlags                              I   N=          16
          -2          15           1           3          33           1
           1           0           0           1           0          30
          30     1023350     1110000           0
CrData-InfCrd                              I   N=         150
         100          -1           1           4           1           0
           1          -1          -1           1          62          -1
           5           1           1           0           1          -1
          -1           2           2           0           6           3
           1           0         111           0           3           3
         100          -1           9           4           1           0
           1          -1          -1           1          62          -1
          13           1           1           0           1          -1
          -1           2           2           0          14           3
           1           0         111          10          13           3
         100          -1          17           4           1           0
           1          -1          -1           1          61          -1
          21           1           1           0           1          -1
          -1           3          61          -1          22           1
           1           0           1          -1          -1           3
          52          -1          23           2           1           0
           1          -1          -1           4          52          -1
          25           2           1           0           1          -1
          -1           5          58          -1          27           0
           1           1           1          -1          -1           1
          52          -1          27           2           2           0
           1          -1          -1           6          73          -1
          29           1           2           0           1          -1
          -1           7           3           0          30           4
           2           0         221          20          23           8
CrData-IVars                               I   N=          33
           1           2           1           2           1           2
           1           2           2           3           2           3
           4           5           2           3           1           2
           2           3           2           5           8           9
           7          10          11          12          13          14
           1           2           3
CrData-RVars                               R   N=           1
 -1.00000000E+00
CrData-NCrdSt                              I   N=           1
           3
CrData-ICrdSt                              I   N=           3
           3           6          15
CrData-LabNumbers                          I   N=           3
     8000000     1000003          32
CrData-Labels                              H   N=           4
R1\R(1,2)\R2\R(2,3)\A1\A(1,2,3)\
Redundant internal coordinates             R   N=           3
  1.83064123E+00  1.83064123E+00  1.80905589E+00
ZRed-IntVec                                I   N=           3
           0           0           0
ZRed-FPVec                                 R   N=           3
  0.00000000E+00  0.00000000E+00  0.00000000E+00
ZRed-Constraint1                           R   N=           3
  1.83064123E+00  1.83064123E+00  1.80905589E+00
ZRed-Constraint2                           R   N=           3
  1.83064123E+00  1.83064123E+00  1.80905589E+00
SymInf integers                            I   N=          26
           2           4           1           1           1          -1
          -1           1          -1           1           1           1
          -1           1           0           0           0           0
           0           0           0           0           0           0
           0           0
RotTr to input orientation                 R   N=          12
  2.00348779E-16  5.51091060E-16 -1.00000000E+00  7.14910976E-16 -1.00000000E+00
 -5.51091060E-16 -1.00000000E+00 -6.98026155E-16 -2.00348779E-16  2.54203735E-01
  3.58206003E-17  9.76553286E-17
Number of contracted shells                I                8
Number of primitive shells                 I               19
Pure/Cartesian d shells                    I                1
Pure/Cartesian f shells                    I                0
Highest angular momentum                   I                2
Largest degree of contraction              I                6
Shell types                                I   N=           8
           0           0           0          -1          -1           2
           0           0
Number of primitives per shell             I   N=           8
           3           1           6           3           1           1
           3           1
Shell to atom map                          I   N=           8
           1           1           2           2           2           2
           3           3
Primitive exponents                        R   N=          19
  1.87311370E+01  2.82539436E+00  6.40121692E-01  1.61277759E-01  5.48467166E+03
  8.25234946E+02  1.88046958E+02  5.29645000E+01  1.68975704E+01  5.79963534E+00
  1.55396162E+01  3.59993359E+00  1.01376175E+00  2.70005823E-01  8.00000000E-01
  1.87311370E+01  2.82539436E+00  6.40121692E-01  1.61277759E-01
Contraction coefficients                   R   N=          19
  3.34946043E-02  2.34726953E-01  8.13757326E-01  1.00000000E+00  1.83107443E-03
  1.39501722E-02  6.84450781E-02  2.32714336E-01  4.70192898E-01  3.58520853E-01
 -1.10777550E-01 -1.48026263E-01  1.13076702E+00  1.00000000E+00  1.00000000E+00
  3.34946043E-02  2.34726953E-01  8.13757326E-01  1.00000000E+00
P(S=P) Contraction coefficients            R   N=          19
  0.00000000E+00  0.00000000E+00  0.00000000E+00  0.00000000E+00  0.00000000E+00
  0.00000000E+00  0.00000000E+00  0.00000000E+00  0.00000000E+00  0.00000000E+00
  7.08742682E-02  3.39752839E-01  7.27158577E-01  1.00000000E+00  0.00000000E+00
  0.00000000E+00  0.00000000E+00  0.00000000E+00  0.00000000E+00
Coordinates of each shell                  R   N=          24
 -2.12863521E-31  1.43912837E+00 -1.00481518E+00 -2.12863521E-31  1.43912837E+00
 -1.00481518E+00  9.11303906E-34 -4.27608031E-18  1.26624982E-01  9.11303906E-34
 -4.27608031E-18  1.26624982E-01  9.11303906E-34 -4.27608031E-18  1.26624982E-01
  9.11303906E-34 -4.27608031E-18  1.26624982E-01 -1.76242395E-16 -1.43912837E+00
 -1.00481518E+00 -1.76242395E-16 -1.43912837E+00 -1.00481518E+00
Constraint Structure                       R   N=           9
 -2.02836409E-16  1.43912837E+00 -1.00481518E+00 -7.75354397E-18 -9.07655956E-17
  1.26624982E-01  3.25890778E-16 -1.43912837E+00 -1.00481518E+00
Constraint Force Constants                 R   N=           9
  0.00000000E+00  0.00000000E+00  0.00000000E+00  0.00000000E+00  0.00000000E+00
  0.00000000E+00  0.00000000E+00  0.00000000E+00  0.00000000E+00
Num ILSW                                   I              100
ILSW                                       I   N=         100
           0           1           0           1           2           0
           0           0           0           0           0          -1
           5           0           0           0           2          -1
           0           0           0           0           1           0
           1           0           0           0           0           0
           0           0      100000           0          -1           0
           0           0           0           0           0           0
           0           0           0           1           0           0
           0 -2000000000           1           0           0           0
           0           0        2004          68           0           0
           0           0           0           0           0           0
           0           0           0           3           0           1
           0           0           0           0           0           0
           0           0           0           0           0           0
           0           0           0           0           0           0
           0           0           3           0           0           0
           0           0           0           0
Num RLSW                                   I               68
RLSW                                       R   N=          68
  1.00000000E+00  1.00000000E+00  1.00000000E+00  1.00000000E+00  1.00000000E+00
  0.00000000E+00  0.00000000E+00  1.00000000E+00  0.00000000E+00  0.00000000E+00
  0.00000000E+00  0.00000000E+00  1.00000000E+00  0.00000000E+00  0.00000000E+00
  0.00000000E+00  0.00000000E+00  1.00000000E+00  0.00000000E+00  0.00000000E+00
  0.00000000E+00  0.00000000E+00  1.00000000E+00  0.00000000E+00  0.00000000E+00
  0.00000000E+00  0.00000000E+00  1.00000000E+00  0.00000000E+00  0.00000000E+00
  0.00000000E+00  0.00000000E+00  1.00000000E+00  0.00000000E+00  0.00000000E+00
  0.00000000E+00  0.00000000E+00  0.00000000E+00  1.00000000E+00  1.00000000E+00
  0.00000000E+00  1.00000000E+00  0.00000000E+00  0.00000000E+00  0.00000000E+00
  0.00000000E+00  0.00000000E+00  0.00000000E+00  0.00000000E+00  0.00000000E+00
  0.00000000E+00  0.00000000E+00  1.00000000E+00  1.00000000E+00  1.00000000E+00
  1.00000000E+00  1.00000000E+00  1.00000000E+00  0.00000000E+00  0.00000000E+00
  0.00000000E+00  0.00000000E+00  0.00000000E+00  0.00000000E+00  0.00000000E+00
  0.00000000E+00  2.00000000E-10  1.00000000E-02
MxBond                                     I                2
NBond                                      I   N=           3
           1           2           1
IBond                                      I   N=           6
           2           0           1           3           2           0
RBond                                      R   N=           6
  1.00000000E+00  0.00000000E+00  1.00000000E+00  1.00000000E+00  1.00000000E+00
  0.00000000E+00
Virial Ratio                               R      2.003056349752367E+00
SCF Energy                                 R     -7.600977480657137E+01
Total Energy                               R     -7.600977480657137E+01
RMS Force                                  R      1.450909401714900E-02
RMS Density                                R      1.154979526258121E-09
NImag                                      I                0
Zero-point Energy                          R      2.177578582027251E-02
Job Status                                 I                1
Nuclear derivative order                   I                3
Energy with zero-point                     R     -7.598799902075110E+01
Thermal Energy                             R     -7.598516551717353E+01
Thermal Enthalpy                           R     -7.598422133235988E+01
Thermal Free Energy                        R     -7.600566614369380E+01
External E-field                           R   N=         105
  0.00000000E+00  0.00000000E+00  0.00000000E+00  0.00000000E+00  0.00000000E+00
  0.00000000E+00  0.00000000E+00  0.00000000E+00  0.00000000E+00  0.00000000E+00
  0.00000000E+00  0.00000000E+00  0.00000000E+00  0.00000000E+00  0.00000000E+00
  0.00000000E+00  0.00000000E+00  0.00000000E+00  0.00000000E+00  0.00000000E+00
  0.00000000E+00  0.00000000E+00  0.00000000E+00  0.00000000E+00  0.00000000E+00
  0.00000000E+00  0.00000000E+00  0.00000000E+00  0.00000000E+00  0.00000000E+00
  0.00000000E+00  0.00000000E+00  0.00000000E+00  0.00000000E+00  0.00000000E+00
  0.00000000E+00  0.00000000E+00  0.00000000E+00  0.00000000E+00  0.00000000E+00
  0.00000000E+00  0.00000000E+00  0.00000000E+00  0.00000000E+00  0.00000000E+00
  0.00000000E+00  0.00000000E+00  0.00000000E+00  0.00000000E+00  0.00000000E+00
  0.00000000E+00  0.00000000E+00  0.00000000E+00  0.00000000E+00  0.00000000E+00
  0.00000000E+00  0.00000000E+00  0.00000000E+00  0.00000000E+00  0.00000000E+00
  0.00000000E+00  0.00000000E+00  0.00000000E+00  0.00000000E+00  0.00000000E+00
  0.00000000E+00  0.00000000E+00  0.00000000E+00  0.00000000E+00  0.00000000E+00
  0.00000000E+00  0.00000000E+00  0.00000000E+00  0.00000000E+00  0.00000000E+00
  0.00000000E+00  0.00000000E+00  0.00000000E+00  0.00000000E+00  0.00000000E+00
  0.00000000E+00  0.00000000E+00  0.00000000E+00  0.00000000E+00  0.00000000E+00
  0.00000000E+00  0.00000000E+00  0.00000000E+00  0.00000000E+00  0.00000000E+00
  0.00000000E+00  0.00000000E+00  0.00000000E+00  0.00000000E+00  0.00000000E+00
  0.00000000E+00  0.00000000E+00  0.00000000E+00  0.00000000E+00  0.00000000E+00
  0.00000000E+00  0.00000000E+00  0.00000000E+00  0.00000000E+00  0.00000000E+00
IOpCl                                      I                0
IROHF                                      I                0
Alpha Orbital Energies                     R   N=          19
 -2.05631237E+01 -1.33670838E+00 -6.99095302E-01 -5.70660866E-01 -4.97499015E-01
  2.08069465E-01  3.00926659E-01  1.01348633E+00  1.12877048E+00  1.16379145E+00
  1.16756041E+00  1.37654268E+00  1.43677919E+00  2.02052576E+00  2.03716717E+00
  2.06877992E+00  2.60715283E+00  2.92630282E+00  3.96296566E+00
Alpha MO coefficients                      R   N=         361
  3.38861072E-04 -1.86098313E-04  9.94653696E-01  2.11045917E-02  0.00000000E+00
  0.00000000E+00 -1.33346193E-03  4.02588349E-03  0.00000000E+00  0.00000000E+00
  4.83158506E-04 -3.88244581E-03 -4.17954446E-03 -4.05380549E-03  0.00000000E+00
  0.00000000E+00  0.00000000E+00  3.38861072E-04 -1.86098313E-04  1.28633420E-01
  2.32093010E-03 -2.09916883E-01  4.76093376E-01  0.00000000E+00  0.00000000E+00
 -9.10405425E-02  4.43994459E-01  0.00000000E+00  0.00000000E+00 -5.16341543E-02
 -1.44931180E-03  2.57645057E-02  2.13779858E-02  0.00000000E+00  0.00000000E+00
  0.00000000E+00  1.28633420E-01  2.32093010E-03  2.29346782E-01  1.14765651E-01
  0.00000000E+00  0.00000000E+00  0.00000000E+00  5.06026254E-01  0.00000000E+00
  0.00000000E+00  0.00000000E+00  3.09295401E-01  0.00000000E+00  0.00000000E+00
  0.00000000E+00  0.00000000E+00  0.00000000E+00  0.00000000E+00 -5.13295845E-02
 -2.29346782E-01 -1.14765651E-01 -1.42680092E-01 -8.87571158E-02 -7.34316270E-02
  1.65173104E-01  0.00000000E+00  0.00000000E+00  5.52994447E-01  3.24755901E-01
  0.00000000E+00  0.00000000E+00  4.01762617E-01  1.18057247E-02 -4.04228749E-04
 -4.62854128E-02  0.00000000E+00  0.00000000E+00  0.00000000E+00 -1.42680092E-01
 -8.87571158E-02  0.00000000E+00  0.00000000E+00  0.00000000E+00  0.00000000E+00
  6.40029135E-01  0.00000000E+00  0.00000000E+00  0.00000000E+00  5.11040207E-01
  0.00000000E+00  0.00000000E+00  0.00000000E+00  0.00000000E+00  0.00000000E+00
  0.00000000E+00 -3.35442890E-02  0.00000000E+00  0.00000000E+00  0.00000000E+00
 -5.72111081E-02 -1.02955925E+00 -9.98864166E-02  5.83947402E-02  0.00000000E+00
  0.00000000E+00 -2.22933843E-01  1.38696775E+00  0.00000000E+00  0.00000000E+00
 -5.13529495E-01 -7.02792779E-02 -5.52955315E-02 -4.17387887E-02  0.00000000E+00
  0.00000000E+00  0.00000000E+00 -5.72111081E-02 -1.02955925E+00  5.38121093E-02
  1.37214201E+00  0.00000000E+00  0.00000000E+00  0.00000000E+00 -3.33413209E-01
  0.00000000E+00  0.00000000E+00  0.00000000E+00 -8.26073790E-01  0.00000000E+00
  0.00000000E+00  0.00000000E+00  0.00000000E+00  0.00000000E+00  0.00000000E+00
  2.17551442E-02 -5.38121093E-02 -1.37214201E+00  8.38509761E-01 -5.01425618E-01
  0.00000000E+00  0.00000000E+00  0.00000000E+00 -1.05143346E-01  0.00000000E+00
  0.00000000E+00  0.00000000E+00 -6.10488115E-01  0.00000000E+00  0.00000000E+00
  0.00000000E+00  0.00000000E+00  0.00000000E+00  0.00000000E+00 -1.97760672E-01
 -8.38509761E-01  5.01425618E-01  6.14853735E-01 -5.32283030E-01  7.41024826E-03
 -9.29651080E-01  0.00000000E+00  0.00000000E+00 -3.15036140E-01  1.64912619E+00
  0.00000000E+00  0.00000000E+00  6.28686807E-01 -3.97634911E-01 -1.67104715E-01
 -3.09791947E-01  0.00000000E+00  0.00000000E+00  0.00000000E+00  6.14853735E-01
 -5.32283030E-01  5.90463608E-01 -3.09569428E-01  4.82792704E-02  2.09248454E-01
  0.00000000E+00  0.00000000E+00  8.04887179E-01 -6.36540712E-01  0.00000000E+00
  0.00000000E+00 -4.58641873E-01 -7.82276474E-03  2.62341573E-01  1.27100202E-01
  0.00000000E+00  0.00000000E+00  0.00000000E+00  5.90463608E-01 -3.09569428E-01
  0.00000000E+00  0.00000000E+00  0.00000000E+00  0.00000000E+00 -9.62475055E-01
  0.00000000E+00  0.00000000E+00  0.00000000E+00  1.03625343E+00  0.00000000E+00
  0.00000000E+00  0.00000000E+00  0.00000000E+00  0.00000000E+00  0.00000000E+00
 -1.49010764E-02  0.00000000E+00  0.00000000E+00  0.00000000E+00  8.64834396E-02
 -8.90719096E-01  0.00000000E+00  0.00000000E+00  0.00000000E+00 -1.03396667E+00
  0.00000000E+00  0.00000000E+00  0.00000000E+00  1.53298986E+00  0.00000000E+00
  0.00000000E+00  0.00000000E+00  0.00000000E+00  0.00000000E+00  0.00000000E+00
 -9.43077561E-03 -8.64834396E-02  8.90719096E-01 -3.41765510E-01 -7.55456618E-01
 -8.57253074E-02 -1.39195341E+00  0.00000000E+00  0.00000000E+00  5.14334025E-01
  3.50093518E+00  0.00000000E+00  0.00000000E+00 -1.18816894E+00 -2.61607809E-01
 -6.43454746E-01 -4.01156592E-01  0.00000000E+00  0.00000000E+00  0.00000000E+00
 -3.41765510E-01 -7.55456618E-01  7.36576076E-02  3.50540459E-02  6.93481876E-03
  7.61387866E-02  0.00000000E+00  0.00000000E+00 -6.76351195E-03 -2.18852904E-01
  0.00000000E+00  0.00000000E+00  1.27634932E-01 -3.50161561E-01 -5.95581629E-01
  1.00613108E+00  0.00000000E+00  0.00000000E+00  0.00000000E+00  7.36576076E-02
  3.50540459E-02  0.00000000E+00  0.00000000E+00  0.00000000E+00  0.00000000E+00
  0.00000000E+00  0.00000000E+00  0.00000000E+00  0.00000000E+00  0.00000000E+00
  0.00000000E+00  0.00000000E+00  0.00000000E+00  0.00000000E+00  0.00000000E+00
  1.00000000E+00  0.00000000E+00  0.00000000E+00  0.00000000E+00  0.00000000E+00
  0.00000000E+00  0.00000000E+00  0.00000000E+00  0.00000000E+00  7.13221398E-03
  0.00000000E+00  0.00000000E+00  0.00000000E+00  3.26057436E-02  0.00000000E+00
  0.00000000E+00  0.00000000E+00  0.00000000E+00  0.00000000E+00  0.00000000E+00
  9.99326142E-01  0.00000000E+00  0.00000000E+00  0.00000000E+00 -8.21634833E-01
 -1.35192969E-01 -5.60514391E-02 -4.92829533E-01  0.00000000E+00  0.00000000E+00
  5.93828581E-02  1.53569815E+00  0.00000000E+00  0.00000000E+00 -7.33880013E-01
 -1.13560732E+00  7.32121298E-01  5.78960156E-02  0.00000000E+00  0.00000000E+00
  0.00000000E+00 -8.21634833E-01 -1.35192969E-01  9.27851187E-01 -5.03879037E-02
  0.00000000E+00  0.00000000E+00  0.00000000E+00  3.03636711E-02  0.00000000E+00
  0.00000000E+00  0.00000000E+00 -8.32613393E-01  0.00000000E+00  0.00000000E+00
  0.00000000E+00  0.00000000E+00  0.00000000E+00  0.00000000E+00  1.27145932E+00
 -9.27851187E-01  5.03879037E-02  1.20272854E-01 -5.34943581E-01 -4.64545503E-01
  3.33833486E-01  0.00000000E+00  0.00000000E+00  1.14553147E-01  3.59388779E+00
  0.00000000E+00  0.00000000E+00 -3.20307792E-01 -1.56013026E+00 -1.51786130E+00
 -1.53705407E+00  0.00000000E+00  0.00000000E+00  0.00000000E+00  1.20272854E-01
 -5.34943581E-01
Orthonormal basis                          R   N=         361
  1.15663630E-01  1.60486344E-01  3.17368065E-02  1.59019064E-01 -2.06072452E-18
 -4.51483884E-04 -2.64513113E-02  2.05159532E-01 -4.15216285E-18 -4.61150692E-04
 -5.29646814E-02  1.36174017E-01  1.53730911E-01  1.47026437E-01  2.05612148E-18
  1.61657355E-18  3.10078679E-04  1.17928748E-01  1.61898752E-01  2.64065338E-01
  1.68515858E-01 -2.62287332E-04 -5.54493366E-04  1.58215101E-17  2.67504133E-01
 -1.16222610E-04  4.72316908E-04  2.55532869E-17  3.84994241E-01 -1.53680144E-03
 -3.15918186E-05  9.82106940E-05 -4.49073301E-05 -1.14068301E-17 -8.98388362E-18
 -1.46681099E-01 -2.61895085E-01 -1.63358627E-01 -1.74222781E-01 -9.54055642E-02
  6.47031554E-02  1.82298729E-01  1.10343849E-16  2.74132831E-03  3.93798312E-01
  1.35298510E-01  9.77615283E-17  1.90952518E-03  4.73760771E-01  1.55312803E-01
  7.45089043E-02  1.05366028E-01 -1.22180395E-17 -9.60604311E-18 -1.08166800E-03
 -1.75231970E-01 -9.42364612E-02  1.10619063E-16  4.20125983E-17  5.31452114E-17
 -1.85019188E-16  5.77057836E-01 -7.08551637E-17  2.67584448E-16  5.88959954E-17
  5.77057836E-01 -1.31461123E-16 -2.49670151E-16 -8.83781206E-17 -1.62691582E-16
  2.43673295E-16 -1.88573071E-16 -2.77564260E-16 -2.77579945E-16  1.62982175E-16
 -1.55050438E-16 -1.84204503E-01  2.24661673E-02  3.48262663E-03  2.52362188E-03
  1.10544649E-16  3.74229821E-01 -4.28844278E-03 -1.02347885E-04  1.29790452E-16
  2.61686671E-01 -1.07187841E-03  6.08907737E-04 -1.68011097E-04  3.20342549E-04
  5.96945270E-17  4.70149402E-17  7.69858285E-01  1.81498954E-01 -2.72886919E-02
 -6.36456977E-02 -8.07819717E-02  9.15278152E-01  2.13555219E-01  1.36552560E-16
  5.13713461E-04 -1.92260263E-01  5.08979968E-03  9.27540067E-18 -6.90040290E-04
 -8.52648694E-02 -1.75100773E-02 -1.20569341E-01 -8.12130834E-02 -1.29747107E-16
 -1.02009143E-16 -6.66023349E-03 -6.39009374E-02 -7.98609353E-02  3.08700915E-17
 -5.84844046E-17  1.71874183E-16  2.65935185E-17  3.49834903E-16  6.02551831E-17
 -3.13506693E-18  4.30042345E-17  5.94912833E-16 -4.29341547E-17  2.17088327E-17
 -2.24374838E-17  1.85010679E-16 -2.38786171E-16  7.86129799E-01  6.18061436E-01
 -1.14436332E-16  3.23562601E-17 -5.12110709E-17  1.34357546E-18  3.83498468E-17
  9.64227750E-18 -7.79418920E-18  3.91573759E-16 -4.92813007E-17  2.89681492E-17
 -4.71426860E-17  2.43525135E-16  3.63971348E-17 -1.31761933E-18 -2.04742307E-17
 -1.52933069E-16  1.74121268E-16 -6.18061436E-01  7.86129799E-01  1.17409045E-17
  9.56332871E-19  3.43910378E-17 -2.71770510E-01 -1.96734070E-01 -2.83795136E-01
  2.84528420E-01 -2.37835393E-16  1.77203594E-02 -5.92843434E-01  6.99011244E-02
  3.99031496E-16 -3.05733299E-03 -5.14644307E-02  6.27125192E-01 -2.68388991E-01
  7.36064911E-02  8.79074915E-17  6.91113476E-17 -1.48953047E-02 -2.63417758E-01
 -1.84464662E-01 -7.47581923E-03 -4.99468798E-01 -9.09572612E-02  2.52288063E-01
  3.40573444E-16  5.78286826E-01 -3.78870104E-01 -8.14689787E-03  1.01001144E-16
 -2.10598593E-01  1.85883235E-01 -4.40948379E-01  5.30428873E-01  1.66235706E-01
 -2.26921297E-16 -1.72096586E-17 -2.40567533E-01  1.60068016E-01 -1.19154530E-01
 -1.64752325E-01 -2.22901254E-02  7.10922253E-02 -1.98789422E-01  4.95567179E-16
  7.84028680E-01  2.98020637E-01  4.56240093E-03 -7.23249165E-16 -2.93340730E-01
 -1.43841739E-01  2.99530269E-01 -3.87535261E-01 -1.13423133E-01 -1.20916605E-17
 -1.80350163E-17 -3.14191720E-01  5.58158195E-02  4.97314575E-01  1.13623359E-03
  2.54466551E-03 -1.42328298E-04  4.09082527E-04 -8.55874708E-16 -8.80764935E-03
 -6.07179379E-04 -5.50304484E-07  6.32934799E-16  3.53834917E-03  2.84843798E-04
 -3.78752410E-01 -6.11836086E-01  9.91001145E-01  4.41516690E-16  5.60891416E-19
  3.13113514E-03 -9.64585623E-04 -3.45756937E-03 -2.16656371E-16  1.02662472E-16
 -3.11876052E-16  1.38840574E-16  1.00152416E+00 -8.23405062E-16 -8.89811752E-16
 -1.68437283E-16 -1.00152416E+00  4.82361383E-16  2.05828944E-16 -1.77555310E-16
 -2.67264059E-16  1.13275055E-15  2.60533533E-16  1.17558513E-16  4.46343891E-16
 -3.40960511E-16 -2.78353337E-16 -1.11978849E-01  3.97704603E-01  1.70297721E-01
 -7.80152621E-01  1.18065366E-16  4.20608821E-04 -7.23019084E-01  2.24810777E-01
  9.56871827E-16 -2.58586801E-03  8.99369476E-01 -4.48340322E-02  3.08624901E-02
  1.95969720E-03  3.94247931E-18  2.81423631E-18  2.38228897E-03 -1.13946540E-01
  3.99487410E-01 -7.62471006E-01  6.69314950E-01 -2.67613880E-01  8.24630546E-01
 -3.14241684E-16 -8.47332861E-03 -1.04753046E-01  2.06429119E-03  2.74920375E-16
  1.33213706E-02 -1.25233192E-01 -8.21193590E-01 -5.15611786E-02 -3.45487552E-01
  4.12197696E-17  3.37105472E-17 -1.06145625E-02 -7.22934947E-01  6.43094453E-01
  1.32383171E+00 -6.48070722E-01 -4.95737966E-02  1.89073253E-01  2.83833465E-16
 -1.43249778E-02 -4.29540296E-02 -8.26306735E-03 -1.61159558E-16 -7.16940027E-01
  1.53515747E-01 -5.47100153E-02 -1.83437633E-01 -1.33102537E-01  3.59419405E-17
  4.64515548E-17  8.60290064E-01 -1.06070901E+00  6.84306095E-01  6.86234625E-01
  2.02951817E-01 -2.54135127E-01  9.44270271E-01  6.85156775E-16  2.65930572E-02
 -1.81150899E-01 -6.19206664E-02  1.72813408E-16  8.96713115E-02  9.43079986E-01
 -2.16042928E-01 -1.11023515E+00 -7.68963131E-01 -8.34999509E-17 -5.34925171E-17
 -1.52479741E-01  1.11469838E+00 -8.87752069E-02 -1.66693921E-01 -1.53049855E+00
 -8.53420827E-03  1.61252576E-02 -1.28424302E-16 -5.34994216E-01 -3.48045756E-05
  1.59059765E-02 -7.56388106E-17  1.82331049E+00  2.20415068E-02 -1.70549542E-02
 -4.01494158E-02 -3.17845720E-02 -5.27285910E-18 -2.26903276E-17 -3.53031436E-01
  2.22544756E-01  1.53272673E+00 -2.34782640E-01 -1.19248705E+00 -4.15893139E-01
 -9.79258774E-01  4.44166569E-16  3.85566225E-03  2.17210410E-01  5.72849720E+00
 -7.83214366E-16 -2.93203832E-02 -1.03560579E+00 -1.57728250E+00 -1.23138886E+00
 -1.36347199E+00 -4.15825537E-16  1.88970935E-17  6.74385187E-03 -2.43663524E-01
 -1.25777552E+00
Total SCF Density                          R   N=         190
  1.77612316E-01  7.97465691E-02  4.33766632E-02 -3.18465388E-02  1.15159084E-02
  2.07758784E+00  7.38950730E-02 -2.68813245E-02 -1.82157159E-01  5.08791175E-01
  9.16202973E-16  9.95762877E-18  1.30608725E-16  7.68611106E-16  8.19287276E-01
  2.30974682E-01  1.17633075E-01  1.91268356E-04 -1.13674560E-03  4.12695730E-16
  5.12140808E-01 -1.80070956E-01 -9.99561926E-02 -4.56397302E-02  9.59248714E-02
  3.17197919E-16  2.67601543E-03  6.28206260E-01  2.21362152E-02 -5.48888236E-02
 -2.26079663E-01  5.30191961E-01 -5.66237595E-15  3.42525557E-03  2.78335454E-01
  6.05210550E-01  7.90812145E-16  3.66215583E-17  3.49161922E-16  6.42902689E-16
  6.54159159E-01  6.38010133E-16  5.20035958E-16 -4.41630483E-15  5.22312768E-01
  1.41939918E-01  7.21441644E-02 -3.29961263E-04  3.43548973E-04  1.19480639E-15
  3.13005331E-01 -1.13867051E-04  2.60860845E-03  1.14175344E-15  1.91307938E-01
 -1.28190104E-01 -7.30695973E-02 -3.63689523E-02  8.35879523E-02  1.78097314E-15
 -4.47933451E-04  4.53732675E-01  2.15105855E-01  1.61317512E-15 -1.49963013E-03
  3.28142282E-01 -3.78153572E-03 -2.16000015E-03 -8.84893319E-03  2.35555483E-03
  4.83484979E-16 -7.51715017E-05  1.33341147E-02  6.34942476E-03  3.90609809E-16
 -8.18041102E-05  9.63420750E-03  3.13246525E-04  6.51752208E-03  1.61410696E-04
 -1.90701402E-02  2.42194111E-02  6.87662064E-16 -3.81344355E-04 -5.12207290E-03
  2.25768474E-02  5.44767572E-16 -1.52176553E-04 -2.98322889E-03 -5.16496669E-05
  1.36250162E-03  1.86759192E-02  8.50941723E-03 -1.02410905E-02  4.89203659E-03
  4.44859006E-16 -1.39609967E-05 -5.50709512E-02 -1.11145029E-02  3.30426043E-16
  1.80494562E-04 -3.93999700E-02 -1.12361489E-03  1.17194109E-03  5.23100047E-03
  8.26451865E-17  2.15581116E-17  1.97452025E-16  1.66751544E-16 -6.62867943E-04
  1.05100529E-16 -7.02978736E-18  1.64361939E-16 -5.29266289E-04  6.39236767E-17
 -1.72873526E-18 -1.44443527E-18  6.61121846E-18  3.60543199E-18  5.36312382E-07
 -2.26508613E-16 -8.95178185E-17 -1.86915043E-15 -8.39856333E-17 -4.29416727E-02
 -3.47962106E-16  7.67625156E-17  3.09284353E-16 -3.42867383E-02 -2.62384883E-16
 -2.76357687E-17 -1.60707116E-17 -2.96934739E-17 -2.43483938E-17  3.47431958E-05
  2.25072121E-03 -2.33823832E-02 -1.19121743E-02 -1.19327905E-05  1.38644268E-04
 -1.11486343E-16 -5.19454269E-02 -3.96866158E-04 -3.61264998E-04 -1.20358187E-16
 -3.17470494E-02 -4.39320996E-05  4.93737689E-06  4.17812470E-05  1.34936944E-05
 -1.05861160E-17  3.89059468E-17  5.26875047E-03 -3.13904420E-02 -2.69430799E-02
 -3.29172272E-02  7.68535120E-02  1.27123770E-15 -2.33260732E-01 -1.82394805E-01
  2.09674927E-02  7.94626570E-16 -1.41782271E-01 -1.27655343E-01 -3.70918087E-03
  6.96023886E-03  1.87321306E-02 -1.25894215E-17  5.06740677E-17  2.37042374E-02
  1.80425307E-01 -2.64932148E-02 -1.05785609E-02  1.18595619E-02 -2.73488653E-02
  4.54402844E-15 -1.14671456E-01 -9.72121331E-02 -5.62583954E-02  3.51863971E-15
 -6.98487268E-02 -7.00534936E-02 -2.04351344E-03  2.20990906E-04  8.12530862E-03
 -3.05032732E-17 -1.78497987E-16  1.16490880E-02  7.73864997E-02  4.08684479E-02
Grdnt Energy                               R     -7.600977480657137E+01
Grdnt NVar                                 I                3
Grdnt IGetFC                               I                4
Internal Forces                            R   N=           3
 -2.18939551E-02 -2.18939551E-02  3.93350217E-03
Internal Force Constants                   R   N=           6
  5.28468787E-01 -5.24340708E-03  5.28468787E-01  2.83356280E-02  2.83356276E-02
  1.94696319E-01
Quartic Cent Dist                          R   N=          10
  7.61925631E-03  1.70505763E-02 -2.29524061E-02 -3.69700601E-03  5.79713107E-03
  3.17381465E-04 -1.94587979E-02  2.08588429E-02  3.69700601E-03 -3.65093742E-03
Sextic Cent Dist                           R   N=          14
  1.43869741E-05 -4.83112616E-05 -7.91412996E-05  1.13666142E-04 -7.19145631E-06
 -2.47773436E-05  2.97833642E-05  1.05171963E-05  1.46780822E-05 -2.89271992E-05
  4.33247559E-06 -2.94518513E-06  1.93488894E-06 -4.24627118E-06
Mulliken Charges                           R   N=           3
  4.30882197E-01 -8.63464145E-01  4.32581949E-01
APT Charges                                R   N=           3
  2.87318944E-01 -5.77043241E-01  2.89724297E-01
Optimization MaxStp                        I                2
Optimization MaxJob                        I                1
Optimization Job offset                    I                0
Optimization Num results per geometry      I                8
Optimization Num geometry variables        I                9
Optimization Reference Energy              R     -7.600000000000000E+01
Optimization Number of geometries          I   N=           1
           1
Opt point       1 Results for each geome   R   N=           8
 -9.77480657E-03  0.00000000E+00  2.18939551E-02  1.80200164E-02  3.34816483E-02
  2.71663589E-02  0.00000000E+00  0.00000000E+00
Opt point       1 Geometries               R   N=           9
 -2.12863521E-31  1.43912837E+00 -1.00481518E+00  9.11303906E-34 -4.27608031E-18
  1.26624982E-01 -1.76242395E-16 -1.43912837E+00 -1.00481518E+00
Opt point       1 Gradient at each geome   R   N=           9
  3.08918693E-17  1.58835516E-02 -1.52208731E-02  7.24538078E-16  2.54144876E-16
  3.04417461E-02 -7.55429947E-16 -1.58835516E-02 -1.52208731E-02
ONIOM Charges                              I   N=          16
           0           0           0           0           0           0
           0           0           0           0           0           0
           0           0           0           0
ONIOM Multiplicities                       I   N=          16
           1           0           0           0           0           0
           0           0           0           0           0           0
           0           0           0           0
Atom Layers                                I   N=           3
           1           1           1
Atom Modifiers                             I   N=           3
           0           0           0
Int Atom Modified Types                    I   N=           3
           0           0           0
Atom Modified Types                        C   N=           3
                                    
Link Atoms                                 I   N=           3
           0           0           0
Atom Modified MM Charges                   R   N=           3
  0.00000000E+00  0.00000000E+00  0.00000000E+00
Link Distances                             R   N=          12
  0.00000000E+00  0.00000000E+00  0.00000000E+00  0.00000000E+00  0.00000000E+00
  0.00000000E+00  0.00000000E+00  0.00000000E+00  0.00000000E+00  0.00000000E+00
  0.00000000E+00  0.00000000E+00
Cartesian Gradient                         R   N=           9
  3.08918693E-17  1.58835516E-02 -1.52208731E-02  7.24538078E-16  2.54144876E-16
  3.04417461E-02 -7.55429947E-16 -1.58835516E-02 -1.52208731E-02
Cartesian Force Constants                  R   N=          45
  1.22447884E-02 -1.57483696E-17  3.69539784E-01  7.66739177E-18 -2.18801040E-01
  2.28985396E-01 -1.34526524E-02 -3.98101575E-17  3.86782106E-17  2.69053046E-02
  1.34765377E-17 -3.35546391E-01  2.53229521E-01 -5.99635014E-16  6.71092782E-01
 -1.25226512E-17  1.84372557E-01 -2.47845268E-01 -5.38918603E-16  5.35721666E-10
  4.95690535E-01  1.20786345E-03  2.74905458E-17 -1.84439689E-17 -1.34526518E-02
  5.82319435E-16  4.74098113E-16  1.22447884E-02  3.08785313E-17 -3.39933935E-02
 -3.44284806E-02  5.78931432E-16 -3.35546391E-01 -1.84372557E-01 -5.77902941E-16
  3.69539784E-01  2.38527436E-17  3.44284806E-02  1.88598738E-02  4.31801320E-16
 -2.53229521E-01 -2.47845269E-01 -4.06212556E-16  2.18801040E-01  2.28985396E-01
Cartesian 3rd/4th derivatives              R   N=         270
  1.05578677E-02  5.63099771E-15 -1.59659259E-01  1.39004436E-17  2.01507352E-02
  1.05811120E-01 -5.72230517E-02 -3.06232928E-15  1.56460469E-15  1.14446103E-01
 -2.18409023E-15  2.29825356E-01 -1.75303751E-02  2.93182751E-17 -4.59650712E-01
 -3.41135157E-15 -2.27710440E-02 -9.78826115E-02  1.90448895E-15 -2.10095306E-09
  1.95765268E-01  4.66651840E-02 -2.56866843E-15 -1.57850514E-15 -5.72230516E-02
  2.15477196E-15  1.50686262E-15  1.05578676E-02 -3.44690748E-15 -7.01660976E-02
 -2.62036016E-03  3.03301101E-15  2.29825356E-01  2.27710461E-02  4.13896472E-16
 -1.59659258E-01  3.39745112E-15  2.62030880E-03 -7.92850879E-03 -3.46909364E-15
  1.75303772E-02 -9.78826567E-02  7.16425168E-17 -2.01506860E-02  1.05811166E-01
 -1.97943196E-01  3.08580558E-15  8.39793311E-01 -1.66214406E-15 -7.41472773E-01
  4.18372121E-01  1.84171380E-01 -1.33903904E-15  2.86679307E-15 -3.68342760E-01
 -2.07489952E-15 -8.05734765E-01  7.79560998E-01  3.52371942E-15  1.61146953E+00
  3.73627609E-17  7.03384488E-01 -4.34548828E-01  3.73088413E-16  5.99055480E-09
  8.69097606E-01  1.37718161E-02 -1.74676654E-15 -1.20464901E-15  1.84171380E-01
 -1.44881991E-15 -4.10451174E-16 -1.97943196E-01 -1.01090606E-15 -3.40585460E-02
 -3.80882245E-02 -2.18468039E-15 -8.05734766E-01 -7.03384494E-01  3.19558645E-15
  8.39793312E-01  1.62478130E-15  3.80882856E-02  1.61767074E-02 -3.23988149E-15
 -7.79561004E-01 -4.34548777E-01  1.61510019E-15  7.41472718E-01  4.18372070E-01
 -2.08329588E-01 -2.38839337E-15  8.07190520E-01  7.65591384E-16 -7.79231616E-01
  4.62748145E-01  2.08329588E-01  2.96351060E-15 -6.09749833E-16  4.24319412E-10
  2.56059610E-15 -8.07190515E-01  7.97459978E-01  3.21272119E-15 -1.92379591E-09
 -1.51436107E-15  7.97460011E-01 -4.62748189E-01  7.19122417E-15 -1.59491995E+00
  1.86951124E-07 -6.55976563E-12 -5.75117231E-16 -1.55841551E-16 -2.08329588E-01
 -5.77331729E-15 -5.67686310E-15  2.08329588E-01 -1.72202728E-16 -4.37958242E-09
 -1.82283624E-02 -6.17623179E-15  8.07190517E-01  7.97459943E-01  6.34843452E-15
 -8.07190513E-01  7.48769684E-16 -1.82283957E-02  4.44596641E-08 -6.58147434E-15
  7.97459976E-01  4.62748002E-01  5.83270465E-15 -7.79231580E-01 -4.62748047E-01
 -2.49783906E-03  2.26397496E-13 -2.30308286E-01 -9.65704172E-13  3.60614792E-01
 -3.52765166E-01  4.42225622E-04 -2.73726432E-13  7.10298115E-13 -8.83955066E-04
 -5.11444606E-13  2.47613278E-01 -4.45118826E-01  1.62907088E-12 -4.95229375E-01
  1.27346129E-12 -2.76102224E-01  4.22909651E-01 -1.03609758E-13 -2.74759950E-06
 -8.45817641E-01  2.05834218E-03  2.04525641E-13  9.91409937E-14  4.39249460E-04
 -1.09612545E-12 -7.36685827E-13 -2.49783904E-03  1.24833276E-13 -1.73025018E-02
  8.45019224E-02 -1.01643299E-12  2.47612217E-01  2.76105278E-01  7.12902189E-13
 -2.30308328E-01 -4.14153870E-13 -8.44964865E-02 -7.01521043E-02 -2.23390512E-13
  4.45118266E-01  4.22918821E-01  3.60643736E-13 -3.60619975E-01 -3.52769936E-01
 -6.97237748E-01  3.66960581E-13  1.87009646E+00 -7.81833052E-13 -1.94071133E+00
  8.79011812E-01  6.66425386E-01 -2.98503758E-13  6.18816302E-13 -1.33285030E+00
 -7.64025289E-13 -1.85403672E+00  1.99058324E+00  1.65982923E-12  3.70807087E+00
  1.03580623E-12  1.89084692E+00 -9.14001948E-01  3.60536578E-13 -2.21911480E-06
  1.82800506E+00  3.08150906E-02  8.87398817E-14  6.75168722E-15  6.66422407E-01
 -8.74303124E-13 -9.63177094E-13 -6.97237745E-01  2.36850873E-13 -1.60572526E-02
 -4.98740236E-02 -1.02241402E-12 -1.85403804E+00 -1.89084439E+00  6.06865618E-13
  1.87009667E+00 -3.60369921E-13  4.98804929E-02  3.49825173E-02 -5.96055034E-13
 -1.99058433E+00 -9.13992282E-01  6.79524309E-13  1.94070564E+00  8.79006545E-01
 -7.40699750E-01  3.11869743E-13  1.80889998E+00 -9.20412431E-13 -2.08858429E+00
  1.02506358E+00  7.49063743E-01 -1.93312384E-14  9.12045200E-13 -1.49812700E+00
 -7.45977324E-13 -1.82637460E+00  2.09860150E+00  1.26683113E-12  3.65274651E+00
  1.25054774E-12  2.07856701E+00 -1.01591789E+00 -5.39650796E-13 -1.88931919E-06
  2.03183358E+00 -8.36126446E-03 -1.35341799E-13 -1.47897832E-13  7.49060769E-01
 -4.99352989E-13 -2.77731232E-13 -7.40699752E-01  2.73893747E-13  1.74771119E-02
 -1.00193187E-02 -9.08588438E-13 -1.82637580E+00 -2.07856482E+00  4.55997164E-13
  1.80890008E+00 -4.36532053E-13  1.00333558E-02 -9.15330079E-03  1.09034412E-14
 -2.09860291E+00 -1.01590485E+00  1.48727966E-13  2.08857136E+00  1.02505493E+00
Dipole Moment                              R   N=           3
 -7.23740249E-17  9.69933612E-17 -8.85114812E-01
Dipole Derivatives                         R   N=          27
  3.91145224E-01  7.57219788E-17  6.39998195E-17 -6.00723073E-18  2.53166786E-01
  6.42172408E-02 -2.30770727E-18  1.08478397E-01  2.21255327E-01 -7.82290444E-01
  9.55810971E-16  5.86767957E-16  2.60006033E-17 -5.06333572E-01 -7.01147207E-10
  2.55078304E-17 -1.98325420E-09 -4.42510650E-01  3.91145223E-01 -4.18290279E-16
 -3.17829667E-16  2.32195408E-17  2.53166780E-01 -6.42172398E-02  1.67077761E-17
 -1.08478400E-01  2.21255329E-01
Polarizability                             R   N=           6
  2.76023965E+00  3.47694867E-16  7.08326751E+00  2.33659907E-16  3.24769345E-10
  5.10680200E+00
HyperPolarizability                        R   N=          10
  6.14538910E-17  1.76015844E-08 -1.82164307E-15 -1.79301936E-07 -1.42463043E-01
 -1.53235923E-15 -2.08727977E+01 -8.76383214E-16 -1.52255269E-06 -1.02597477E+01
Quadrupole Moment                          R   N=           6
 -1.14755612E+00  1.15805071E+00 -1.04945932E-02  1.06314450E-16  7.38388375E-17
 -2.15196743E-17
NDeriv for static properties               I                3
ND12 for static properties                 I               -2
Dipole Moment num derivs                   R   N=          18
 -3.05996017E-17 -1.49691875E-09 -3.20370593E-01  4.78809809E-17 -4.67470051E-09
  1.22214487E-01 -4.41730915E-17 -2.13106224E-01 -1.58643076E-09  4.04661291E-16
  2.69987501E-08  9.72693810E-02  2.06134238E-15 -7.91578090E-08  2.05375699E-01
 -6.68014934E-15 -1.12560588E-08  7.67784457E-02
Dipole Derivatives num derivs              R   N=         162
 -6.69916608E-02 -3.80399514E-14  1.05394845E-14  7.30588210E-16 -1.26893157E-01
  3.00841513E-02 -5.89439779E-15  1.36271308E-01 -1.01346321E-01  1.33983321E-01
  9.54956087E-14  3.19521844E-14 -1.92310725E-15  2.53786206E-01  1.21657501E-08
  3.41955619E-16 -2.95995816E-08  2.02692626E-01 -6.69916607E-02 -5.74556573E-14
 -4.24916689E-14  1.19251904E-15 -1.26893049E-01 -3.00841635E-02  5.55244217E-15
 -1.36271278E-01 -1.01346305E-01  9.85164636E-02 -3.05639026E-14  1.48659255E-14
  5.50492967E-15  1.82597825E-01 -6.58822823E-02 -7.28987437E-15 -6.55493429E-02
  1.47848424E-01 -1.97032927E-01  5.22759100E-14 -7.99963186E-15 -1.44449418E-14
 -3.65195530E-01 -3.21776080E-08 -2.30203603E-16  2.50770436E-08 -2.95696813E-01
  9.85164634E-02 -2.17120075E-14 -6.86629367E-15  8.94001218E-15  1.82597705E-01
  6.58823145E-02  7.52007797E-15  6.55493179E-02  1.47848389E-01  8.91820471E-02
 -2.46618244E-14  1.81685370E-14  9.38794656E-15  4.54222697E-02 -2.45970974E-02
 -7.86072073E-15 -2.52317802E-01  5.63247396E-02  1.85410616E-10  5.21619527E-14
  1.02672501E-14 -5.80513220E-15  5.15641137E-10  4.91941293E-02  8.09056822E-15
  5.04635576E-01 -3.91965377E-07 -8.91820473E-02 -2.75001282E-14 -2.84357871E-14
 -3.58281436E-15 -4.54222702E-02 -2.45970318E-02 -2.29847498E-16 -2.52317774E-01
 -5.63243477E-02  2.84247812E-02  4.02471465E-12 -8.42820195E-13 -9.98753175E-13
  1.41030205E-01  2.45321356E-02  4.57663209E-13  4.04562744E-02  3.41278416E-02
 -5.68719841E-02 -6.80947086E-12 -2.91876437E-14  2.95740378E-12 -2.82055961E-01
  2.63868559E-06  1.87474366E-12  1.42341141E-05 -6.82766367E-02  2.84299351E-02
 -6.49752546E-13 -9.92635489E-13 -2.20066757E-12  1.41054747E-01 -2.45364995E-02
 -2.55591387E-12 -4.04459910E-02  3.41146616E-02 -1.39728139E-02  4.45441532E-12
 -1.56946912E-12 -1.89662353E-12 -5.46384543E-02  3.48570353E-02  1.09892800E-12
  3.17564132E-02  1.60101052E-02  2.79232061E-02 -1.07344063E-11 -2.33337115E-12
  4.88948633E-12  1.09282556E-01  5.16762168E-07  1.19022150E-12  1.37154875E-05
 -3.20392035E-02 -1.39676599E-02  2.84548227E-12  2.03819694E-12 -3.23487976E-12
 -5.46151111E-02 -3.48592772E-02 -2.51265650E-12 -3.17456111E-02  1.59949650E-02
  3.21271875E-02 -2.66285523E-12  4.27032465E-12  6.23082015E-15  5.01139050E-02
 -2.66171278E-02 -5.64638181E-13 -2.50223006E-01 -9.60621639E-02 -6.42767966E-02
 -3.57741868E-12 -9.17278079E-12  3.76088522E-12 -1.00209461E-01 -1.59511332E-06
  3.82159703E-12  6.89181108E-06  1.92122718E-01  3.21323414E-02  2.80576515E-12
  3.03781281E-12 -4.00913300E-12  5.01245472E-02  2.66169978E-02 -3.48046585E-12
  2.50240632E-01 -9.60946875E-02
Polarizability num derivs                  R   N=          36
 -7.56619737E-02  1.81419560E-13 -7.91777404E-01  1.02159864E-13  7.54975700E-08
  2.68026146E+00  2.82378364E-01  1.45626675E-13 -8.27404430E+00 -4.39644406E-14
 -9.20368084E-08 -3.77296086E+00 -2.51510772E-10  6.57304899E-14 -3.83282443E-08
 -6.81368763E-14  5.23837493E+00 -2.44843087E-07 -1.44531603E-02 -2.72264094E-11
  1.97846836E+00 -8.83044366E-12 -9.87232080E-06  2.31092586E+00 -8.57217327E-02
 -3.30945828E-11  9.63149897E+00 -5.48758037E-12 -1.20445579E-05  2.45174130E+00
  3.14553977E-02 -1.49532984E-11  4.66955157E+00 -2.00229395E-11 -3.02129601E-05
  3.24229776E+00
HyperPolarizability num derivs             R   N=          60
 -3.36466308E-13 -1.31157587E-07 -1.25707776E-12 -5.61096904E-07  2.68357745E-01
 -1.74861250E-12 -4.41076536E+00 -8.48908468E-13  2.16891018E-05 -1.19767295E+01
 -4.07673207E-13 -8.34328029E-07  2.71169600E-13 -2.94570563E-07 -2.19479946E+00
 -1.08230634E-12  3.69523649E+01  2.40321659E-13 -3.40508993E-05  1.05359884E+01
  9.66286030E-13  3.88381364E+00  4.55815386E-13 -3.24559249E+01 -6.06855039E-06
 -6.74264518E-13 -2.65550790E-05  6.54886719E-13 -1.97027249E+01 -4.65063751E-05
  2.19346584E-11 -8.47445796E-05  6.75336276E-11  1.06396042E-03  1.08759160E+00
  9.94372273E-11 -6.47704867E+00 -3.56991006E-12  6.23192615E-03 -8.20801361E+00
 -2.91896732E-11 -1.87233397E-04  6.26360918E-11  9.76016154E-04 -4.82273934E-01
  2.28543630E-10 -4.19474019E+01  3.49266587E-11  4.92519605E-03 -8.64716009E-01
 -3.56179851E-11 -4.12693452E-04  3.06658085E-10  1.75864264E-04  7.79204053E-01
  8.98636973E-11 -1.20887676E+01  1.68556107E-10 -2.12566342E-03 -1.15279899E+01
Quadrupole Moment num derivs               R   N=          36
  1.34840764E-01 -1.40343618E+00  1.26859542E+00 -2.14390781E-14 -3.52762073E-15
 -9.30404146E-11  5.74090806E-01 -5.57631650E-01 -1.64591556E-02 -4.18058241E-14
  2.72712613E-14  7.02948611E-10 -4.78675349E-10  3.20942053E-10  1.57756741E-10
  2.33689589E-14  1.83080268E-14  8.17088715E-01 -2.72381900E-01  5.86665079E-02
  2.13715392E-01  5.43283606E-12  1.35052529E-12  2.96612972E-11 -3.79796250E-02
 -6.17235500E-02  9.97031751E-02  8.08607017E-12  1.44805644E-12 -3.34450109E-10
 -1.57189877E-01  1.56784117E-01  4.05760064E-04  3.73817137E-12  5.52103609E-13
  2.10992518E-10
QEq coupling tensors                       R   N=          18
  2.61976504E-01 -1.22099724E-18 -2.12569065E-01  1.10721442E-19  3.17005272E-01
 -4.94074398E-02  1.95099046E+00  4.66531235E-17 -1.66982027E+00  3.64056029E-17
  5.34169083E-17 -2.81170187E-01  2.61976504E-01 -8.39899056E-17 -2.12569065E-01
 -6.66091713E-17 -3.17005272E-01 -4.94074398E-02
NDeriv for magnetic props                  I                3
ND12 for magnetic props                    I               -2
QEq coupling tensors num derivs            R   N=         108
 -2.11207076E-02  5.04213456E-15  2.10989049E-01 -9.48029326E-15 -2.01038608E-02
 -1.89868341E-01  4.13434126E-01 -5.62665284E-13  7.61780475E-01  5.11724742E-14
  1.53889300E-10 -1.17521460E+00 -2.11207075E-02  1.56354662E-14  2.10989048E-01
  1.78657236E-14  2.01038606E-02 -1.89868341E-01  6.55100635E-01  2.88799752E-14
 -5.55038397E-01 -2.26714681E-14  8.66453720E-01 -1.00062238E-01 -1.05753881E+00
 -4.75255898E-14  4.70232523E-01 -2.46342552E-14 -1.19000464E-09  5.87306292E-01
  6.55100634E-01 -2.29223364E-14 -5.55038396E-01 -1.01316192E-14 -8.66453718E-01
 -1.00062238E-01  6.70290943E-01  1.07443925E-14 -5.31865235E-01 -5.55944252E-15
  8.97529616E-01 -1.38425708E-01  9.52544909E-10  3.29883295E-14 -3.10831077E-10
  1.28439171E-14 -1.38625071E+00 -6.41712269E-10 -6.70290944E-01  1.42320692E-14
  5.31865236E-01  2.69610810E-15  8.97529617E-01  1.38425708E-01 -2.51029760E-01
  9.59585116E-13  5.41786557E-02 -5.91380752E-13 -4.70616525E-01  1.96851104E-01
  1.49202511E-01  5.72010802E-11  4.93744837E-01 -1.25317590E-12 -2.48246210E-10
 -6.42947346E-01 -2.51029760E-01 -2.74856406E-12  5.41786561E-02 -2.76523735E-12
  4.70616525E-01  1.96851104E-01  1.61346050E+00  2.42003485E-12 -1.38934515E+00
 -1.61095981E-12  2.23495600E+00 -2.24115349E-01  3.22795458E-01  5.65468219E-12
  1.35993431E-01  1.01232487E-11 -1.29824230E-10 -4.58788888E-01  1.61346050E+00
 -2.87951635E-12 -1.38934515E+00 -2.12328742E-12 -2.23495599E+00 -2.24115348E-01
  1.70800084E+00  7.42803979E-12 -1.33906555E+00 -4.68913632E-12  2.36401644E+00
 -3.68935290E-01  8.90481942E-02  3.53250236E-12 -2.68023711E-01 -1.09888344E-11
 -2.29556707E-11  1.78975516E-01  1.70800084E+00 -4.25452873E-12 -1.33906555E+00
 -3.60423903E-12 -2.36401645E+00 -3.68935290E-01
Number of Normal Modes                     I                3
Vib-LE2Fix                                 I               14
Vib-NDFDPol                                I                0
Vib-NumROA                                 I                0
Vib-NDim                                   I                3
Vib-NDim0                                  I                3
Vib-LFlags                                 I                8
Vib-IFlags                                 I   N=          24
           0           0           1           0           0           0
           0           0           0           0           2           0
           0           0           0           0           0           0
           3           0           0           0           0           0
Vib-AtMass                                 R   N=           3
  1.00782504E+00  1.59949146E+01  1.00782504E+00
Vib-E2                                     R   N=          42
  1.88836415E+03  3.78573255E+03  3.88436842E+03  1.08173301E+00  1.04604713E+00
  1.08100975E+00  2.27269825E+00  8.83285930E+00  9.60993930E+00  1.00059088E+02
  1.45611818E+01  4.42734654E+01  0.00000000E+00  0.00000000E+00  0.00000000E+00
  0.00000000E+00  0.00000000E+00  0.00000000E+00  0.00000000E+00  0.00000000E+00
  0.00000000E+00  0.00000000E+00  0.00000000E+00  0.00000000E+00  0.00000000E+00
  0.00000000E+00  0.00000000E+00  0.00000000E+00  0.00000000E+00  0.00000000E+00
  0.00000000E+00  0.00000000E+00  0.00000000E+00  0.00000000E+00  0.00000000E+00
  0.00000000E+00  0.00000000E+00  0.00000000E+00  0.00000000E+00  0.00000000E+00
  0.00000000E+00  0.00000000E+00
Vib-Modes                                  R   N=          27
  6.98803899E-17  4.32436629E-01  5.57254736E-01 -5.46935083E-18  7.93015110E-12
 -7.02242291E-02  1.69221766E-17 -4.32436629E-01  5.57254736E-01  4.39451205E-18
  5.81489739E-01 -4.00742457E-01  3.93321213E-18 -5.91134776E-11  5.05008361E-02
 -6.68174426E-17 -5.81489738E-01 -4.00742456E-01  4.08309474E-27  5.54521425E-01
 -4.35963755E-01 -4.27890259E-18 -6.98797823E-02 -5.21120003E-11  6.79092890E-17
  5.54521426E-01  4.35963756E-01
Anharmonic Number of Normal Modes          I                9
Anharmonic Vib-LE2Fix                      I               14
Anharmonic Vib-NDFDPol                     I                0
Anharmonic Vib-NumROA                      I                0
Anharmonic Vib-NDim                        I                3
Anharmonic Vib-NDim0                       I                3
Anharmonic Vib-LFlags                      I                8
Anharmonic Vib-IFlags                      I   N=          72
           1           0           2           0           0           0
           0           0           1           0           1           0
           0           0           0           0           1           0
           3           0           0           0           0           0
           2           0           2           0           0           0
           0           0           3           0           2           1
           0           0           0           0           2           0
           1           0           0           0           0           0
           3           0           3           2           0           0
           0           0           3           0           3           1
           0           0           0           0           2           0
           3           0           0           0           0           0
Anharmonic Vib-AtMass                      R   N=           3
  1.00782504E+00  1.59949146E+01  1.00782504E+00
Anharmonic Vib-E2                          R   N=         126
  1.83715700E+03  3.56912827E+03  3.69654937E+03  3.68868252E+03  5.40383840E+03
  7.12717181E+03  5.51010436E+03  7.13735860E+03  7.29875726E+03  0.00000000E+00
  0.00000000E+00  0.00000000E+00  0.00000000E+00  0.00000000E+00  0.00000000E+00
  0.00000000E+00  0.00000000E+00  0.00000000E+00  0.00000000E+00  0.00000000E+00
  0.00000000E+00  0.00000000E+00  0.00000000E+00  0.00000000E+00  0.00000000E+00
  0.00000000E+00  0.00000000E+00  9.80815810E+01  8.44726309E+00  3.59909740E+01
  2.43426061E+00  4.94137204E-01  1.49653345E+00  4.26387495E+00  6.24976872E+00
  5.90609766E-01  0.00000000E+00  0.00000000E+00  0.00000000E+00  0.00000000E+00
  0.00000000E+00  0.00000000E+00  0.00000000E+00  0.00000000E+00  0.00000000E+00
  0.00000000E+00  0.00000000E+00  0.00000000E+00  0.00000000E+00  0.00000000E+00
  0.00000000E+00  0.00000000E+00  0.00000000E+00  0.00000000E+00  0.00000000E+00
  0.00000000E+00  0.00000000E+00  0.00000000E+00  0.00000000E+00  0.00000000E+00
  0.00000000E+00  0.00000000E+00  0.00000000E+00  2.12984789E+02  9.44194069E+00
  3.88422602E+01  2.63271106E+00  3.64798130E-01  8.37677022E-01  3.08710953E+00
  3.49328349E+00  3.22819014E-01  0.00000000E+00  0.00000000E+00  0.00000000E+00
  0.00000000E+00  0.00000000E+00  0.00000000E+00  0.00000000E+00  0.00000000E+00
  0.00000000E+00  0.00000000E+00  0.00000000E+00  0.00000000E+00  0.00000000E+00
  0.00000000E+00  0.00000000E+00  0.00000000E+00  0.00000000E+00  0.00000000E+00
  0.00000000E+00  0.00000000E+00  0.00000000E+00  0.00000000E+00  0.00000000E+00
  0.00000000E+00  0.00000000E+00  0.00000000E+00  0.00000000E+00  0.00000000E+00
  0.00000000E+00  0.00000000E+00  0.00000000E+00  0.00000000E+00  0.00000000E+00
  0.00000000E+00  0.00000000E+00  0.00000000E+00  0.00000000E+00  0.00000000E+00
  0.00000000E+00  0.00000000E+00  0.00000000E+00  0.00000000E+00  0.00000000E+00
  0.00000000E+00  0.00000000E+00  0.00000000E+00  0.00000000E+00  0.00000000E+00
  0.00000000E+00  0.00000000E+00  0.00000000E+00  0.00000000E+00  0.00000000E+00
  0.00000000E+00
Anharmonic Vib-Modes                       R   N=          81
 -2.18024344E-16 -4.12908846E-01 -5.37766852E-01  1.59641117E-17 -7.91643849E-12
  6.77684013E-02 -3.53376919E-17  4.12908846E-01 -5.37766851E-01 -2.16788243E-16
 -8.37511568E-01 -1.33781303E-01  3.97142304E-18  4.20047761E-11  1.68588767E-02
  1.53758878E-16  8.37511567E-01 -1.33781303E-01 -1.92084491E-17 -5.33339224E-01
  4.19310347E-01  1.48682335E-17  6.72104398E-02  5.01213691E-11 -2.16761205E-16
 -5.33339225E-01 -4.19310347E-01 -3.87102057E-16 -4.64398859E-01 -1.20715614E+00
  3.58355583E-17 -4.54480392E-11  1.52123623E-01 -1.81634256E-16  4.64398859E-01
 -1.20715614E+00 -2.47230215E-16 -9.75874083E-01 -1.33074672E-01  3.95044606E-18
  5.03280607E-11  1.67698284E-02  1.84533770E-16  9.75874082E-01 -1.33074673E-01
 -6.62233518E-17 -1.13571978E+00  7.85416711E-01 -2.33158292E-17  1.15620687E-10
 -9.89767864E-02  4.36262480E-16  1.13571978E+00  7.85416710E-01 -2.36515341E-16
 -9.24505853E-01 -1.35828687E-01  3.00874969E-17  6.41088477E-02  6.75191460E-02
 -2.40995068E-16 -9.29480796E-02 -9.35749153E-01 -5.59623267E-17 -1.19300222E+00
  8.82768346E-01  5.77670258E-18  7.86927026E-02 -4.93768002E-02 -3.57181350E-17
 -5.59080714E-02 -9.91226981E-02 -3.99737478E-17 -1.12760174E+00  8.89223971E-01
  2.82342613E-17  1.34420880E-01 -6.37693296E-03 -4.08124467E-16 -1.00575516E+00
 -7.88017417E-01
Anharmonic number of displacements         I                3
Anharmonic displacement N1                 I                0
Anharmonic displacement flags              I   N=           3
           1           2           3
Anharmonic displacements                   R   N=          27
 -6.71885516E-17 -4.15778887E-01 -5.35788920E-01  5.25866787E-18 -7.62467764E-12
  6.75191459E-02 -1.62703233E-17  4.15778887E-01 -5.35788919E-01 -4.29670002E-18
 -5.68547075E-01  3.91822825E-01 -3.84566761E-18  5.77977444E-11 -4.93768002E-02
  6.53302355E-17  5.68547075E-01  3.91822824E-01 -3.92717145E-27 -5.33339224E-01
  4.19310347E-01  4.11545250E-18  6.72104398E-02  5.01213693E-11 -6.53152175E-17
 -5.33339225E-01 -4.19310347E-01
ClPar MaxAn                                I              200
ClPar NIntPar                              I               12
ClPar NRealPar                             I               16
ClPar NBits                                I               30
ClPar LenBitVec                            I                1
ClPar Read BitMap                          I   N=         200
           0           0           0           0           0           0
           0           0           0           0           0           0
           0           0           0           0           0           0
           0           0           0           0           0           0
           0           0           0           0           0           0
           0           0           0           0           0           0
           0           0           0           0           0           0
           0           0           0           0           0           0
           0           0           0           0           0           0
           0           0           0           0           0           0
           0           0           0           0           0           0
           0           0           0           0           0           0
           0           0           0           0           0           0
           0           0           0           0           0           0
           0           0           0           0           0           0
           0           0           0           0           0           0
           0           0           0           0           0           0
           0           0           0           0           0           0
           0           0           0           0           0           0
           0           0           0           0           0           0
           0           0           0           0           0           0
           0           0           0           0           0           0
           0           0           0           0           0           0
           0           0           0           0           0           0
           0           0           0           0           0           0
           0           0           0           0           0           0
           0           0           0           0           0           0
           0           0           0           0           0           0
           0           0           0           0           0           0
           0           0           0           0           0           0
           0           0           0           0           0           0
           0           0           0           0           0           0
           0           0           0           0           0           0
           0           0
ClPar Default BitMap                       I   N=         200
      516096      516096      516096      516096      516096      516096
      516096      516096      516096      516096      516096      516096
      516096      516096      516096      516096      516096      516096
      516096      516096      516096      516096      516096      516096
      516096      516096      516096      516096      516096      516096
      516096      516096      516096      516096      516096      516096
      516096      516096      516096      516096      516096      516096
      516096      516096      516096      516096      516096      516096
      516096      516096      516096      516096      516096      516096
      516096      516096      516096      516096      516096      516096
      516096      516096      516096      516096      516096      516096
      516096      516096      516096      516096      516096      516096
      516096      516096      516096      516096      516096      516096
      516096      516096      516096      516096      516096      516096
      516096      516096      122880      122880      122880      122880
      122880      122880      122880      122880      122880      122880
      122880      122880      122880      122880      122880      122880
      122880      122880      122880      122880      122880      122880
      122880      122880      122880      122880      122880      122880
      122880      122880      122880      122880      122880      122880
      122880      122880      122880      122880      122880      122880
      122880      122880      122880      122880      122880      122880
      122880      122880      122880      122880      122880      122880
      122880      122880      122880      122880      122880      122880
      122880      122880      122880      122880      122880      122880
      122880      122880      122880      122880      122880      122880
      122880      122880      122880      122880      122880      122880
      122880      122880      122880      122880      122880      122880
      122880      122880      122880      122880      122880      122880
      122880      122880      122880      122880      122880      122880
      122880      122880      122880      122880      122880      122880
      122880      122880      122880      122880      122880      122880
      122880      122880      122880      122880      122880      122880
      122880      122880
ClPar Int Params                           I   N=        2400
           0           0           0           0           0           0
           0           0           0           0           0           0
           0           0           0           0           0           0
           0           0           0           0           0           0
           0           0           0           0           0           0
           0           0           0           0           0           0
           0           0           0           0           0           0
           0           0           0           0           0           0
           0           0           0           0           0           0
           0           0           0           0           0           0
           0           0           0           0           0           0
           0           0           0           0           0           0
           0           0           0           0           0           0
           0           0           0           0           0           0
           0           0           0           0           0           0
           0           0           0           0           0           0
           0           0           0           0           0           0
           0           0           0           0           0           0
           0           0           0           0           0           0
           0           0           0           0           0           0
           0           0           0           0           0           0
           0           0           0           0           0           0
           0           0           0           0           0           0
           0           0           0           0           0           0
           0           0           0           0           0           0
           0           0           0           0           0           0
           0           0           0           0           0           0
           0           0           0           0           0           0
           0           0           0           0           0           0
           0           0           0           0           0           0
           0           0           0           0           0           0
           0           0           0           0           0           0
           0           0           0           0           0           0
           0           0           0           0           0           0
           0           0           0           0           0           0
           0           0           0           0           0           0
           0           0           0           0           0           0
           0           0           0           0           0           0
           0           0           0           0           0           0
           0           0           0           0           0           0
           0           0           0           0           0           0
           0           0           0           0           0           0
           0           0           0           0           0           0
           0           0           0           0           0           0
           0           0           0           0           0           0
           0           0           0           0           0           0
           0           0           0           0           0           0
           0           0           0           0           0           0
           0           0           0           0           0           0
           0           0           0           0           0           0
           0           0           0           0           0           0
           0           0           0           0           0           0
           0           0           0           0           0           0
           0           0           0           0           0           0
           0           0           0           0           0           0
           0           0           0           0           0           0
           0           0           0           0           0           0
           0           0           0           0           0           0
           0           0           0           0           0           0
           0           0           0           0           0           0
           0           0           0           0           0           0
           0           0           0           0           0           0
           0           0           0           0           0           0
           0           0           0           0           0           0
           0           0           0           0           0           0
           0           0           0           0           0           0
           0           0           0           0           0           0
           0           0           0           0           0           0
           0           0           0           0           0           0
           0           0           0           0           0           0
           0           0           0           0           0           0
           0           0           0           0           0           0
           0           0           0           0           0           0
           0           0           0           0           0           0
           0           0           0           0           0           0
           0           0           0           0           0           0
           0           0           0           0           0           0
           0           0           0           0           0           0
           0           0           0           0           0           0
           0           0           0           0           0           0
           0           0           0           0           0           0
           0           0           0           0           0           0
           0           0           0           0           0           0
           0           0           0           0           0           0
           0           0           0           0           0           0
           0           0           0           0           0           0
           0           0           0           0           0           0
           0           0           0           0           0           0
           0           0           0           0           0           0
           0           0           0           0           0           0
           0           0           0           0           0           0
           0           0           0           0           0           0
           0           0           0           0           0           0
           0           0           0           0           0           0
           0           0           0           0           0           0
           0           0           0           0           0           0
           0           0           0           0           0           0
           0           0           0           0           0           0
           0           0           0           0           0           0
           0           0           0           0           0           0
           0           0           0           0           0           0
           0           0           0           0           0           0
           0           0           0           0           0           0
           0           0           0           0           0           0
           0           0           0           0           0           0
           0           0           0           0           0           0
           0           0           0           0           0           0
           0           0           0           0           0           0
           0           0           0           0           0           0
           0           0           0           0           0           0
           0           0           0           0           0           0
           0           0           0           0           0           0
           0           0           0           0           0           0
           0           0           0           0           0           0
           0           0           0           0           0           0
           0           0           0           0           0           0
           0           0           0           0           0           0
           0           0           0           0           0           0
           0           0           0           0           0           0
           0           0           0           0           0           0
           0           0           0           0           0           0
           0           0           0           0           0           0
           0           0           0           0           0           0
           0           0           0           0           0           0
           0           0           0           0           0           0
           0           0           0           0           0           0
           0           0           0           0           0           0
           0           0           0           0           0           0
           0           0           0           0           0           0
           0           0           0           0           0           0
           0           0           0           0           0           0
           0           0           0           0           0           0
           0           0           0           0           0           0
           0           0           0           0           0           0
           0           0           0           0           0           0
           0           0           0           0           0           0
           0           0           0           0           0           0
           0           0           0           0           0           0
           0           0           0           0           0           0
           0           0           0           0           0           0
           0           0           0           0           0           0
           0           0           0           0           0           0
           0           0           0           0           0           0
           0           0           0           0           0           0
           0           0           0           0           0           0
           0           0           0           0           0           0
           0           0           0           0           0           0
           0           0           0           0           0           0
           0           0           0           0           0           0
           0           0           0           0           0           0
           0           0           0           0           0           0
           0           0           0           0           0           0
           0           0           0           0           0           0
           0           0           0           0           0           0
           0           0           0           0           0           0
           0           0           0           0           0           0
           0           0           0           0           0           0
           0           0           0           0           0           0
           0           0           0           0           0           0
           0           0           0           0           0           0
           0           0           0           0           0           0
           0           0           0           0           0           0
           0           0           0           0           0           0
           0           0           0           0           0           0
           0           0           0           0           0           0
           0           0           0           0           0           0
           0           0           0           0           0           0
           0           0           0           0           0           0
           0           0           0           0           0           0
           0           0           0           0           0           0
           0           0           0           0           0           0
           0           0           0           0           0           0
           0           0           0           0           0           0
           0           0           0           0           0           0
           0           0           0           0           0           0
           0           0           0           0           0           0
           0           0           0           0           0           0
           0           0           0           0           0           0
           0           0           0           0           0           0
           0           0           0           0           0           0
           0           0           0           0           0           0
           0           0           0           0           0           0
           0           0           0           0           0           0
           0           0           0           0           0           0
           0           0           0           0           0           0
           0           0           0           0           0           0
           0           0           0           0           0           0
           0           0           0           0           0           0
           0           0           0           0           0           0
           0           0           0           0           0           0
           0           0           0           0           0           0
           0           0           0           0           0           0
           0           0           0           0           0           0
           0           0           0           0           0           0
           0           0           0           0           0           0
           0           0           0           0           0           0
           0           0           0           0           0           0
           0           0           0           0           0           0
           0           0           0           0           0           0
           0           0           0           0           0           0
           0           0           0           0           0           0
           0           0           0           0           0           0
           0           0           0           0           0           0
           0           0           0           0           0           0
           0           0           0           0           0           0
           0           0           0           0           0           0
           0           0           0           0           0           0
           0           0           0           0           0           0
           0           0           0           0           0           0
           0           0           0           0           0           0
           0           0           0           0           0           0
           0           0           0           0           0           0
           0           0           0           0           0           0
           0           0           0           0           0           0
           0           0           0           0           0           0
           0           0           0           0           0           0
           0           0           0           0           0           0
           0           0           0           0           0           0
           0           0           0           0           0           0
           0           0           0           0           0           0
           0           0           0           0           0           0
           0           0           0           0           0           0
           0           0           0           0           0           0
           0           0           0           0           0           0
           0           0           0           0           0           0
           0           0           0           0           0           0
           0           0           0           0           0           0
           0           0           0           0           0           0
           0           0           0           0           0           0
           0           0           0           0           0           0
           0           0           0           0           0           0
           0           0           0           0           0           0
           0           0           0           0           0           0
           0           0           0           0           0           0
           0           0           0           0           0           0
           0           0           0           0           0           0
           0           0           0           0           0           0
           0           0           0           0           0           0
           0           0           0           0           0           0
           0           0           0           0           0           0
           0           0           0           0           0           0
           0           0           0           0           0           0
           0           0           0           0           0           0
           0           0           0           0           0           0
           0           0           0           0           0           0
           0           0           0           0           0           0
           0           0           0           0           0           0
           0           0           0           0           0           0
           0           0           0           0           0           0
           0           0           0           0           0           0
           0           0           0           0           0           0
           0           0           0           0           0           0
           0           0           0           0           0           0
           0           0           0           0           0           0
           0           0           0           0           0           0
           0           0           0           0           0           0
           0           0           0           0           0           0
           0           0           0           0           0           0
           0           0           0           0           0           0
           0           0           0           0           0           0
           0           0           0           0           0           0
           0           0           0           0           0           0
           0           0           0           0           0           0
           0           0           0           0           0           0
           0           0           0           0           0           0
           0           0           0           0           0           0
           0           0           0           0           0           0
           0           0           0           0           0           0
           0           0           0           0           0           0
           0           0           0           0           0           0
           0           0           0           0           0           0
           0           0           0           0           0           0
           0           0           0           0           0           0
           0           0           0           0           0           0
           0           0           0           0           0           0
           0           0           0           0           0           0
           0           0           0           0           0           0
           0           0           0           0           0           0
           0           0           0           0           0           0
           0           0           0           0           0           0
           0           0           0           0           0           0
           0           0           0           0           0           0
           0           0           0           0           0           0
           0           0           0           0           0           0
           0           0           0           0           0           0
           0           0           0           0           0           0
           0           0           0           0           0           0
           0           0           0           0           0           0
           0           0           0           0           0           0
           0           0           0           0           0           0
           0           0           0           0           0           0
           0           0           0           0           0           0
           0           0           0           0           0           0
           0           0           0           0           0           0
           0           0           0           0           0           0
           0           0           0           0           0           0
           0           0           0           0           0           0
           0           0           0           0           0           0
           0           0           0           0           0           0
           0           0           0           0           0           0
           0           0           0           0           0           0
           0           0           0           0           0           0
           0           0           0           0           0           0
           0           0           0           0           0           0
           0           0           0           0           0           0
           0           0           0           0           0           0
           0           0           0           0           0           0
           0           0           0           0           0           0
           0           0           0           0           0           0
           0           0           0           0           0           0
           0           0           0           0           0           0
           0           0           0           0           0           0
           0           0           0           0           0           0
           0           0           0           0           0           0
           0           0           0           0           0           0
           0           0           0           0           0           0
           0           0           0           0           0           0
           0           0           0           0           0           0
           0           0           0           0           0           0
           0           0           0           0           0           0
           0           0           0           0           0           0
           0           0           0           0           0           0
           0           0           0           0           0           0
           0           0           0           0           0           0
           0           0           0           0           0           0
           0           0           0           0           0           0
           0           0           0           0           0           0
           0           0           0           0           0           0
           0           0           0           0           0           0
           0           0           0           0           0           0
           0           0           0           0           0           0
           0           0           0           0           0           0
           0           0           0           0           0           0
           0           0           0           0           0           0
           0           0           0           0           0           0
           0           0           0           0           0           0
           0           0           0           0           0           0
           0           0           0           0           0           0
           0           0           0           0           0           0
           0           0           0           0           0           0
           0           0           0           0           0           0
           0           0           0           0           0           0
           0           0           0           0           0           0
           0           0           0           0           0           0
           0           0           0           0           0           0
           0           0           0           0           0           0
           0           0           0           0           0           0
           0           0           0           0           0           0
           0           0           0           0           0           0
           0           0           0           0           0           0
           0           0           0           0           0           0
           0           0           0           0           0           0
           0           0           0           0           0           0
           0           0           0           0           0           0
           0           0           0           0           0           0
           0           0           0           0           0           0
           0           0           0           0           0           0
           0           0           0           0           0           0
           0           0           0           0           0           0
           0           0           0           0           0           0
           0           0           0           0           0           0
           0           0           0           0           0           0
           0           0           0           0           0           0
           0           0           0           0           0           0
           0           0           0           0           0           0
           0           0           0           0           0           0
           0           0           0           0           0           0
           0           0           0           0           0           0
           0           0           0           0           0           0
           0           0           0           0           0           0
           0           0           0           0           0           0
           0           0           0           0           0           0
           0           0           0           0           0           0
           0           0           0           0           0           0
           0           0           0           0           0           0
           0           0           0           0           0           0
           0           0           0           0           0           0
           0           0           0           0           0           0
           0           0           0           0           0           0
           0           0           0           0           0           0
           0           0           0           0           0           0
           0           0           0           0           0           0
           0           0           0           0           0           0
           0           0           0           0           0           0
           0           0           0           0           0           0
           0           0           0           0           0           0
           0           0           0           0           0           0
           0           0           0           0           0           0
           0           0           0           0           0           0
           0           0           0           0           0           0
           0           0           0           0           0           0
           0           0           0           0           0           0
           0           0           0           0           0           0
           0           0           0           0           0           0
           0           0           0           0           0           0
           0           0           0           0           0           0
           0           0           0           0           0           0
           0           0           0           0           0           0
           0           0           0           0           0           0
           0           0           0           0           0           0
ClPar Real Params                          R   N=        3200
  0.00000000E+00  0.00000000E+00  0.00000000E+00  0.00000000E+00  0.00000000E+00
  0.00000000E+00  0.00000000E+00  0.00000000E+00  0.00000000E+00  0.00000000E+00
  0.00000000E+00  0.00000000E+00  0.00000000E+00  0.00000000E+00  0.00000000E+00
  0.00000000E+00  0.00000000E+00  0.00000000E+00  0.00000000E+00  0.00000000E+00
  0.00000000E+00  0.00000000E+00  0.00000000E+00  0.00000000E+00  0.00000000E+00
  0.00000000E+00  0.00000000E+00  0.00000000E+00  0.00000000E+00  0.00000000E+00
  0.00000000E+00  0.00000000E+00  0.00000000E+00  0.00000000E+00  0.00000000E+00
  0.00000000E+00  0.00000000E+00  0.00000000E+00  0.00000000E+00  0.00000000E+00
  0.00000000E+00  0.00000000E+00  0.00000000E+00  0.00000000E+00  0.00000000E+00
  0.00000000E+00  0.00000000E+00  0.00000000E+00  0.00000000E+00  0.00000000E+00
  0.00000000E+00  0.00000000E+00  0.00000000E+00  0.00000000E+00  0.00000000E+00
  0.00000000E+00  0.00000000E+00  0.00000000E+00  0.00000000E+00  0.00000000E+00
  0.00000000E+00  0.00000000E+00  0.00000000E+00  0.00000000E+00  0.00000000E+00
  0.00000000E+00  0.00000000E+00  0.00000000E+00  0.00000000E+00  0.00000000E+00
  0.00000000E+00  0.00000000E+00  0.00000000E+00  0.00000000E+00  0.00000000E+00
  0.00000000E+00  0.00000000E+00  0.00000000E+00  0.00000000E+00  0.00000000E+00
  0.00000000E+00  0.00000000E+00  0.00000000E+00  0.00000000E+00  0.00000000E+00
  0.00000000E+00  0.00000000E+00  0.00000000E+00  0.00000000E+00  0.00000000E+00
  0.00000000E+00  0.00000000E+00  0.00000000E+00  0.00000000E+00  0.00000000E+00
  0.00000000E+00  0.00000000E+00  0.00000000E+00  0.00000000E+00  0.00000000E+00
  0.00000000E+00  0.00000000E+00  0.00000000E+00  0.00000000E+00  0.00000000E+00
  0.00000000E+00  0.00000000E+00  0.00000000E+00  0.00000000E+00  0.00000000E+00
  0.00000000E+00  0.00000000E+00  0.00000000E+00  0.00000000E+00  0.00000000E+00
  0.00000000E+00  0.00000000E+00  0.00000000E+00  0.00000000E+00  0.00000000E+00
  0.00000000E+00  0.00000000E+00  0.00000000E+00  0.00000000E+00  0.00000000E+00
  0.00000000E+00  0.00000000E+00  0.00000000E+00  0.00000000E+00  0.00000000E+00
  0.00000000E+00  0.00000000E+00  0.00000000E+00  0.00000000E+00  0.00000000E+00
  0.00000000E+00  0.00000000E+00  0.00000000E+00  0.00000000E+00  0.00000000E+00
  0.00000000E+00  0.00000000E+00  0.00000000E+00  0.00000000E+00  0.00000000E+00
  0.00000000E+00  0.00000000E+00  0.00000000E+00  0.00000000E+00  0.00000000E+00
  0.00000000E+00  0.00000000E+00  0.00000000E+00  0.00000000E+00  0.00000000E+00
  0.00000000E+00  0.00000000E+00  0.00000000E+00  0.00000000E+00  0.00000000E+00
  0.00000000E+00  0.00000000E+00  0.00000000E+00  0.00000000E+00  0.00000000E+00
  0.00000000E+00  0.00000000E+00  0.00000000E+00  0.00000000E+00  0.00000000E+00
  0.00000000E+00  0.00000000E+00  0.00000000E+00  0.00000000E+00  0.00000000E+00
  0.00000000E+00  0.00000000E+00  0.00000000E+00  0.00000000E+00  0.00000000E+00
  0.00000000E+00  0.00000000E+00  0.00000000E+00  0.00000000E+00  0.00000000E+00
  0.00000000E+00  0.00000000E+00  0.00000000E+00  0.00000000E+00  0.00000000E+00
  0.00000000E+00  0.00000000E+00  0.00000000E+00  0.00000000E+00  0.00000000E+00
  0.00000000E+00  0.00000000E+00  0.00000000E+00  0.00000000E+00  0.00000000E+00
  2.26000000E-01  4.43000000E-01  1.01000000E-01  1.47000000E-01  1.92000000E-01
  2.40000000E-01  2.75000000E-01  3.03000000E-01  3.25000000E-01  4.13000000E-01
  9.60000000E-02  1.35000000E-01  1.73000000E-01  2.11000000E-01  2.48000000E-01
  2.86000000E-01  3.23000000E-01  3.60000000E-01  8.20000000E-02  1.04000000E-01
  1.17000000E-01  1.23000000E-01  1.29000000E-01  1.34000000E-01  1.40000000E-01
  1.44000000E-01  1.48000000E-01  1.52000000E-01  1.55000000E-01  1.76000000E-01
  1.98000000E-01  2.19000000E-01  2.39000000E-01  2.60000000E-01  2.80000000E-01
  3.00000000E-01  7.90000000E-02  9.90000000E-02  1.19000000E-01  1.26000000E-01
  1.33000000E-01  1.40000000E-01  1.47000000E-01  1.53000000E-01  1.58000000E-01
  1.63000000E-01  1.57000000E-01  1.70000000E-01  1.87000000E-01  2.03000000E-01
  2.19000000E-01  2.34000000E-01  2.50000000E-01  2.65000000E-01  7.40000000E-02
  9.20000000E-02  1.05000000E-01  1.06000000E-01  1.07000000E-01  1.08000000E-01
  1.09000000E-01  1.10000000E-01  1.11000000E-01  1.12000000E-01  1.13000000E-01
  1.14000000E-01  1.15000000E-01  1.16000000E-01  1.17000000E-01  1.17000000E-01
  1.26000000E-01  1.36000000E-01  1.46000000E-01  1.55000000E-01  1.65000000E-01
  1.73000000E-01  1.82000000E-01  1.90000000E-01  1.62000000E-01  1.78000000E-01
  1.10000000E-01  1.35000000E-01  1.59000000E-01  1.83000000E-01  2.07000000E-01
  2.31000000E-01  6.90000000E-02  9.40000000E-02  1.02000000E-01  1.03000000E-01
  1.05000000E-01  1.07000000E-01  1.09000000E-01  1.11000000E-01  1.13000000E-01
  1.15000000E-01  1.17000000E-01  1.19000000E-01  1.20000000E-01  1.22000000E-01
  1.24000000E-01  1.26000000E-01  1.28000000E-01  1.28000000E-01  1.28000000E-01
  1.28000000E-01  1.28000000E-01  1.28000000E-01  1.28000000E-01  1.28000000E-01
  1.28000000E-01  1.28000000E-01  1.28000000E-01  1.28000000E-01  1.28000000E-01
  1.28000000E-01  1.28000000E-01  1.28000000E-01  1.28000000E-01  1.28000000E-01
  1.28000000E-01  1.28000000E-01  1.28000000E-01  1.28000000E-01  1.28000000E-01
  1.28000000E-01  1.28000000E-01  1.28000000E-01  1.28000000E-01  1.28000000E-01
  1.28000000E-01  1.28000000E-01  1.28000000E-01  1.28000000E-01  1.28000000E-01
  1.28000000E-01  1.28000000E-01  1.28000000E-01  1.28000000E-01  1.28000000E-01
  1.28000000E-01  1.28000000E-01  1.28000000E-01  1.28000000E-01  1.28000000E-01
  1.28000000E-01  1.28000000E-01  1.28000000E-01  1.28000000E-01  1.28000000E-01
  1.28000000E-01  1.28000000E-01  1.28000000E-01  1.28000000E-01  1.28000000E-01
  1.28000000E-01  1.28000000E-01  1.28000000E-01  1.28000000E-01  1.28000000E-01
  1.28000000E-01  1.28000000E-01  1.28000000E-01  1.28000000E-01  1.28000000E-01
  1.28000000E-01  1.28000000E-01  1.28000000E-01  1.28000000E-01  1.28000000E-01
  1.28000000E-01  1.28000000E-01  1.28000000E-01  1.28000000E-01  1.28000000E-01
  1.28000000E-01  1.28000000E-01  1.28000000E-01  1.28000000E-01  1.28000000E-01
  1.28000000E-01  1.28000000E-01  1.28000000E-01  1.28000000E-01  1.28000000E-01
  1.28000000E-01  1.28000000E-01  1.28000000E-01  1.28000000E-01  1.28000000E-01
  1.28000000E-01  1.28000000E-01  1.28000000E-01  1.28000000E-01  1.28000000E-01
  1.28000000E-01  1.28000000E-01  1.28000000E-01  1.28000000E-01  1.28000000E-01
  5.47000000E-01  5.92000000E-01  5.99000000E-01  6.68000000E-01  6.98000000E-01
  7.18000000E-01  7.26000000E-01  7.36000000E-01  7.43000000E-01  7.45000000E-01
  6.07000000E-01  6.66000000E-01  6.93000000E-01  7.09000000E-01  7.20000000E-01
  7.29000000E-01  7.35000000E-01  7.40000000E-01  6.08000000E-01  7.34000000E-01
  7.46000000E-01  7.55000000E-01  7.61000000E-01  7.65000000E-01  7.67000000E-01
  7.60000000E-01  7.49000000E-01  7.33000000E-01  7.08000000E-01  6.48000000E-01
  6.88000000E-01  7.09000000E-01  7.22000000E-01  7.31000000E-01  7.38000000E-01
  7.44000000E-01  6.09000000E-01  7.30000000E-01  7.41000000E-01  7.52000000E-01
  7.58000000E-01  7.63000000E-01  7.66000000E-01  7.58000000E-01  7.48000000E-01
  7.33000000E-01  7.01000000E-01  6.45000000E-01  6.86000000E-01  7.08000000E-01
  7.22000000E-01  7.31000000E-01  7.38000000E-01  7.44000000E-01  6.08000000E-01
  7.28000000E-01  7.32000000E-01  7.32000000E-01  7.32000000E-01  7.32000000E-01
  7.32000000E-01  7.32000000E-01  7.32000000E-01  7.32000000E-01  7.32000000E-01
  7.31000000E-01  7.31000000E-01  7.31000000E-01  7.31000000E-01  7.46000000E-01
  7.37000000E-01  7.46000000E-01  7.51000000E-01  7.55000000E-01  7.58000000E-01
  7.47000000E-01  7.32000000E-01  7.11000000E-01  7.41000000E-01  7.07000000E-01
  7.47000000E-01  7.43000000E-01  7.42000000E-01  7.42000000E-01  7.43000000E-01
  7.44000000E-01  6.05000000E-01  7.24000000E-01  7.26000000E-01  7.26000000E-01
  7.27000000E-01  7.27000000E-01  7.27000000E-01  7.28000000E-01  7.28000000E-01
  7.28000000E-01  7.28000000E-01  7.28000000E-01  7.29000000E-01  7.29000000E-01
  7.29000000E-01  7.29000000E-01  7.29000000E-01  7.29000000E-01  7.29000000E-01
  7.29000000E-01  7.29000000E-01  7.29000000E-01  7.29000000E-01  7.29000000E-01
  7.29000000E-01  7.29000000E-01  7.29000000E-01  7.29000000E-01  7.29000000E-01
  7.29000000E-01  7.29000000E-01  7.29000000E-01  7.29000000E-01  7.29000000E-01
  7.29000000E-01  7.29000000E-01  7.29000000E-01  7.29000000E-01  7.29000000E-01
  7.29000000E-01  7.29000000E-01  7.29000000E-01  7.29000000E-01  7.29000000E-01
  7.29000000E-01  7.29000000E-01  7.29000000E-01  7.29000000E-01  7.29000000E-01
  7.29000000E-01  7.29000000E-01  7.29000000E-01  7.29000000E-01  7.29000000E-01
  7.29000000E-01  7.29000000E-01  7.29000000E-01  7.29000000E-01  7.29000000E-01
  7.29000000E-01  7.29000000E-01  7.29000000E-01  7.29000000E-01  7.29000000E-01
  7.29000000E-01  7.29000000E-01  7.29000000E-01  7.29000000E-01  7.29000000E-01
  7.29000000E-01  7.29000000E-01  7.29000000E-01  7.29000000E-01  7.29000000E-01
  7.29000000E-01  7.29000000E-01  7.29000000E-01  7.29000000E-01  7.29000000E-01
  7.29000000E-01  7.29000000E-01  7.29000000E-01  7.29000000E-01  7.29000000E-01
  7.29000000E-01  7.29000000E-01  7.29000000E-01  7.29000000E-01  7.29000000E-01
  7.29000000E-01  7.29000000E-01  7.29000000E-01  7.29000000E-01  7.29000000E-01
  7.29000000E-01  7.29000000E-01  7.29000000E-01  7.29000000E-01  7.29000000E-01
  7.29000000E-01  7.29000000E-01  7.29000000E-01  7.29000000E-01  7.29000000E-01
  7.29000000E-01  7.29000000E-01  7.29000000E-01  7.29000000E-01  7.29000000E-01
  7.29000000E-01  7.29000000E-01  7.29000000E-01  7.29000000E-01  7.29000000E-01
  1.00000000E+00  1.70400000E+00  3.23000000E-01  3.89000000E-01  4.67000000E-01
  5.67000000E-01  6.36000000E-01  6.64000000E-01  6.96000000E-01  8.79000000E-01
  3.07000000E-01  3.48000000E-01  4.00000000E-01  4.54000000E-01  5.09000000E-01
  5.65000000E-01  6.21000000E-01  6.77000000E-01  2.56000000E-01  3.50000000E-01
  3.64000000E-01  3.62000000E-01  3.62000000E-01  3.62000000E-01  3.62000000E-01
  3.65000000E-01  3.69000000E-01  3.75000000E-01  3.86000000E-01  4.46000000E-01
  4.55000000E-01  4.74000000E-01  4.96000000E-01  5.20000000E-01  5.45000000E-01
  5.70000000E-01  2.45000000E-01  3.22000000E-01  3.55000000E-01  3.59000000E-01
  3.64000000E-01  3.70000000E-01  3.76000000E-01  3.85000000E-01  3.95000000E-01
  4.08000000E-01  3.76000000E-01  4.23000000E-01  4.22000000E-01  4.32000000E-01
  4.45000000E-01  4.59000000E-01  4.75000000E-01  4.91000000E-01  2.28000000E-01
  2.92000000E-01  2.89000000E-01  2.92000000E-01  2.95000000E-01  2.98000000E-01
  3.00000000E-01  3.03000000E-01  3.06000000E-01  3.09000000E-01  3.12000000E-01
  3.15000000E-01  3.18000000E-01  3.21000000E-01  3.24000000E-01  3.61000000E-01
  3.69000000E-01  3.70000000E-01  3.72000000E-01  3.75000000E-01  3.78000000E-01
  3.85000000E-01  3.94000000E-01  4.07000000E-01  5.26000000E-01  6.21000000E-01
  3.36000000E-01  3.54000000E-01  3.71000000E-01  3.86000000E-01  4.02000000E-01
  4.17000000E-01  2.09000000E-01  2.94000000E-01  2.65000000E-01  2.72000000E-01
  2.78000000E-01  2.84000000E-01  2.91000000E-01  2.97000000E-01  3.03000000E-01
  3.10000000E-01  3.16000000E-01  3.22000000E-01  3.29000000E-01  3.35000000E-01
  3.41000000E-01  3.48000000E-01  3.54000000E-01  3.54000000E-01  3.54000000E-01
  3.54000000E-01  3.54000000E-01  3.54000000E-01  3.54000000E-01  3.54000000E-01
  3.54000000E-01  3.54000000E-01  3.54000000E-01  3.54000000E-01  3.54000000E-01
  3.54000000E-01  3.54000000E-01  3.54000000E-01  3.54000000E-01  3.54000000E-01
  3.54000000E-01  3.54000000E-01  3.54000000E-01  3.54000000E-01  3.54000000E-01
  3.54000000E-01  3.54000000E-01  3.54000000E-01  3.54000000E-01  3.54000000E-01
  3.54000000E-01  3.54000000E-01  3.54000000E-01  3.54000000E-01  3.54000000E-01
  3.54000000E-01  3.54000000E-01  3.54000000E-01  3.54000000E-01  3.54000000E-01
  3.54000000E-01  3.54000000E-01  3.54000000E-01  3.54000000E-01  3.54000000E-01
  3.54000000E-01  3.54000000E-01  3.54000000E-01  3.54000000E-01  3.54000000E-01
  3.54000000E-01  3.54000000E-01  3.54000000E-01  3.54000000E-01  3.54000000E-01
  3.54000000E-01  3.54000000E-01  3.54000000E-01  3.54000000E-01  3.54000000E-01
  3.54000000E-01  3.54000000E-01  3.54000000E-01  3.54000000E-01  3.54000000E-01
  3.54000000E-01  3.54000000E-01  3.54000000E-01  3.54000000E-01  3.54000000E-01
  3.54000000E-01  3.54000000E-01  3.54000000E-01  3.54000000E-01  3.54000000E-01
  3.54000000E-01  3.54000000E-01  3.54000000E-01  3.54000000E-01  3.54000000E-01
  3.54000000E-01  3.54000000E-01  3.54000000E-01  3.54000000E-01  3.54000000E-01
  3.54000000E-01  3.54000000E-01  3.54000000E-01  3.54000000E-01  3.54000000E-01
  3.54000000E-01  3.54000000E-01  3.54000000E-01  3.54000000E-01  3.54000000E-01
  3.54000000E-01  3.54000000E-01  3.54000000E-01  3.54000000E-01  3.54000000E-01
  2.74000000E-01  2.96000000E-01  5.80000000E-02  4.40000000E-02  3.90000000E-02
  3.90000000E-02  3.60000000E-02  3.20000000E-02  2.90000000E-02  3.30000000E-02
  5.50000000E-02  3.90000000E-02  3.30000000E-02  3.00000000E-02  2.80000000E-02
  2.60000000E-02  2.50000000E-02  2.50000000E-02  4.50000000E-02  4.40000000E-02
  3.30000000E-02  2.50000000E-02  2.10000000E-02  1.80000000E-02  1.50000000E-02
  1.80000000E-02  2.10000000E-02  2.50000000E-02  3.30000000E-02  5.00000000E-02
  3.80000000E-02  3.10000000E-02  2.70000000E-02  2.40000000E-02  2.20000000E-02
  2.10000000E-02  4.30000000E-02  4.00000000E-02  3.20000000E-02  2.50000000E-02
  2.10000000E-02  1.80000000E-02  1.60000000E-02  1.90000000E-02  2.20000000E-02
  2.80000000E-02  3.10000000E-02  4.70000000E-02  3.40000000E-02  2.80000000E-02
  2.40000000E-02  2.10000000E-02  1.90000000E-02  1.80000000E-02  3.90000000E-02
  3.60000000E-02  2.50000000E-02  2.50000000E-02  2.50000000E-02  2.60000000E-02
  2.60000000E-02  2.60000000E-02  2.70000000E-02  2.70000000E-02  2.70000000E-02
  2.70000000E-02  2.80000000E-02  2.80000000E-02  2.80000000E-02  3.30000000E-02
  3.30000000E-02  2.60000000E-02  2.10000000E-02  1.80000000E-02  1.60000000E-02
  1.80000000E-02  2.20000000E-02  2.60000000E-02  4.90000000E-02  8.20000000E-02
  3.00000000E-02  2.40000000E-02  2.10000000E-02  1.80000000E-02  1.60000000E-02
  1.50000000E-02  3.50000000E-02  3.60000000E-02  2.20000000E-02  2.30000000E-02
  2.40000000E-02  2.40000000E-02  2.50000000E-02  2.50000000E-02  2.60000000E-02
  2.70000000E-02  2.70000000E-02  2.80000000E-02  2.80000000E-02  2.90000000E-02
  3.00000000E-02  3.00000000E-02  3.10000000E-02  3.10000000E-02  3.10000000E-02
  3.10000000E-02  3.10000000E-02  3.10000000E-02  3.10000000E-02  3.10000000E-02
  3.10000000E-02  3.10000000E-02  3.10000000E-02  3.10000000E-02  3.10000000E-02
  3.10000000E-02  3.10000000E-02  3.10000000E-02  3.10000000E-02  3.10000000E-02
  3.10000000E-02  3.10000000E-02  3.10000000E-02  3.10000000E-02  3.10000000E-02
  3.10000000E-02  3.10000000E-02  3.10000000E-02  3.10000000E-02  3.10000000E-02
  3.10000000E-02  3.10000000E-02  3.10000000E-02  3.10000000E-02  3.10000000E-02
  3.10000000E-02  3.10000000E-02  3.10000000E-02  3.10000000E-02  3.10000000E-02
  3.10000000E-02  3.10000000E-02  3.10000000E-02  3.10000000E-02  3.10000000E-02
  3.10000000E-02  3.10000000E-02  3.10000000E-02  3.10000000E-02  3.10000000E-02
  3.10000000E-02  3.10000000E-02  3.10000000E-02  3.10000000E-02  3.10000000E-02
  3.10000000E-02  3.10000000E-02  3.10000000E-02  3.10000000E-02  3.10000000E-02
  3.10000000E-02  3.10000000E-02  3.10000000E-02  3.10000000E-02  3.10000000E-02
  3.10000000E-02  3.10000000E-02  3.10000000E-02  3.10000000E-02  3.10000000E-02
  3.10000000E-02  3.10000000E-02  3.10000000E-02  3.10000000E-02  3.10000000E-02
  3.10000000E-02  3.10000000E-02  3.10000000E-02  3.10000000E-02  3.10000000E-02
  3.10000000E-02  3.10000000E-02  3.10000000E-02  3.10000000E-02  3.10000000E-02
  3.10000000E-02  3.10000000E-02  3.10000000E-02  3.10000000E-02  3.10000000E-02
  3.10000000E-02  3.10000000E-02  3.10000000E-02  3.10000000E-02  3.10000000E-02
  3.10000000E-02  3.10000000E-02  3.10000000E-02  3.10000000E-02  3.10000000E-02
 -5.92770000E-01 -9.17860000E-01 -2.48668000E+00 -8.36430000E-01 -3.18470000E-01
 -4.55790000E-01 -5.70730000E-01 -6.77940000E-01 -7.69860000E-01 -8.51140000E-01
 -1.51908000E+00 -3.18830000E-01 -2.17900000E-01 -3.01260000E-01 -3.72750000E-01
 -4.15890000E-01 -4.45930000E-01 -5.91320000E-01 -9.56370000E-01 -2.88450000E-01
 -4.87320000E-01 -6.34280000E-01 -7.17490000E-01 -7.91980000E-01 -8.68490000E-01
 -9.17520000E-01 -9.54890000E-01 -9.88460000E-01 -1.50055000E+00 -2.92560000E-01
 -2.14960000E-01 -2.91180000E-01 -3.42080000E-01 -3.84480000E-01 -4.34940000E-01
 -5.24310000E-01 -8.10070000E-01 -2.58460000E-01 -4.35550000E-01 -5.32740000E-01
 -6.08450000E-01 -6.10260000E-01 -7.58920000E-01 -8.90130000E-01 -8.45780000E-01
 -8.69340000E-01 -1.38234000E+00 -2.64850000E-01 -1.97280000E-01 -2.65040000E-01
 -2.94470000E-01 -3.16570000E-01 -3.63590000E-01 -4.57840000E-01 -8.61830000E-01
 -1.33004000E+00 -6.82880000E-01 -6.25540000E-01 -6.35430000E-01 -8.79690000E-01
 -9.02690000E-01 -9.59650000E-01 -1.01869000E+00 -6.81170000E-01 -7.96500000E-01
 -9.04950000E-01 -8.34790000E-01 -9.01560000E-01 -9.74130000E-01 -1.03326000E+00
 -7.15490000E-01 -7.83960000E-01 -8.28380000E-01 -5.61040000E-01 -1.03841000E+00
 -8.62500000E-01 -9.59300000E-01 -1.01755000E+00 -7.64900000E-01 -1.29467000E+00
 -1.92740000E-01 -2.56010000E-01 -3.19820000E-01 -1.94660000E-01 -2.60090000E-01
 -4.27990000E-01  0.00000000E+00  0.00000000E+00  0.00000000E+00  0.00000000E+00
  0.00000000E+00  0.00000000E+00  0.00000000E+00  0.00000000E+00  0.00000000E+00
  0.00000000E+00  0.00000000E+00  0.00000000E+00  0.00000000E+00  0.00000000E+00
  0.00000000E+00  0.00000000E+00  0.00000000E+00  0.00000000E+00  0.00000000E+00
  0.00000000E+00  0.00000000E+00  0.00000000E+00  0.00000000E+00  0.00000000E+00
  0.00000000E+00  0.00000000E+00  0.00000000E+00  0.00000000E+00  0.00000000E+00
  0.00000000E+00  0.00000000E+00  0.00000000E+00  0.00000000E+00  0.00000000E+00
  0.00000000E+00  0.00000000E+00  0.00000000E+00  0.00000000E+00  0.00000000E+00
  0.00000000E+00  0.00000000E+00  0.00000000E+00  0.00000000E+00  0.00000000E+00
  0.00000000E+00  0.00000000E+00  0.00000000E+00  0.00000000E+00  0.00000000E+00
  0.00000000E+00  0.00000000E+00  0.00000000E+00  0.00000000E+00  0.00000000E+00
  0.00000000E+00  0.00000000E+00  0.00000000E+00  0.00000000E+00  0.00000000E+00
  0.00000000E+00  0.00000000E+00  0.00000000E+00  0.00000000E+00  0.00000000E+00
  0.00000000E+00  0.00000000E+00  0.00000000E+00  0.00000000E+00  0.00000000E+00
  0.00000000E+00  0.00000000E+00  0.00000000E+00  0.00000000E+00  0.00000000E+00
  0.00000000E+00  0.00000000E+00  0.00000000E+00  0.00000000E+00  0.00000000E+00
  0.00000000E+00  0.00000000E+00  0.00000000E+00  0.00000000E+00  0.00000000E+00
  0.00000000E+00  0.00000000E+00  0.00000000E+00  0.00000000E+00  0.00000000E+00
  0.00000000E+00  0.00000000E+00  0.00000000E+00  0.00000000E+00  0.00000000E+00
  0.00000000E+00  0.00000000E+00  0.00000000E+00  0.00000000E+00  0.00000000E+00
  0.00000000E+00  0.00000000E+00  0.00000000E+00  0.00000000E+00  0.00000000E+00
  0.00000000E+00  0.00000000E+00  0.00000000E+00  0.00000000E+00  0.00000000E+00
  0.00000000E+00  0.00000000E+00  0.00000000E+00  0.00000000E+00  0.00000000E+00
  1.90440000E+00  1.36430000E+00  4.84000000E-01  7.31600000E+00  9.24030000E+00
  8.78200000E+00  5.61290000E+00  4.83340000E+00  3.24870000E+00  2.71090000E+00
  2.01130000E+00  1.50282000E+01  1.46788000E+01  2.13546000E+01  2.38290000E+01
  1.98022000E+01  1.50468000E+01  1.09745000E+01  1.27219000E+01  1.51949000E+01
  1.57342000E+01  2.79222000E+01  1.61366000E+01  2.21252000E+01  2.45676000E+01
  1.96016000E+01  1.79818000E+01  1.72396000E+01  5.01500000E+00  1.92898000E+01
  2.34477000E+01  2.23993000E+01  2.96586000E+01  2.60081000E+01  2.15580000E+01
  1.69594000E+01  1.56479000E+01  1.86897000E+01  1.93530000E+01  3.43444000E+01
  1.98480000E+01  2.72140000E+01  3.02182000E+01  2.41099000E+01  2.21176000E+01
  2.12047000E+01  7.56690000E+00  2.37264000E+01  2.93879000E+01  3.01278000E+01
  4.19382000E+01  3.85203000E+01  3.39511000E+01  2.75774000E+01  1.56460000E+01
  1.04460000E+01  2.01830000E+01  4.99540000E+01  4.76430000E+01  1.18690000E+01
  1.08670000E+01  9.96100000E+00  9.18700000E+00  3.67980000E+01  1.34070000E+01
  9.38200000E+00  9.81700000E+00  8.90800000E+00  8.40700000E+00  8.05800000E+00
  1.29600000E+01  2.67920000E+01  2.49300000E+01  3.45630000E+01  1.11860000E+01
  1.09440000E+01  1.01270000E+01  9.40400000E+00  1.36660000E+01  7.81000000E+00
  6.93600000E+01  5.86630000E+01  4.79690000E+01  4.52740000E+01  3.92290000E+01
  3.30660000E+01  0.00000000E+00  0.00000000E+00  0.00000000E+00  0.00000000E+00
  0.00000000E+00  0.00000000E+00  0.00000000E+00  0.00000000E+00  0.00000000E+00
  0.00000000E+00  0.00000000E+00  0.00000000E+00  0.00000000E+00  0.00000000E+00
  0.00000000E+00  0.00000000E+00  0.00000000E+00  0.00000000E+00  0.00000000E+00
  0.00000000E+00  0.00000000E+00  0.00000000E+00  0.00000000E+00  0.00000000E+00
  0.00000000E+00  0.00000000E+00  0.00000000E+00  0.00000000E+00  0.00000000E+00
  0.00000000E+00  0.00000000E+00  0.00000000E+00  0.00000000E+00  0.00000000E+00
  0.00000000E+00  0.00000000E+00  0.00000000E+00  0.00000000E+00  0.00000000E+00
  0.00000000E+00  0.00000000E+00  0.00000000E+00  0.00000000E+00  0.00000000E+00
  0.00000000E+00  0.00000000E+00  0.00000000E+00  0.00000000E+00  0.00000000E+00
  0.00000000E+00  0.00000000E+00  0.00000000E+00  0.00000000E+00  0.00000000E+00
  0.00000000E+00  0.00000000E+00  0.00000000E+00  0.00000000E+00  0.00000000E+00
  0.00000000E+00  0.00000000E+00  0.00000000E+00  0.00000000E+00  0.00000000E+00
  0.00000000E+00  0.00000000E+00  0.00000000E+00  0.00000000E+00  0.00000000E+00
  0.00000000E+00  0.00000000E+00  0.00000000E+00  0.00000000E+00  0.00000000E+00
  0.00000000E+00  0.00000000E+00  0.00000000E+00  0.00000000E+00  0.00000000E+00
  0.00000000E+00  0.00000000E+00  0.00000000E+00  0.00000000E+00  0.00000000E+00
  0.00000000E+00  0.00000000E+00  0.00000000E+00  0.00000000E+00  0.00000000E+00
  0.00000000E+00  0.00000000E+00  0.00000000E+00  0.00000000E+00  0.00000000E+00
  0.00000000E+00  0.00000000E+00  0.00000000E+00  0.00000000E+00  0.00000000E+00
  0.00000000E+00  0.00000000E+00  0.00000000E+00  0.00000000E+00  0.00000000E+00
  0.00000000E+00  0.00000000E+00  0.00000000E+00  0.00000000E+00  0.00000000E+00
  0.00000000E+00  0.00000000E+00  0.00000000E+00  0.00000000E+00  0.00000000E+00
  0.00000000E+00  0.00000000E+00  0.00000000E+00  0.00000000E+00  0.00000000E+00
  0.00000000E+00  0.00000000E+00  0.00000000E+00  0.00000000E+00  0.00000000E+00
  0.00000000E+00  0.00000000E+00  0.00000000E+00  0.00000000E+00  0.00000000E+00
  0.00000000E+00  0.00000000E+00  0.00000000E+00  0.00000000E+00  0.00000000E+00
  0.00000000E+00  0.00000000E+00  0.00000000E+00  0.00000000E+00  0.00000000E+00
  0.00000000E+00  0.00000000E+00  0.00000000E+00  0.00000000E+00  0.00000000E+00
  0.00000000E+00  0.00000000E+00  0.00000000E+00  0.00000000E+00  0.00000000E+00
  0.00000000E+00  0.00000000E+00  0.00000000E+00  0.00000000E+00  0.00000000E+00
  0.00000000E+00  0.00000000E+00  0.00000000E+00  0.00000000E+00  0.00000000E+00
  0.00000000E+00  0.00000000E+00  0.00000000E+00  0.00000000E+00  0.00000000E+00
  0.00000000E+00  0.00000000E+00  0.00000000E+00  0.00000000E+00  0.00000000E+00
  0.00000000E+00  0.00000000E+00  0.00000000E+00  0.00000000E+00  0.00000000E+00
  0.00000000E+00  0.00000000E+00  0.00000000E+00  0.00000000E+00  0.00000000E+00
  0.00000000E+00  0.00000000E+00  0.00000000E+00  0.00000000E+00  0.00000000E+00
  0.00000000E+00  0.00000000E+00  0.00000000E+00  0.00000000E+00  0.00000000E+00
  0.00000000E+00  0.00000000E+00  0.00000000E+00  0.00000000E+00  0.00000000E+00
  0.00000000E+00  0.00000000E+00  0.00000000E+00  0.00000000E+00  0.00000000E+00
  0.00000000E+00  0.00000000E+00  0.00000000E+00  0.00000000E+00  0.00000000E+00
  0.00000000E+00  0.00000000E+00  0.00000000E+00  0.00000000E+00  0.00000000E+00
  0.00000000E+00  0.00000000E+00  0.00000000E+00  0.00000000E+00  0.00000000E+00
  0.00000000E+00  0.00000000E+00  0.00000000E+00  0.00000000E+00  0.00000000E+00
  0.00000000E+00  0.00000000E+00  0.00000000E+00  0.00000000E+00  0.00000000E+00
  0.00000000E+00  0.00000000E+00  0.00000000E+00  0.00000000E+00  0.00000000E+00
  0.00000000E+00  0.00000000E+00  0.00000000E+00  0.00000000E+00  0.00000000E+00
  0.00000000E+00  0.00000000E+00  0.00000000E+00  0.00000000E+00  0.00000000E+00
  0.00000000E+00  0.00000000E+00  0.00000000E+00  0.00000000E+00  0.00000000E+00
  0.00000000E+00  0.00000000E+00  0.00000000E+00  0.00000000E+00  0.00000000E+00
  0.00000000E+00  0.00000000E+00  0.00000000E+00  0.00000000E+00  0.00000000E+00
  0.00000000E+00  0.00000000E+00  0.00000000E+00  0.00000000E+00  0.00000000E+00
  0.00000000E+00  0.00000000E+00  0.00000000E+00  0.00000000E+00  0.00000000E+00
  0.00000000E+00  0.00000000E+00  0.00000000E+00  0.00000000E+00  0.00000000E+00
  0.00000000E+00  0.00000000E+00  0.00000000E+00  0.00000000E+00  0.00000000E+00
  0.00000000E+00  0.00000000E+00  0.00000000E+00  0.00000000E+00  0.00000000E+00
  0.00000000E+00  0.00000000E+00  0.00000000E+00  0.00000000E+00  0.00000000E+00
  0.00000000E+00  0.00000000E+00  0.00000000E+00  0.00000000E+00  0.00000000E+00
  0.00000000E+00  0.00000000E+00  0.00000000E+00  0.00000000E+00  0.00000000E+00
  0.00000000E+00  0.00000000E+00  0.00000000E+00  0.00000000E+00  0.00000000E+00
  0.00000000E+00  0.00000000E+00  0.00000000E+00  0.00000000E+00  0.00000000E+00
  0.00000000E+00  0.00000000E+00  0.00000000E+00  0.00000000E+00  0.00000000E+00
  0.00000000E+00  0.00000000E+00  0.00000000E+00  0.00000000E+00  0.00000000E+00
  0.00000000E+00  0.00000000E+00  0.00000000E+00  0.00000000E+00  0.00000000E+00
  0.00000000E+00  0.00000000E+00  0.00000000E+00  0.00000000E+00  0.00000000E+00
  0.00000000E+00  0.00000000E+00  0.00000000E+00  0.00000000E+00  0.00000000E+00
  0.00000000E+00  0.00000000E+00  0.00000000E+00  0.00000000E+00  0.00000000E+00
  0.00000000E+00  0.00000000E+00  0.00000000E+00  0.00000000E+00  0.00000000E+00
  0.00000000E+00  0.00000000E+00  0.00000000E+00  0.00000000E+00  0.00000000E+00
  0.00000000E+00  0.00000000E+00  0.00000000E+00  0.00000000E+00  0.00000000E+00
  0.00000000E+00  0.00000000E+00  0.00000000E+00  0.00000000E+00  0.00000000E+00
  0.00000000E+00  0.00000000E+00  0.00000000E+00  0.00000000E+00  0.00000000E+00
  0.00000000E+00  0.00000000E+00  0.00000000E+00  0.00000000E+00  0.00000000E+00
  0.00000000E+00  0.00000000E+00  0.00000000E+00  0.00000000E+00  0.00000000E+00
  0.00000000E+00  0.00000000E+00  0.00000000E+00  0.00000000E+00  0.00000000E+00
  0.00000000E+00  0.00000000E+00  0.00000000E+00  0.00000000E+00  0.00000000E+00
  0.00000000E+00  0.00000000E+00  0.00000000E+00  0.00000000E+00  0.00000000E+00
  0.00000000E+00  0.00000000E+00  0.00000000E+00  0.00000000E+00  0.00000000E+00
  0.00000000E+00  0.00000000E+00  0.00000000E+00  0.00000000E+00  0.00000000E+00
  0.00000000E+00  0.00000000E+00  0.00000000E+00  0.00000000E+00  0.00000000E+00
  0.00000000E+00  0.00000000E+00  0.00000000E+00  0.00000000E+00  0.00000000E+00
  0.00000000E+00  0.00000000E+00  0.00000000E+00  0.00000000E+00  0.00000000E+00
  0.00000000E+00  0.00000000E+00  0.00000000E+00  0.00000000E+00  0.00000000E+00
  0.00000000E+00  0.00000000E+00  0.00000000E+00  0.00000000E+00  0.00000000E+00
  0.00000000E+00  0.00000000E+00  0.00000000E+00  0.00000000E+00  0.00000000E+00
  0.00000000E+00  0.00000000E+00  0.00000000E+00  0.00000000E+00  0.00000000E+00
  0.00000000E+00  0.00000000E+00  0.00000000E+00  0.00000000E+00  0.00000000E+00
  0.00000000E+00  0.00000000E+00  0.00000000E+00  0.00000000E+00  0.00000000E+00
  0.00000000E+00  0.00000000E+00  0.00000000E+00  0.00000000E+00  0.00000000E+00
  0.00000000E+00  0.00000000E+00  0.00000000E+00  0.00000000E+00  0.00000000E+00
  0.00000000E+00  0.00000000E+00  0.00000000E+00  0.00000000E+00  0.00000000E+00
  0.00000000E+00  0.00000000E+00  0.00000000E+00  0.00000000E+00  0.00000000E+00
  0.00000000E+00  0.00000000E+00  0.00000000E+00  0.00000000E+00  0.00000000E+00
  0.00000000E+00  0.00000000E+00  0.00000000E+00  0.00000000E+00  0.00000000E+00
  0.00000000E+00  0.00000000E+00  0.00000000E+00  0.00000000E+00  0.00000000E+00
  0.00000000E+00  0.00000000E+00  0.00000000E+00  0.00000000E+00  0.00000000E+00
  0.00000000E+00  0.00000000E+00  0.00000000E+00  0.00000000E+00  0.00000000E+00
  0.00000000E+00  0.00000000E+00  0.00000000E+00  0.00000000E+00  0.00000000E+00
  0.00000000E+00  0.00000000E+00  0.00000000E+00  0.00000000E+00  0.00000000E+00
  0.00000000E+00  0.00000000E+00  0.00000000E+00  0.00000000E+00  0.00000000E+00
  0.00000000E+00  0.00000000E+00  0.00000000E+00  0.00000000E+00  0.00000000E+00
  0.00000000E+00  0.00000000E+00  0.00000000E+00  0.00000000E+00  0.00000000E+00
  0.00000000E+00  0.00000000E+00  0.00000000E+00  0.00000000E+00  0.00000000E+00
  0.00000000E+00  0.00000000E+00  0.00000000E+00  0.00000000E+00  0.00000000E+00
  0.00000000E+00  0.00000000E+00  0.00000000E+00  0.00000000E+00  0.00000000E+00
  0.00000000E+00  0.00000000E+00  0.00000000E+00  0.00000000E+00  0.00000000E+00
  0.00000000E+00  0.00000000E+00  0.00000000E+00  0.00000000E+00  0.00000000E+00
  0.00000000E+00  0.00000000E+00  0.00000000E+00  0.00000000E+00  0.00000000E+00
  0.00000000E+00  0.00000000E+00  0.00000000E+00  0.00000000E+00  0.00000000E+00
  0.00000000E+00  0.00000000E+00  0.00000000E+00  0.00000000E+00  0.00000000E+00
  0.00000000E+00  0.00000000E+00  0.00000000E+00  0.00000000E+00  0.00000000E+00
  0.00000000E+00  0.00000000E+00  0.00000000E+00  0.00000000E+00  0.00000000E+00
  0.00000000E+00  0.00000000E+00  0.00000000E+00  0.00000000E+00  0.00000000E+00
  0.00000000E+00  0.00000000E+00  0.00000000E+00  0.00000000E+00  0.00000000E+00
  0.00000000E+00  0.00000000E+00  0.00000000E+00  0.00000000E+00  0.00000000E+00
  0.00000000E+00  0.00000000E+00  0.00000000E+00  0.00000000E+00  0.00000000E+00
  0.00000000E+00  0.00000000E+00  0.00000000E+00  0.00000000E+00  0.00000000E+00
  0.00000000E+00  0.00000000E+00  0.00000000E+00  0.00000000E+00  0.00000000E+00
  0.00000000E+00  0.00000000E+00  0.00000000E+00  0.00000000E+00  0.00000000E+00
  0.00000000E+00  0.00000000E+00  0.00000000E+00  0.00000000E+00  0.00000000E+00
  0.00000000E+00  0.00000000E+00  0.00000000E+00  0.00000000E+00  0.00000000E+00
  0.00000000E+00  0.00000000E+00  0.00000000E+00  0.00000000E+00  0.00000000E+00
  0.00000000E+00  0.00000000E+00  0.00000000E+00  0.00000000E+00  0.00000000E+00
  0.00000000E+00  0.00000000E+00  0.00000000E+00  0.00000000E+00  0.00000000E+00
  0.00000000E+00  0.00000000E+00  0.00000000E+00  0.00000000E+00  0.00000000E+00
  0.00000000E+00  0.00000000E+00  0.00000000E+00  0.00000000E+00  0.00000000E+00
  0.00000000E+00  0.00000000E+00  0.00000000E+00  0.00000000E+00  0.00000000E+00
  0.00000000E+00  0.00000000E+00  0.00000000E+00  0.00000000E+00  0.00000000E+00
  0.00000000E+00  0.00000000E+00  0.00000000E+00  0.00000000E+00  0.00000000E+00
  0.00000000E+00  0.00000000E+00  0.00000000E+00  0.00000000E+00  0.00000000E+00
  0.00000000E+00  0.00000000E+00  0.00000000E+00  0.00000000E+00  0.00000000E+00
  0.00000000E+00  0.00000000E+00  0.00000000E+00  0.00000000E+00  0.00000000E+00
  0.00000000E+00  0.00000000E+00  0.00000000E+00  0.00000000E+00  0.00000000E+00
  0.00000000E+00  0.00000000E+00  0.00000000E+00  0.00000000E+00  0.00000000E+00
  0.00000000E+00  0.00000000E+00  0.00000000E+00  0.00000000E+00  0.00000000E+00
  0.00000000E+00  0.00000000E+00  0.00000000E+00  0.00000000E+00  0.00000000E+00
  0.00000000E+00  0.00000000E+00  0.00000000E+00  0.00000000E+00  0.00000000E+00
  0.00000000E+00  0.00000000E+00  0.00000000E+00  0.00000000E+00  0.00000000E+00
  0.00000000E+00  0.00000000E+00  0.00000000E+00  0.00000000E+00  0.00000000E+00
  0.00000000E+00  0.00000000E+00  0.00000000E+00  0.00000000E+00  0.00000000E+00
  0.00000000E+00  0.00000000E+00  0.00000000E+00  0.00000000E+00  0.00000000E+00
  0.00000000E+00  0.00000000E+00  0.00000000E+00  0.00000000E+00  0.00000000E+00
  0.00000000E+00  0.00000000E+00  0.00000000E+00  0.00000000E+00  0.00000000E+00
  0.00000000E+00  0.00000000E+00  0.00000000E+00  0.00000000E+00  0.00000000E+00
  0.00000000E+00  0.00000000E+00  0.00000000E+00  0.00000000E+00  0.00000000E+00
  0.00000000E+00  0.00000000E+00  0.00000000E+00  0.00000000E+00  0.00000000E+00
  0.00000000E+00  0.00000000E+00  0.00000000E+00  0.00000000E+00  0.00000000E+00
  0.00000000E+00  0.00000000E+00  0.00000000E+00  0.00000000E+00  0.00000000E+00
  0.00000000E+00  0.00000000E+00  0.00000000E+00  0.00000000E+00  0.00000000E+00
  0.00000000E+00  0.00000000E+00  0.00000000E+00  0.00000000E+00  0.00000000E+00
  0.00000000E+00  0.00000000E+00  0.00000000E+00  0.00000000E+00  0.00000000E+00
  0.00000000E+00  0.00000000E+00  0.00000000E+00  0.00000000E+00  0.00000000E+00
  0.00000000E+00  0.00000000E+00  0.00000000E+00  0.00000000E+00  0.00000000E+00
  0.00000000E+00  0.00000000E+00  0.00000000E+00  0.00000000E+00  0.00000000E+00
  0.00000000E+00  0.00000000E+00  0.00000000E+00  0.00000000E+00  0.00000000E+00
  0.00000000E+00  0.00000000E+00  0.00000000E+00  0.00000000E+00  0.00000000E+00
  0.00000000E+00  0.00000000E+00  0.00000000E+00  0.00000000E+00  0.00000000E+00
  0.00000000E+00  0.00000000E+00  0.00000000E+00  0.00000000E+00  0.00000000E+00
  0.00000000E+00  0.00000000E+00  0.00000000E+00  0.00000000E+00  0.00000000E+00
  0.00000000E+00  0.00000000E+00  0.00000000E+00  0.00000000E+00  0.00000000E+00
  0.00000000E+00  0.00000000E+00  0.00000000E+00  0.00000000E+00  0.00000000E+00
  0.00000000E+00  0.00000000E+00  0.00000000E+00  0.00000000E+00  0.00000000E+00
  0.00000000E+00  0.00000000E+00  0.00000000E+00  0.00000000E+00  0.00000000E+00
  0.00000000E+00  0.00000000E+00  0.00000000E+00  0.00000000E+00  0.00000000E+00
  0.00000000E+00  0.00000000E+00  0.00000000E+00  0.00000000E+00  0.00000000E+00
  0.00000000E+00  0.00000000E+00  0.00000000E+00  0.00000000E+00  0.00000000E+00
  0.00000000E+00  0.00000000E+00  0.00000000E+00  0.00000000E+00  0.00000000E+00
  0.00000000E+00  0.00000000E+00  0.00000000E+00  0.00000000E+00  0.00000000E+00
  0.00000000E+00  0.00000000E+00  0.00000000E+00  0.00000000E+00  0.00000000E+00
  0.00000000E+00  0.00000000E+00  0.00000000E+00  0.00000000E+00  0.00000000E+00
  0.00000000E+00  0.00000000E+00  0.00000000E+00  0.00000000E+00  0.00000000E+00
  0.00000000E+00  0.00000000E+00  0.00000000E+00  0.00000000E+00  0.00000000E+00
  0.00000000E+00  0.00000000E+00  0.00000000E+00  0.00000000E+00  0.00000000E+00
  0.00000000E+00  0.00000000E+00  0.00000000E+00  0.00000000E+00  0.00000000E+00
  0.00000000E+00  0.00000000E+00  0.00000000E+00  0.00000000E+00  0.00000000E+00
  0.00000000E+00  0.00000000E+00  0.00000000E+00  0.00000000E+00  0.00000000E+00
  0.00000000E+00  0.00000000E+00  0.00000000E+00  0.00000000E+00  0.00000000E+00
  0.00000000E+00  0.00000000E+00  0.00000000E+00  0.00000000E+00  0.00000000E+00
  0.00000000E+00  0.00000000E+00  0.00000000E+00  0.00000000E+00  0.00000000E+00
  0.00000000E+00  0.00000000E+00  0.00000000E+00  0.00000000E+00  0.00000000E+00
  0.00000000E+00  0.00000000E+00  0.00000000E+00  0.00000000E+00  0.00000000E+00
  0.00000000E+00  0.00000000E+00  0.00000000E+00  0.00000000E+00  0.00000000E+00
  0.00000000E+00  0.00000000E+00  0.00000000E+00  0.00000000E+00  0.00000000E+00
  0.00000000E+00  0.00000000E+00  0.00000000E+00  0.00000000E+00  0.00000000E+00
  0.00000000E+00  0.00000000E+00  0.00000000E+00  0.00000000E+00  0.00000000E+00
  0.00000000E+00  0.00000000E+00  0.00000000E+00  0.00000000E+00  0.00000000E+00
  0.00000000E+00  0.00000000E+00  0.00000000E+00  0.00000000E+00  0.00000000E+00
  0.00000000E+00  0.00000000E+00  0.00000000E+00  0.00000000E+00  0.00000000E+00
  0.00000000E+00  0.00000000E+00  0.00000000E+00  0.00000000E+00  0.00000000E+00
  0.00000000E+00  0.00000000E+00  0.00000000E+00  0.00000000E+00  0.00000000E+00
  0.00000000E+00  0.00000000E+00  0.00000000E+00  0.00000000E+00  0.00000000E+00
  0.00000000E+00  0.00000000E+00  0.00000000E+00  0.00000000E+00  0.00000000E+00
  0.00000000E+00  0.00000000E+00  0.00000000E+00  0.00000000E+00  0.00000000E+00
  0.00000000E+00  0.00000000E+00  0.00000000E+00  0.00000000E+00  0.00000000E+00
  0.00000000E+00  0.00000000E+00  0.00000000E+00  0.00000000E+00  0.00000000E+00
  0.00000000E+00  0.00000000E+00  0.00000000E+00  0.00000000E+00  0.00000000E+00
  0.00000000E+00  0.00000000E+00  0.00000000E+00  0.00000000E+00  0.00000000E+00
  0.00000000E+00  0.00000000E+00  0.00000000E+00  0.00000000E+00  0.00000000E+00
  0.00000000E+00  0.00000000E+00  0.00000000E+00  0.00000000E+00  0.00000000E+00
  0.00000000E+00  0.00000000E+00  0.00000000E+00  0.00000000E+00  0.00000000E+00
  0.00000000E+00  0.00000000E+00  0.00000000E+00  0.00000000E+00  0.00000000E+00
  0.00000000E+00  0.00000000E+00  0.00000000E+00  0.00000000E+00  0.00000000E+00
  0.00000000E+00  0.00000000E+00  0.00000000E+00  0.00000000E+00  0.00000000E+00
  0.00000000E+00  0.00000000E+00  0.00000000E+00  0.00000000E+00  0.00000000E+00
  0.00000000E+00  0.00000000E+00  0.00000000E+00  0.00000000E+00  0.00000000E+00
  0.00000000E+00  0.00000000E+00  0.00000000E+00  0.00000000E+00  0.00000000E+00
  0.00000000E+00  0.00000000E+00  0.00000000E+00  0.00000000E+00  0.00000000E+00
  0.00000000E+00  0.00000000E+00  0.00000000E+00  0.00000000E+00  0.00000000E+00
  0.00000000E+00  0.00000000E+00  0.00000000E+00  0.00000000E+00  0.00000000E+00
  0.00000000E+00  0.00000000E+00  0.00000000E+00  0.00000000E+00  0.00000000E+00
  0.00000000E+00  0.00000000E+00  0.00000000E+00  0.00000000E+00  0.00000000E+00
  0.00000000E+00  0.00000000E+00  0.00000000E+00  0.00000000E+00  0.00000000E+00
  0.00000000E+00  0.00000000E+00  0.00000000E+00  0.00000000E+00  0.00000000E+00
  0.00000000E+00  0.00000000E+00  0.00000000E+00  0.00000000E+00  0.00000000E+00
  0.00000000E+00  0.00000000E+00  0.00000000E+00  0.00000000E+00  0.00000000E+00
  0.00000000E+00  0.00000000E+00  0.00000000E+00  0.00000000E+00  0.00000000E+00
  0.00000000E+00  0.00000000E+00  0.00000000E+00  0.00000000E+00  0.00000000E+00
  0.00000000E+00  0.00000000E+00  0.00000000E+00  0.00000000E+00  0.00000000E+00
  0.00000000E+00  0.00000000E+00  0.00000000E+00  0.00000000E+00  0.00000000E+00
  0.00000000E+00  0.00000000E+00  0.00000000E+00  0.00000000E+00  0.00000000E+00
  0.00000000E+00  0.00000000E+00  0.00000000E+00  0.00000000E+00  0.00000000E+00
  0.00000000E+00  0.00000000E+00  0.00000000E+00  0.00000000E+00  0.00000000E+00
  0.00000000E+00  0.00000000E+00  0.00000000E+00  0.00000000E+00  0.00000000E+00
  0.00000000E+00  0.00000000E+00  0.00000000E+00  0.00000000E+00  0.00000000E+00
  0.00000000E+00  0.00000000E+00  0.00000000E+00  0.00000000E+00  0.00000000E+00
  0.00000000E+00  0.00000000E+00  0.00000000E+00  0.00000000E+00  0.00000000E+00
  0.00000000E+00  0.00000000E+00  0.00000000E+00  0.00000000E+00  0.00000000E+00
  0.00000000E+00  0.00000000E+00  0.00000000E+00  0.00000000E+00  0.00000000E+00
  0.00000000E+00  0.00000000E+00  0.00000000E+00  0.00000000E+00  0.00000000E+00
  0.00000000E+00  0.00000000E+00  0.00000000E+00  0.00000000E+00  0.00000000E+00
  0.00000000E+00  0.00000000E+00  0.00000000E+00  0.00000000E+00  0.00000000E+00
  0.00000000E+00  0.00000000E+00  0.00000000E+00  0.00000000E+00  0.00000000E+00
  0.00000000E+00  0.00000000E+00  0.00000000E+00  0.00000000E+00  0.00000000E+00
  0.00000000E+00  0.00000000E+00  0.00000000E+00  0.00000000E+00  0.00000000E+00
  0.00000000E+00  0.00000000E+00  0.00000000E+00  0.00000000E+00  0.00000000E+00
  0.00000000E+00  0.00000000E+00  0.00000000E+00  0.00000000E+00  0.00000000E+00
  0.00000000E+00  0.00000000E+00  0.00000000E+00  0.00000000E+00  0.00000000E+00
  0.00000000E+00  0.00000000E+00  0.00000000E+00  0.00000000E+00  0.00000000E+00
  0.00000000E+00  0.00000000E+00  0.00000000E+00  0.00000000E+00  0.00000000E+00
  0.00000000E+00  0.00000000E+00  0.00000000E+00  0.00000000E+00  0.00000000E+00
  0.00000000E+00  0.00000000E+00  0.00000000E+00  0.00000000E+00  0.00000000E+00
  0.00000000E+00  0.00000000E+00  0.00000000E+00  0.00000000E+00  0.00000000E+00
  0.00000000E+00  0.00000000E+00  0.00000000E+00  0.00000000E+00  0.00000000E+00
  0.00000000E+00  0.00000000E+00  0.00000000E+00  0.00000000E+00  0.00000000E+00
  0.00000000E+00  0.00000000E+00  0.00000000E+00  0.00000000E+00  0.00000000E+00
  0.00000000E+00  0.00000000E+00  0.00000000E+00  0.00000000E+00  0.00000000E+00
  0.00000000E+00  0.00000000E+00  0.00000000E+00  0.00000000E+00  0.00000000E+00
  0.00000000E+00  0.00000000E+00  0.00000000E+00  0.00000000E+00  0.00000000E+00
  0.00000000E+00  0.00000000E+00  0.00000000E+00  0.00000000E+00  0.00000000E+00
  0.00000000E+00  0.00000000E+00  0.00000000E+00  0.00000000E+00  0.00000000E+00
  0.00000000E+00  0.00000000E+00  0.00000000E+00  0.00000000E+00  0.00000000E+00
  0.00000000E+00  0.00000000E+00  0.00000000E+00  0.00000000E+00  0.00000000E+00
  0.00000000E+00  0.00000000E+00  0.00000000E+00  0.00000000E+00  0.00000000E+00
  0.00000000E+00  0.00000000E+00  0.00000000E+00  0.00000000E+00  0.00000000E+00
  0.00000000E+00  0.00000000E+00  0.00000000E+00  0.00000000E+00  0.00000000E+00
  0.00000000E+00  0.00000000E+00  0.00000000E+00  0.00000000E+00  0.00000000E+00
  0.00000000E+00  0.00000000E+00  0.00000000E+00  0.00000000E+00  0.00000000E+00
  0.00000000E+00  0.00000000E+00  0.00000000E+00  0.00000000E+00  0.00000000E+00
  0.00000000E+00  0.00000000E+00  0.00000000E+00  0.00000000E+00  0.00000000E+00
  0.00000000E+00  0.00000000E+00  0.00000000E+00  0.00000000E+00  0.00000000E+00
  0.00000000E+00  0.00000000E+00  0.00000000E+00  0.00000000E+00  0.00000000E+00
  0.00000000E+00  0.00000000E+00  0.00000000E+00  0.00000000E+00  0.00000000E+00
  0.00000000E+00  0.00000000E+00  0.00000000E+00  0.00000000E+00  0.00000000E+00
  0.00000000E+00  0.00000000E+00  0.00000000E+00  0.00000000E+00  0.00000000E+00
  0.00000000E+00  0.00000000E+00  0.00000000E+00  0.00000000E+00  0.00000000E+00
  0.00000000E+00  0.00000000E+00  0.00000000E+00  0.00000000E+00  0.00000000E+00
  0.00000000E+00  0.00000000E+00  0.00000000E+00  0.00000000E+00  0.00000000E+00
  0.00000000E+00  0.00000000E+00  0.00000000E+00  0.00000000E+00  0.00000000E+00
  0.00000000E+00  0.00000000E+00  0.00000000E+00  0.00000000E+00  0.00000000E+00
  0.00000000E+00  0.00000000E+00  0.00000000E+00  0.00000000E+00  0.00000000E+00
  0.00000000E+00  0.00000000E+00  0.00000000E+00  0.00000000E+00  0.00000000E+00
  0.00000000E+00  0.00000000E+00  0.00000000E+00  0.00000000E+00  0.00000000E+00
  0.00000000E+00  0.00000000E+00  0.00000000E+00  0.00000000E+00  0.00000000E+00
  0.00000000E+00  0.00000000E+00  0.00000000E+00  0.00000000E+00  0.00000000E+00
  0.00000000E+00  0.00000000E+00  0.00000000E+00  0.00000000E+00  0.00000000E+00
  0.00000000E+00  0.00000000E+00  0.00000000E+00  0.00000000E+00  0.00000000E+00
  0.00000000E+00  0.00000000E+00  0.00000000E+00  0.00000000E+00  0.00000000E+00
  0.00000000E+00  0.00000000E+00  0.00000000E+00  0.00000000E+00  0.00000000E+00
  0.00000000E+00  0.00000000E+00  0.00000000E+00  0.00000000E+00  0.00000000E+00
  0.00000000E+00  0.00000000E+00  0.00000000E+00  0.00000000E+00  0.00000000E+00
  0.00000000E+00  0.00000000E+00  0.00000000E+00  0.00000000E+00  0.00000000E+00
  0.00000000E+00  0.00000000E+00  0.00000000E+00  0.00000000E+00  0.00000000E+00
  0.00000000E+00  0.00000000E+00  0.00000000E+00  0.00000000E+00  0.00000000E+00
  0.00000000E+00  0.00000000E+00  0.00000000E+00  0.00000000E+00  0.00000000E+00
  0.00000000E+00  0.00000000E+00  0.00000000E+00  0.00000000E+00  0.00000000E+00
  0.00000000E+00  0.00000000E+00  0.00000000E+00  0.00000000E+00  0.00000000E+00
  0.00000000E+00  0.00000000E+00  0.00000000E+00  0.00000000E+00  0.00000000E+00
  0.00000000E+00  0.00000000E+00  0.00000000E+00  0.00000000E+00  0.00000000E+00
  0.00000000E+00  0.00000000E+00  0.00000000E+00  0.00000000E+00  0.00000000E+00
  0.00000000E+00  0.00000000E+00  0.00000000E+00  0.00000000E+00  0.00000000E+00
  0.00000000E+00  0.00000000E+00  0.00000000E+00  0.00000000E+00  0.00000000E+00
  0.00000000E+00  0.00000000E+00  0.00000000E+00  0.00000000E+00  0.00000000E+00
  0.00000000E+00  0.00000000E+00  0.00000000E+00  0.00000000E+00  0.00000000E+00
  0.00000000E+00  0.00000000E+00  0.00000000E+00  0.00000000E+00  0.00000000E+00
  0.00000000E+00  0.00000000E+00  0.00000000E+00  0.00000000E+00  0.00000000E+00
  0.00000000E+00  0.00000000E+00  0.00000000E+00  0.00000000E+00  0.00000000E+00
  0.00000000E+00  0.00000000E+00  0.00000000E+00  0.00000000E+00  0.00000000E+00
  0.00000000E+00  0.00000000E+00  0.00000000E+00  0.00000000E+00  0.00000000E+00
  0.00000000E+00  0.00000000E+00  0.00000000E+00  0.00000000E+00  0.00000000E+00
  0.00000000E+00  0.00000000E+00  0.00000000E+00  0.00000000E+00  0.00000000E+00
  0.00000000E+00  0.00000000E+00  0.00000000E+00  0.00000000E+00  0.00000000E+00
  0.00000000E+00  0.00000000E+00  0.00000000E+00  0.00000000E+00  0.00000000E+00
  0.00000000E+00  0.00000000E+00  0.00000000E+00  0.00000000E+00  0.00000000E+00
  0.00000000E+00  0.00000000E+00  0.00000000E+00  0.00000000E+00  0.00000000E+00
  0.00000000E+00  0.00000000E+00  0.00000000E+00  0.00000000E+00  0.00000000E+00
  0.00000000E+00  0.00000000E+00  0.00000000E+00  0.00000000E+00  0.00000000E+00
  0.00000000E+00  0.00000000E+00  0.00000000E+00  0.00000000E+00  0.00000000E+00
  0.00000000E+00  0.00000000E+00  0.00000000E+00  0.00000000E+00  0.00000000E+00
  0.00000000E+00  0.00000000E+00  0.00000000E+00  0.00000000E+00  0.00000000E+00
  0.00000000E+00  0.00000000E+00  0.00000000E+00  0.00000000E+00  0.00000000E+00
  0.00000000E+00  0.00000000E+00  0.00000000E+00  0.00000000E+00  0.00000000E+00
  0.00000000E+00  0.00000000E+00  0.00000000E+00  0.00000000E+00  0.00000000E+00
  0.00000000E+00  0.00000000E+00  0.00000000E+00  0.00000000E+00  0.00000000E+00
  0.00000000E+00  0.00000000E+00  0.00000000E+00  0.00000000E+00  0.00000000E+00
  0.00000000E+00  0.00000000E+00  0.00000000E+00  0.00000000E+00  0.00000000E+00
  0.00000000E+00  0.00000000E+00  0.00000000E+00  0.00000000E+00  0.00000000E+00
  0.00000000E+00  0.00000000E+00  0.00000000E+00  0.00000000E+00  0.00000000E+00
  0.00000000E+00  0.00000000E+00  0.00000000E+00  0.00000000E+00  0.00000000E+00
  0.00000000E+00  0.00000000E+00  0.00000000E+00  0.00000000E+00  0.00000000E+00
  0.00000000E+00  0.00000000E+00  0.00000000E+00  0.00000000E+00  0.00000000E+00
  0.00000000E+00  0.00000000E+00  0.00000000E+00  0.00000000E+00  0.00000000E+00
  0.00000000E+00  0.00000000E+00  0.00000000E+00  0.00000000E+00  0.00000000E+00
  0.00000000E+00  0.00000000E+00  0.00000000E+00  0.00000000E+00  0.00000000E+00
  0.00000000E+00  0.00000000E+00  0.00000000E+00  0.00000000E+00  0.00000000E+00
  0.00000000E+00  0.00000000E+00  0.00000000E+00  0.00000000E+00  0.00000000E+00
  0.00000000E+00  0.00000000E+00  0.00000000E+00  0.00000000E+00  0.00000000E+00
  0.00000000E+00  0.00000000E+00  0.00000000E+00  0.00000000E+00  0.00000000E+00
  0.00000000E+00  0.00000000E+00  0.00000000E+00  0.00000000E+00  0.00000000E+00
  0.00000000E+00  0.00000000E+00  0.00000000E+00  0.00000000E+00  0.00000000E+00
  0.00000000E+00  0.00000000E+00  0.00000000E+00  0.00000000E+00  0.00000000E+00
  0.00000000E+00  0.00000000E+00  0.00000000E+00  0.00000000E+00  0.00000000E+00
  0.00000000E+00  0.00000000E+00  0.00000000E+00  0.00000000E+00  0.00000000E+00
  0.00000000E+00  0.00000000E+00  0.00000000E+00  0.00000000E+00  0.00000000E+00
  0.00000000E+00  0.00000000E+00  0.00000000E+00  0.00000000E+00  0.00000000E+00
  0.00000000E+00  0.00000000E+00  0.00000000E+00  0.00000000E+00  0.00000000E+00
  0.00000000E+00  0.00000000E+00  0.00000000E+00  0.00000000E+00  0.00000000E+00
  0.00000000E+00  0.00000000E+00  0.00000000E+00  0.00000000E+00  0.00000000E+00
  0.00000000E+00  0.00000000E+00  0.00000000E+00  0.00000000E+00  0.00000000E+00
  0.00000000E+00  0.00000000E+00  0.00000000E+00  0.00000000E+00  0.00000000E+00
  0.00000000E+00  0.00000000E+00  0.00000000E+00  0.00000000E+00  0.00000000E+00
  0.00000000E+00  0.00000000E+00  0.00000000E+00  0.00000000E+00  0.00000000E+00
  0.00000000E+00  0.00000000E+00  0.00000000E+00  0.00000000E+00  0.00000000E+00
  0.00000000E+00  0.00000000E+00  0.00000000E+00  0.00000000E+00  0.00000000E+00
  0.00000000E+00  0.00000000E+00  0.00000000E+00  0.00000000E+00  0.00000000E+00
  0.00000000E+00  0.00000000E+00  0.00000000E+00  0.00000000E+00  0.00000000E+00
  0.00000000E+00  0.00000000E+00  0.00000000E+00  0.00000000E+00  0.00000000E+00
  0.00000000E+00  0.00000000E+00  0.00000000E+00  0.00000000E+00  0.00000000E+00
  0.00000000E+00  0.00000000E+00  0.00000000E+00  0.00000000E+00  0.00000000E+00
  0.00000000E+00  0.00000000E+00  0.00000000E+00  0.00000000E+00  0.00000000E+00
  0.00000000E+00  0.00000000E+00  0.00000000E+00  0.00000000E+00  0.00000000E+00
  0.00000000E+00  0.00000000E+00  0.00000000E+00  0.00000000E+00  0.00000000E+00
  0.00000000E+00  0.00000000E+00  0.00000000E+00  0.00000000E+00  0.00000000E+00
  0.00000000E+00  0.00000000E+00  0.00000000E+00  0.00000000E+00  0.00000000E+00
  0.00000000E+00  0.00000000E+00  0.00000000E+00  0.00000000E+00  0.00000000E+00
  0.00000000E+00  0.00000000E+00  0.00000000E+00  0.00000000E+00  0.00000000E+00
  0.00000000E+00  0.00000000E+00  0.00000000E+00  0.00000000E+00  0.00000000E+00
  0.00000000E+00  0.00000000E+00  0.00000000E+00  0.00000000E+00  0.00000000E+00
  0.00000000E+00  0.00000000E+00  0.00000000E+00  0.00000000E+00  0.00000000E+00
  0.00000000E+00  0.00000000E+00  0.00000000E+00  0.00000000E+00  0.00000000E+00
  0.00000000E+00  0.00000000E+00  0.00000000E+00  0.00000000E+00  0.00000000E+00
  0.00000000E+00  0.00000000E+00  0.00000000E+00  0.00000000E+00  0.00000000E+00
  0.00000000E+00  0.00000000E+00  0.00000000E+00  0.00000000E+00  0.00000000E+00
  0.00000000E+00  0.00000000E+00  0.00000000E+00  0.00000000E+00  0.00000000E+00
  0.00000000E+00  0.00000000E+00  0.00000000E+00  0.00000000E+00  0.00000000E+00
  0.00000000E+00  0.00000000E+00  0.00000000E+00  0.00000000E+00  0.00000000E+00
  0.00000000E+00  0.00000000E+00  0.00000000E+00  0.00000000E+00  0.00000000E+00
  0.00000000E+00  0.00000000E+00  0.00000000E+00  0.00000000E+00  0.00000000E+00
  0.00000000E+00  0.00000000E+00  0.00000000E+00  0.00000000E+00  0.00000000E+00
  0.00000000E+00  0.00000000E+00  0.00000000E+00  0.00000000E+00  0.00000000E+00
  0.00000000E+00  0.00000000E+00  0.00000000E+00  0.00000000E+00  0.00000000E+00
  0.00000000E+00  0.00000000E+00  0.00000000E+00  0.00000000E+00  0.00000000E+00
  0.00000000E+00  0.00000000E+00  0.00000000E+00  0.00000000E+00  0.00000000E+00
  0.00000000E+00  0.00000000E+00  0.00000000E+00  0.00000000E+00  0.00000000E+00
  0.00000000E+00  0.00000000E+00  0.00000000E+00  0.00000000E+00  0.00000000E+00
  0.00000000E+00  0.00000000E+00  0.00000000E+00  0.00000000E+00  0.00000000E+00
  0.00000000E+00  0.00000000E+00  0.00000000E+00  0.00000000E+00  0.00000000E+00
  0.00000000E+00  0.00000000E+00  0.00000000E+00  0.00000000E+00  0.00000000E+00
  0.00000000E+00  0.00000000E+00  0.00000000E+00  0.00000000E+00  0.00000000E+00
  0.00000000E+00  0.00000000E+00  0.00000000E+00  0.00000000E+00  0.00000000E+00
  0.00000000E+00  0.00000000E+00  0.00000000E+00  0.00000000E+00  0.00000000E+00
  0.00000000E+00  0.00000000E+00  0.00000000E+00  0.00000000E+00  0.00000000E+00
  0.00000000E+00  0.00000000E+00  0.00000000E+00  0.00000000E+00  0.00000000E+00
  0.00000000E+00  0.00000000E+00  0.00000000E+00  0.00000000E+00  0.00000000E+00
Gaussian Version                           C   N=           2
AppleM1-GDVRevJ.32+     
