 Entering Gaussian System, Link 0=gdv
 Input=h2o.gjf
 Output=h2o.log
 Initial command:
 "/Users/vincenzobarone/gdv_j32p/gdv/l1.exe" -scrdir="/Users/vincenzobarone/Documents/GAUSSIAN_SCRATCH/" "/Users/vincenzobarone/Documents/GAUSSIAN_SCRATCH/Gau-39829.inp" "h2o.log" 
 Entering Link 1 = /Users/vincenzobarone/gdv_j32p/gdv/l1.exe PID=     39830.
  
 Copyright (c) 1988-2025, Gaussian, Inc.  All Rights Reserved.
  
 This is the private, development version of
 the Gaussian(R) DV system of programs. It is based on
 the Gaussian(R) 16 system (copyright 2016, Gaussian, Inc.),
 the Gaussian(R) 09 system (copyright 2009, Gaussian, Inc.),
 the Gaussian(R) 03 system (copyright 2003, Gaussian, Inc.),
 the Gaussian(R) 98 system (copyright 1998, Gaussian, Inc.),
 the Gaussian(R) 94 system (copyright 1995, Gaussian, Inc.),
 the Gaussian 92(TM) system (copyright 1992, Gaussian, Inc.),
 the Gaussian 90(TM) system (copyright 1990, Gaussian, Inc.),
 the Gaussian 88(TM) system (copyright 1988, Gaussian, Inc.),
 the Gaussian 86(TM) system (copyright 1986, Carnegie Mellon
 University), and the Gaussian 82(TM) system (copyright 1983,
 Carnegie Mellon University). Gaussian is a federally registered
 trademark of Gaussian, Inc.
  
 This software contains proprietary and confidential information,
 including trade secrets, belonging to Gaussian, Inc.
  
 This software is provided under written license and may be
 used, copied, transmitted, or stored only in accord with that
 written license.
  
 The following legend is applicable only to US Government
 contracts under FAR:
  
                    RESTRICTED RIGHTS LEGEND
  
 Use, reproduction and disclosure by the US Government is
 subject to restrictions as set forth in subparagraphs (a)
 and (c) of the Commercial Computer Software - Restricted
 Rights clause in FAR 52.227-19.
  
 Gaussian, Inc.
 340 Quinnipiac St., Bldg. 40, Wallingford CT 06492
  
  
 ---------------------------------------------------------------
 Warning -- This program may not be used in any manner that
 competes with the business of Gaussian, Inc. or will provide
 assistance to any competitor of Gaussian, Inc.  The licensee
 of this program is prohibited from giving any competitor of
 Gaussian, Inc. access to this program.  By using this program,
 the user acknowledges that Gaussian, Inc. is engaged in the
 business of creating and licensing software in the field of
 computational chemistry and represents and warrants to the
 licensee that it is not a competitor of Gaussian, Inc. and that
 it will not use this program in any manner prohibited above.
 ---------------------------------------------------------------
  

 Cite this work as:
 Gaussian Development Version, Revision J.32+,
 M. J. Frisch, G. W. Trucks, G. Scalmani, J. R. Cheeseman, X. Li, 
 J. Bloino, B. G. Janesko, A. V. Marenich, J. Zheng, F. Lipparini, 
 A. Jenkins, A. Liu, H. Liu, H. B. Schlegel, G. E. Scuseria, 
 M. A. Robb, V. Barone, G. A. Petersson, H. Nakatsuji, B. Mennucci, 
 C. Adamo, N. Rega, M. Caricato, H. P. Hratchian, J. V. Ortiz, 
 F. Pawlowski, A. F. Izmaylov, H. Hu, C. Liao, J. L. Sonnenberg, 
 D. Williams-Young, F. Ding, R. Gomperts, F. Egidi, J. Goings, 
 B. Peng, A. Petrone, T. Henderson, D. Ranasinghe, V. G. Zakrzewski, 
 J. Gao, G. Zheng, M. Mendolicchio, W. Liang, M. Hada, M. Ehara, 
 K. Toyota, R. Fukuda, J. Hasegawa, M. Ishida, T. Nakajima, Y. Honda, 
 O. Kitao, H. Nakai, T. Vreven, K. Throssell, J. A. Montgomery, Jr., 
 J. E. Peralta, F. Ogliaro, M. J. Bearpark, J. J. Heyd, 
 E. N. Brothers, K. N. Kudin, V. N. Staroverov, T. A. Keith, 
 R. Kobayashi, J. Normand, K. Raghavachari, A. P. Rendell, 
 J. C. Burant, S. S. Iyengar, M. Cossi, J. M. Millam, M. Klene, 
 R. Cammi, R. L. Martin, O. Farkas, J. B. Foresman, and D. J. Fox, 
 Gaussian, Inc., Wallingford CT, 2024.
 
 *********************************************
 Gaussian DV:  AppleM1-GDVRevJ.32+ 19-Oct-2025
                  10-Mar-2026 
 *********************************************
 %mem=32GB
 %NPROC=8
 Will use up to    8 processors via shared memory.
 %chk=h2o
 -------------------------
 #P B3LYP 6-31G* opt=tight
 -------------------------
 1/7=10,18=20,19=15,26=4,37=210000000,38=1/1,3;
 2/9=110,12=2/2;
 3/5=1,6=6,7=1,11=2,25=1,30=1,71=1,74=-5/1,2,3;
 4//1;
 5/5=2,8=3,13=1,38=5/2,8;
 6/7=2,8=2,9=2,10=2,28=1/1;
 7//1,2,3,16;
 1/7=10,18=20,19=15,26=4/3(2);
 2/9=110/2;
 99//99;
 2/9=110/2;
 3/5=1,6=6,7=1,11=2,25=1,30=1,71=1,74=-5/1,2,3;
 4/5=5,16=3,69=1/1;
 5/5=2,8=3,13=1,38=5/2,8;
 7//1,2,3,16;
 1/7=10,18=20,19=15,26=4/3(-5);
 2/9=110/2;
 6/7=2,8=2,9=2,10=2,19=2,28=1/1;
 99/9=1/99;
 Leave Link    1 at Tue Mar 10 00:06:52 2026, MaxMem=  4294967296 cpu:               0.0 elap:               0.0
 (Enter /Users/vincenzobarone/gdv_j32p/gdv/l101.exe)
 ---
 h2o
 ---
 Symbolic Z-matrix:
 Charge =     0 Multiplicity =     1
 H                     0.7      -0.7       0. 
 O                     0.        0.        0. 
 H                     0.7       0.7       0. 
 
 Initializing the GIC definitions file.
 ITRead=  0  0  0
 MicOpt= -1 -1 -1
 NAtoms=      3 NQM=        3 NQMF=       0 NMMI=      0 NMMIF=      0
                NMic=       0 NMicF=      0.
                    Isotopes and Nuclear Properties:
 (Nuclear quadrupole moments (NQMom) in fm**2, nuclear magnetic moments (NMagM)
  in nuclear magnetons)

  Atom         1           2           3
 IAtWgt=           1          16           1
 AtmWgt=   1.0078250  15.9949146   1.0078250
 NucSpn=           1           0           1
 AtZEff=    0.000000    0.000000    0.000000
 NQMom=    0.0000000   0.0000000   0.0000000
 NMagM=    2.7928460   0.0000000   2.7928460
 AtZNuc=   1.0000000   8.0000000   1.0000000
 Leave Link  101 at Tue Mar 10 00:06:52 2026, MaxMem=  4294967296 cpu:               0.1 elap:               0.1
 (Enter /Users/vincenzobarone/gdv_j32p/gdv/l103.exe)

 GradGradGradGradGradGradGradGradGradGradGradGradGradGradGradGradGradGrad
 Berny optimization.
 Initialization pass.
                           ----------------------------
                           !    Initial Parameters    !
                           ! (Angstroms and Degrees)  !
 --------------------------                            --------------------------
 ! Name  Definition              Value          Derivative Info.                !
 --------------------------------------------------------------------------------
 ! R1    R(1,2)                  0.9899         estimate D2E/DX2                !
 ! R2    R(2,3)                  0.9899         estimate D2E/DX2                !
 ! A1    A(1,2,3)               90.0            estimate D2E/DX2                !
 --------------------------------------------------------------------------------
 Trust Radius=3.00D-01 FncErr=1.00D-07 GrdErr=1.00D-06 EigMax=2.50D+02 EigMin=1.00D-04
 Number of steps in this run=     20 maximum allowed number of steps=    100.
 GradGradGradGradGradGradGradGradGradGradGradGradGradGradGradGradGradGrad

 Leave Link  103 at Tue Mar 10 00:06:52 2026, MaxMem=  4294967296 cpu:               0.0 elap:               0.0
 (Enter /Users/vincenzobarone/gdv_j32p/gdv/l202.exe)
                          Input orientation:                          
 ---------------------------------------------------------------------
 Center     Atomic      Atomic             Coordinates (Angstroms)
 Number     Number       Type             X           Y           Z
 ---------------------------------------------------------------------
      1          1           0        0.700000   -0.700000    0.000000
      2          8           0        0.000000    0.000000    0.000000
      3          1           0        0.700000    0.700000    0.000000
 ---------------------------------------------------------------------
                    Distance matrix (angstroms):
                    1          2          3
     1  H    0.000000
     2  O    0.989949   0.000000
     3  H    1.400000   0.989949   0.000000
 Stoichiometry    H2O
 Framework group  C2V[C2(O),SGV(H2)]
 Deg. of freedom     2
 Full point group                 C2V     NOp   4
 Largest Abelian subgroup         C2V     NOp   4
 Largest concise Abelian subgroup C2      NOp   2
                         Standard orientation:                         
 ---------------------------------------------------------------------
 Center     Atomic      Atomic             Coordinates (Angstroms)
 Number     Number       Type             X           Y           Z
 ---------------------------------------------------------------------
      1          1           0        0.000000    0.700000   -0.560000
      2          8           0        0.000000    0.000000    0.140000
      3          1           0        0.000000   -0.700000   -0.560000
 ---------------------------------------------------------------------
 Rotational constants (GHZ):         576.1709851         511.6888821         271.0094344
 Leave Link  202 at Tue Mar 10 00:06:52 2026, MaxMem=  4294967296 cpu:               0.0 elap:               0.0
 (Enter /Users/vincenzobarone/gdv_j32p/gdv/l301.exe)
 Standard basis: 6-31G(d) (6D, 7F)
 Ernie: Thresh=  0.10000D-02 Tol=  0.10000D-05 Strict=F.
 There are    10 symmetry adapted cartesian basis functions of A1  symmetry.
 There are     1 symmetry adapted cartesian basis functions of A2  symmetry.
 There are     3 symmetry adapted cartesian basis functions of B1  symmetry.
 There are     5 symmetry adapted cartesian basis functions of B2  symmetry.
 There are    10 symmetry adapted basis functions of A1  symmetry.
 There are     1 symmetry adapted basis functions of A2  symmetry.
 There are     3 symmetry adapted basis functions of B1  symmetry.
 There are     5 symmetry adapted basis functions of B2  symmetry.
    19 basis functions,    36 primitive gaussians,    19 cartesian basis functions
     5 alpha electrons        5 beta electrons
       nuclear repulsion energy         8.9307790202 Hartrees.
 IExCor=      4002 DFT=T Ex+Corr=B3LYP ScaHFX=  0.200000
 ScaDFX=  0.800000  0.720000  1.000000  0.810000  1.000000  0.000000
 ScaDFX=  0.000000  0.000000  0.000000  0.000000  0.000000  0.000000
 Grid=UltraFine IRanWt=     -1 IRanGd=            0 ICorTp=0 IEDCtl=  2004
 NAtoms=    3 NActive=    3 NUniq=    2 SFac= 2.25D+00 NAtFMM=   60 NAOKFM=F Big=F
 Integral buffers will be    131072 words long.
 Raffenetti 2 integral format.
 Two-electron integral symmetry is turned on.
 Leave Link  301 at Tue Mar 10 00:06:52 2026, MaxMem=  4294967296 cpu:               0.0 elap:               0.0
 (Enter /Users/vincenzobarone/gdv_j32p/gdv/l302.exe)
 NPDir=0 NMtPBC=     1 NCelOv=     1 NCel=       1 NClECP=     1 NCelD=      1
         NCelK=      1 NCelE2=     1 NClLst=     1 CellRange=     0.0.
 One-electron integrals computed using PRISM.
 One-electron integral symmetry used in STVInt
 NBasis=    19 RedAO= T EigKep=  2.36D-02  NBF=    10     1     3     5
 NBsUse=    19 1.00D-06 EigRej= -1.00D+00 NBFU=    10     1     3     5
 Precomputing XC quadrature grid using
 IXCGrd=   9 Grid=UltraFine IRanWt=          -1 IRanGd=           0 AccXCQ= 0.00D+00.
 Generated NRdTot=       0 NPtTot=       68295 NUsed=           0 NTot=          64
 NSgBfM=    19    19    19    19    19 MxSgAt=     3 MxSgA2=     3 SizInc=   0.000
 NMBTot=      626 MaxBatPerAtom=       82 MaxMicBPerAtom=      209 NBfPt=             1113703.
 Leave Link  302 at Tue Mar 10 00:06:52 2026, MaxMem=  4294967296 cpu:               0.1 elap:               0.0
 (Enter /Users/vincenzobarone/gdv_j32p/gdv/l303.exe)
 DipDrv:  MaxL=1.
 Leave Link  303 at Tue Mar 10 00:06:52 2026, MaxMem=  4294967296 cpu:               0.0 elap:               0.0
 (Enter /Users/vincenzobarone/gdv_j32p/gdv/l401.exe)
 ExpMin= 1.61D-01 ExpMax= 5.48D+03 ExpMxC= 8.25D+02 IAcc=3 Grid=UltraFine AccDes= 0.00D+00
 Harris functional with IExCor= 4002 and Grid=UltraFine diagonalized for initial guess.
 HarFok:  IExCor=    4002 AccDes= 0.00D+00 Grid=UltraFine IDoV= 1 UseB2=F ITyADJ=14 ICtDFT=  3500011
 FoFCou: FMM=F IPFlag=           0 FMFlag=      100000 FMFlg1=           0
         NFxFlg=           0 DoJE=T BraDBF=F KetDBF=T FulRan=T
         wScrn=  0.000000 ICntrl=       500 IOpCl=  0 I1Cent=   200000004 NGrid=           0
         NMat0=    1 NMatS0=      1 NMatT0=    0 NMatD0=    1 NMtDS0=    0 NMtDT0=    0
 Petite list used in FoFCou.
 Harris En= -76.4389600729100    
 JPrj=0 DoOrth=F DoCkMO=F.
 Initial guess orbital symmetries:
       Occupied  (A1) (A1) (B2) (A1) (B1)
       Virtual   (A1) (B2) (B2) (A1) (B1) (A1) (B2) (A1) (A1) (A2)
                 (B1) (A1) (B2) (A1)
 The electronic state of the initial guess is 1-A1.
 Leave Link  401 at Tue Mar 10 00:06:52 2026, MaxMem=  4294967296 cpu:               0.2 elap:               0.1
 (Enter /Users/vincenzobarone/gdv_j32p/gdv/l502.exe)
 Keep R1 ints in memory in symmetry-blocked form, NReq=6933615.
 FoFCou: FMM=F IPFlag=           0 FMFlag=           0 FMFlg1=           0
         NFxFlg=           0 DoJE=F BraDBF=F KetDBF=F FulRan=T
         wScrn=  0.000000 ICntrl=       600 IOpCl=  0 I1Cent=           0 NGrid=           0
         NMat0=    1 NMatS0=    190 NMatT0=    0 NMatD0=    1 NMtDS0=    0 NMtDT0=    0
 Petite list used in FoFCou.
 Closed shell SCF:
 Using DIIS extrapolation, IDIIS=  1040.
 NGot=  4294967296 LenX=  4294959046 LenY=  4294958164
 Requested convergence on RMS density matrix=1.00D-08 within  48 cycles.
 Requested convergence on MAX density matrix=1.00D-06.
 Requested convergence on             energy=1.00D-06.
 No special actions if energy rises.
 Integral accuracy reduced to 1.0D-05 until final iterations.

 Cycle   1  Pass 0  IDiag  1:
 E= -76.3270551063976    
 DIIS: error= 7.37D-02 at cycle   1 NSaved=   1.
 NSaved= 1 IEnMin= 1 EnMin= -76.3270551063976     IErMin= 1 ErrMin= 7.37D-02
 ErrMax= 7.37D-02  0.00D+00 EMaxC= 1.00D-01 BMatC= 4.99D-02 BMatP= 4.99D-02
 Rises=F IDIUse=3 WtCom= 2.63D-01 WtEn= 7.37D-01
 Coeff-Com:  0.100D+01
 Coeff-En:   0.100D+01
 Coeff:      0.100D+01
 Gap=     0.203 Goal=   None    Shift=    0.000
 GapD=    0.203 DampG=1.000 DampE=0.500 DampFc=0.5000 IDamp=-1.
 Damping current iteration by 5.00D-01
 RMSDP=3.16D-02 MaxDP=2.65D-01              OVMax= 2.20D-01

 Cycle   2  Pass 0  IDiag  1:
 E= -76.3503475571440     Delta-E=       -0.023292450746 Rises=F Damp=T AM=F Ri=F Fa=F
 DIIS: error= 2.19D-02 at cycle   2 NSaved=   2.
 NSaved= 2 IEnMin= 2 EnMin= -76.3503475571440     IErMin= 2 ErrMin= 2.19D-02
 ErrMax= 2.19D-02  0.00D+00 EMaxC= 1.00D-01 BMatC= 4.07D-03 BMatP= 4.99D-02
 Rises=F IDIUse=3 WtCom= 7.81D-01 WtEn= 2.19D-01
 Coeff-Com:  0.210D+00 0.790D+00
 Coeff-En:   0.336D+00 0.664D+00
 Coeff:      0.237D+00 0.763D+00
 Gap=     0.332 Goal=   None    Shift=    0.000
 RMSDP=4.16D-03 MaxDP=4.71D-02 DE=-2.33D-02 OVMax= 1.22D-01

 Cycle   3  Pass 0  IDiag  1:
 E= -76.4031670282139     Delta-E=       -0.052819471070 Rises=F Damp=F AM=F Ri=F Fa=F
 DIIS: error= 4.41D-03 at cycle   3 NSaved=   3.
 NSaved= 3 IEnMin= 3 EnMin= -76.4031670282139     IErMin= 3 ErrMin= 4.41D-03
 ErrMax= 4.41D-03  0.00D+00 EMaxC= 1.00D-01 BMatC= 1.76D-04 BMatP= 4.07D-03
 Rises=F IDIUse=3 WtCom= 9.71D-01 WtEn= 2.93D-02
 Coeff-Com:  0.459D-01-0.473D-01 0.100D+01
 Coeff-En:   0.000D+00 0.000D+00 0.100D+01
 Coeff:      0.446D-01-0.459D-01 0.100D+01
 Gap=     0.347 Goal=   None    Shift=    0.000
 RMSDP=6.65D-04 MaxDP=6.09D-03 DE=-5.28D-02 OVMax= 4.65D-03

 Cycle   4  Pass 0  IDiag  1:
 E= -76.4034120994940     Delta-E=       -0.000245071280 Rises=F Damp=F AM=F Ri=F Fa=F
 DIIS: error= 3.22D-04 at cycle   4 NSaved=   4.
 NSaved= 4 IEnMin= 4 EnMin= -76.4034120994940     IErMin= 4 ErrMin= 3.22D-04
 ErrMax= 3.22D-04  0.00D+00 EMaxC= 1.00D-01 BMatC= 1.00D-06 BMatP= 1.76D-04
 Rises=F IDIUse=3 WtCom= 9.99D-01 WtEn= 5.77D-04
 Coeff-Com:  0.899D-02-0.232D-01 0.240D+00 0.774D+00
 Coeff-En:   0.000D+00 0.000D+00 0.000D+00 0.100D+01
 Coeff:      0.898D-02-0.232D-01 0.240D+00 0.774D+00
 Gap=     0.347 Goal=   None    Shift=    0.000
 RMSDP=4.12D-05 MaxDP=2.13D-04 DE=-2.45D-04 OVMax= 3.07D-04

 Cycle   5  Pass 0  IDiag  1:
 E= -76.4034135447513     Delta-E=       -0.000001445257 Rises=F Damp=F AM=F Ri=F Fa=F
 DIIS: error= 7.34D-05 at cycle   5 NSaved=   5.
 NSaved= 5 IEnMin= 5 EnMin= -76.4034135447513     IErMin= 5 ErrMin= 7.34D-05
 ErrMax= 7.34D-05  0.00D+00 EMaxC= 1.00D-01 BMatC= 4.23D-08 BMatP= 1.00D-06
 Rises=F IDIUse=1 WtCom= 1.00D+00 WtEn= 0.00D+00
 Coeff-Com:  0.860D-03-0.796D-03 0.255D-02 0.115D-01 0.986D+00
 Coeff:      0.860D-03-0.796D-03 0.255D-02 0.115D-01 0.986D+00
 Gap=     0.347 Goal=   None    Shift=    0.000
 RMSDP=1.24D-05 MaxDP=1.18D-04 DE=-1.45D-06 OVMax= 7.75D-05

 Cycle   6  Pass 0  IDiag  1:
 E= -76.4034136084010     Delta-E=       -0.000000063650 Rises=F Damp=F AM=F Ri=F Fa=F
 DIIS: error= 1.65D-06 at cycle   6 NSaved=   6.
 NSaved= 6 IEnMin= 6 EnMin= -76.4034136084010     IErMin= 6 ErrMin= 1.65D-06
 ErrMax= 1.65D-06  0.00D+00 EMaxC= 1.00D-01 BMatC= 1.33D-11 BMatP= 4.23D-08
 Rises=F IDIUse=1 WtCom= 1.00D+00 WtEn= 0.00D+00
 Coeff-Com: -0.326D-04 0.278D-04-0.397D-03-0.113D-02-0.334D-01 0.103D+01
 Coeff:     -0.326D-04 0.278D-04-0.397D-03-0.113D-02-0.334D-01 0.103D+01
 Gap=     0.347 Goal=   None    Shift=    0.000
 RMSDP=2.15D-07 MaxDP=2.19D-06 DE=-6.36D-08 OVMax= 1.77D-06

 Initial convergence to 1.0D-05 achieved.  Increase integral accuracy.
 Cycle   7  Pass 1  IDiag  1:
 E= -76.4034143405616     Delta-E=       -0.000000732161 Rises=F Damp=F AM=F Ri=F Fa=F
 DIIS: error= 5.20D-07 at cycle   1 NSaved=   1.
 NSaved= 1 IEnMin= 1 EnMin= -76.4034143405616     IErMin= 1 ErrMin= 5.20D-07
 ErrMax= 5.20D-07  0.00D+00 EMaxC= 1.00D-01 BMatC= 1.24D-12 BMatP= 1.24D-12
 Rises=F IDIUse=1 WtCom= 1.00D+00 WtEn= 0.00D+00
 Coeff-Com:  0.100D+01
 Coeff:      0.100D+01
 Gap=     0.347 Goal=   None    Shift=    0.000
 RMSDP=2.15D-07 MaxDP=2.19D-06 DE=-7.32D-07 OVMax= 8.80D-07

 Cycle   8  Pass 1  IDiag  1:
 E= -76.4034143405617     Delta-E=        0.000000000000 Rises=F Damp=F AM=F Ri=F Fa=F
 DIIS: error= 3.50D-07 at cycle   2 NSaved=   2.
 NSaved= 2 IEnMin= 2 EnMin= -76.4034143405617     IErMin= 2 ErrMin= 3.50D-07
 ErrMax= 3.50D-07  0.00D+00 EMaxC= 1.00D-01 BMatC= 1.17D-12 BMatP= 1.24D-12
 Rises=F IDIUse=1 WtCom= 1.00D+00 WtEn= 0.00D+00
 Coeff-Com:  0.491D+00 0.509D+00
 Coeff:      0.491D+00 0.509D+00
 Gap=     0.347 Goal=   None    Shift=    0.000
 RMSDP=6.79D-08 MaxDP=5.26D-07 DE=-7.11D-14 OVMax= 4.83D-07

 Cycle   9  Pass 1  IDiag  1:
 E= -76.4034143405633     Delta-E=       -0.000000000002 Rises=F Damp=F AM=F Ri=F Fa=F
 DIIS: error= 1.12D-07 at cycle   3 NSaved=   3.
 NSaved= 3 IEnMin= 3 EnMin= -76.4034143405633     IErMin= 3 ErrMin= 1.12D-07
 ErrMax= 1.12D-07  0.00D+00 EMaxC= 1.00D-01 BMatC= 8.30D-14 BMatP= 1.17D-12
 Rises=F IDIUse=1 WtCom= 1.00D+00 WtEn= 0.00D+00
 Coeff-Com: -0.219D-01 0.201D+00 0.820D+00
 Coeff:     -0.219D-01 0.201D+00 0.820D+00
 Gap=     0.347 Goal=   None    Shift=    0.000
 RMSDP=1.43D-08 MaxDP=1.12D-07 DE=-1.62D-12 OVMax= 1.20D-07

 Cycle  10  Pass 1  IDiag  1:
 E= -76.4034143405634     Delta-E=        0.000000000000 Rises=F Damp=F AM=F Ri=F Fa=F
 DIIS: error= 2.56D-09 at cycle   4 NSaved=   4.
 NSaved= 4 IEnMin= 4 EnMin= -76.4034143405634     IErMin= 4 ErrMin= 2.56D-09
 ErrMax= 2.56D-09  0.00D+00 EMaxC= 1.00D-01 BMatC= 5.54D-17 BMatP= 8.30D-14
 Rises=F IDIUse=1 WtCom= 1.00D+00 WtEn= 0.00D+00
 Coeff-Com: -0.109D-02-0.126D-01-0.200D-01 0.103D+01
 Coeff:     -0.109D-02-0.126D-01-0.200D-01 0.103D+01
 Gap=     0.347 Goal=   None    Shift=    0.000
 RMSDP=7.27D-10 MaxDP=6.69D-09 DE=-8.53D-14 OVMax= 7.05D-09

 SCF Done:  E(RB3LYP) =  -76.4034143406     A.U. after   10 cycles
            NFock= 10  Conv=0.73D-09     -V/T= 2.0082
 KE=          75.779080 PE=        -198.377353 EE=          37.264080
 Leave Link  502 at Tue Mar 10 00:06:52 2026, MaxMem=  4294967296 cpu:               0.2 elap:               0.1
 (Enter /Users/vincenzobarone/gdv_j32p/gdv/l508.exe)
 QCSCF skips out because SCF is already converged.
 Leave Link  508 at Tue Mar 10 00:06:52 2026, MaxMem=  4294967296 cpu:               0.0 elap:               0.0
 (Enter /Users/vincenzobarone/gdv_j32p/gdv/l601.exe)
 Copying SCF densities to generalized density rwf, IOpCl= 0 IROHF=0.
 
 **********************************************************************
 
               Population analysis using the SCF Density.
 
 **********************************************************************
 
 Orbital symmetries:
       Occupied  (A1) (A1) (B2) (A1) (B1)
       Virtual   (A1) (B2) (B2) (A1) (B1) (A1) (B2) (A1) (A1) (A2)
                 (B1) (A1) (B2) (A1)
 The electronic state is 1-A1.
 Alpha  occ. eigenvalues --      -19.14854      -1.00155      -0.48466      -0.39948      -0.29433
 Alpha virt. eigenvalues --        0.05250       0.13666       0.72559       0.85879       0.88759
 Alpha virt. eigenvalues --        0.90128       1.04996       1.24279       1.70473       1.76098
 Alpha virt. eigenvalues --        1.76684       2.29199       2.48480       3.51456
          Condensed to atoms (all electrons):
               1          2          3
     1  H    0.429874   0.230280  -0.032719
     2  O    0.230280   8.284571   0.230280
     3  H   -0.032719   0.230280   0.429874
 Mulliken charges:
               1
     1  H    0.372565
     2  O   -0.745131
     3  H    0.372565
 Sum of Mulliken charges=   0.00000
 Mulliken charges with hydrogens summed into heavy atoms:
               1
     2  O    0.000000
 Electronic spatial extent (au):  <R**2>=             19.5190
 Charge=              0.0000 electrons
 Dipole moment (field-independent basis, Debye):
    X=              0.0000    Y=              0.0000    Z=             -2.2937  Tot=              2.2937
 Quadrupole moment (field-independent basis, Debye-Ang):
   XX=             -7.2502   YY=             -4.8970   ZZ=             -5.6337
   XY=              0.0000   XZ=              0.0000   YZ=              0.0000
 Traceless Quadrupole moment (field-independent basis, Debye-Ang):
   XX=             -1.3232   YY=              1.0299   ZZ=              0.2932
   XY=              0.0000   XZ=              0.0000   YZ=              0.0000
 Octapole moment (field-independent basis, Debye-Ang**2):
  XXX=              0.0000  YYY=              0.0000  ZZZ=             -1.4264  XYY=              0.0000
  XXY=              0.0000  XXZ=             -0.3343  XZZ=              0.0000  YZZ=              0.0000
  YYZ=             -1.1240  XYZ=              0.0000
 Hexadecapole moment (field-independent basis, Debye-Ang**3):
 XXXX=             -5.2692 YYYY=             -6.5866 ZZZZ=             -6.7111 XXXY=              0.0000
 XXXZ=              0.0000 YYYX=              0.0000 YYYZ=              0.0000 ZZZX=              0.0000
 ZZZY=              0.0000 XXYY=             -2.1302 XXZZ=             -2.0866 YYZZ=             -1.7948
 XXYZ=              0.0000 YYXZ=              0.0000 ZZXY=              0.0000
 N-N=           8.930779 E-N=        -198.377353  KE=          75.779080
 Symmetry A1   KE=          67.574720
 Symmetry A2   KE=           0.000000
 Symmetry B1   KE=           4.618848
 Symmetry B2   KE=           3.585512
 No NMR shielding tensors so no spin-rotation constants.
 Leave Link  601 at Tue Mar 10 00:06:52 2026, MaxMem=  4294967296 cpu:               0.1 elap:               0.0
 (Enter /Users/vincenzobarone/gdv_j32p/gdv/l701.exe)
 ... and contract with generalized density number  0.
 Compute integral first derivatives.
 Leave Link  701 at Tue Mar 10 00:06:52 2026, MaxMem=  4294967296 cpu:               0.1 elap:               0.0
 (Enter /Users/vincenzobarone/gdv_j32p/gdv/l702.exe)
 L702 exits ... SP integral derivatives will be done elsewhere.
 Leave Link  702 at Tue Mar 10 00:06:52 2026, MaxMem=  4294967296 cpu:               0.0 elap:               0.0
 (Enter /Users/vincenzobarone/gdv_j32p/gdv/l703.exe)
 Integral derivatives from FoFJK, PRISM(SPDF).
 Compute integral first derivatives, UseDBF=F ICtDFT=           0.
 Calling FoFJK, ICntrl=      2127 FMM=F ISym2X=1 I1Cent= 0 IOpClX= 0 NMat=1 NMatS=1 NMatT=0.
 FoFJK:  IHMeth= 1 ICntrl=    2127 DoSepK=F KAlg= 0 I1Cent=           0 FoldK=F
 IRaf=         0 NMat=       1 IRICut=       1 DoRegI=T DoRafI=F ISym2E= 1 IDoP0=0 IntGTp=1.
 FoFCou: FMM=F IPFlag=           0 FMFlag=      100000 FMFlg1=         800
         NFxFlg=           0 DoJE=F BraDBF=F KetDBF=F FulRan=T
         wScrn=  0.000000 ICntrl=      2127 IOpCl=  0 I1Cent=           0 NGrid=           0
         NMat0=    1 NMatS0=      1 NMatT0=    0 NMatD0=    1 NMtDS0=    0 NMtDT0=    0
 Petite list used in FoFCou.
 Leave Link  703 at Tue Mar 10 00:06:53 2026, MaxMem=  4294967296 cpu:               0.2 elap:               0.1
 (Enter /Users/vincenzobarone/gdv_j32p/gdv/l716.exe)
 Dipole        =-5.87434252D-17 0.00000000D+00-9.02421131D-01
 ***** Axes restored to original set *****
 -------------------------------------------------------------------
 Center     Atomic                   Forces (Hartrees/Bohr)
 Number     Number              X              Y              Z
 -------------------------------------------------------------------
      1        1          -0.024225387   -0.008920455    0.000000000
      2        8           0.048450774    0.000000000    0.000000000
      3        1          -0.024225387    0.008920455    0.000000000
 -------------------------------------------------------------------
 Cartesian Forces:  Max     0.048450774 RMS     0.020222005
 Leave Link  716 at Tue Mar 10 00:06:53 2026, MaxMem=  4294967296 cpu:               0.0 elap:               0.0
 (Enter /Users/vincenzobarone/gdv_j32p/gdv/l103.exe)

 GradGradGradGradGradGradGradGradGradGradGradGradGradGradGradGradGradGrad
 Berny optimization.
 FormGI is forming the generalized inverse of G from B-inverse, IUseBI=4.
 NTrRot=    -1 NTRed=     3 NAtoms=     3 NSkip=     0 NRank=     3 IsLin=F EigSml=7.0252D-01
 Internal  Forces:  Max     0.043845594 RMS     0.026812168
 Search for a local minimum.
 Step number     1 out of a maximum of    20
 All quantities printed in internal units (Hartrees-Bohrs-Radians)
 RMS Force = .26812D-01 SwitMx=.10000D-02 MixMth= 1
 Mixed Optimization -- RFO/linear search
 Second derivative matrix not updated -- first step.
 The second derivative matrix:
                          R1        R2        A1
           R1           0.49500
           R2           0.00000   0.49500
           A1           0.00000   0.00000   0.16000
 ITU=  0
     Eigenvalues ---    0.16000   0.49500   0.49500
 RFO step:  Lambda=-1.16613277D-02 EMin= 1.60000000D-01
 Linear search not attempted -- first point.
 GrdOpt: GIC=T ITstSp= 0 NP=   1 DidLin=F DidDIS=F IRisen=  0
         ISwap=1 XLin= 0.000 DXMaxT= 0.300 DidEig=F Rises=F
 Iteration  1 RMS(Cart)=  0.06809535 RMS(Int)=  0.03228553
 Iteration  2 RMS(Cart)=  0.01686941 RMS(Int)=  0.00058149
 Iteration  3 RMS(Cart)=  0.00032637 RMS(Int)=  0.00000005
 Iteration  4 RMS(Cart)=  0.00000003 RMS(Int)=  0.00000000
 ClnCor:  largest displacement from symmetrization is 2.22D-16 for atom     3.
 Variable       Old X    -DE/DX   Delta X   Delta X   Delta X     New X
                                 (Linear)    (Quad)   (Total)
    R1        1.87073  -0.01082   0.00000  -0.02136  -0.02136   1.84937
    R2        1.87073  -0.01082   0.00000  -0.02136  -0.02136   1.84937
    A1        1.57080   0.04385   0.00000   0.25542   0.25542   1.82622
         Item               Value     Threshold  Converged?
 Maximum Force            0.043846     0.000015     NO 
 RMS     Force            0.026812     0.000010     NO 
 Maximum Displacement     0.140799     0.000060     NO 
 RMS     Displacement     0.146405     0.000040     NO 
 Predicted change in Energy=-6.216371D-03
 Lowest energy point so far.  Saving SCF results.
 GradGradGradGradGradGradGradGradGradGradGradGradGradGradGradGradGradGrad

 Leave Link  103 at Tue Mar 10 00:06:53 2026, MaxMem=  4294967296 cpu:               0.0 elap:               0.0
 (Enter /Users/vincenzobarone/gdv_j32p/gdv/l202.exe)
                          Input orientation:                          
 ---------------------------------------------------------------------
 Center     Atomic      Atomic             Coordinates (Angstroms)
 Number     Number       Type             X           Y           Z
 ---------------------------------------------------------------------
      1          1           0        0.666079   -0.774508    0.000000
      2          8           0        0.067843    0.000000    0.000000
      3          1           0        0.666079    0.774508    0.000000
 ---------------------------------------------------------------------
                    Distance matrix (angstroms):
                    1          2          3
     1  H    0.000000
     2  O    0.978646   0.000000
     3  H    1.549016   0.978646   0.000000
 Stoichiometry    H2O
 Framework group  C2V[C2(O),SGV(H2)]
 Deg. of freedom     2
 Full point group                 C2V     NOp   4
 RotChk:  IX=0 Diff= 5.30D-33
 Largest Abelian subgroup         C2V     NOp   4
 Largest concise Abelian subgroup C2      NOp   2
                         Standard orientation:                         
 ---------------------------------------------------------------------
 Center     Atomic      Atomic             Coordinates (Angstroms)
 Number     Number       Type             X           Y           Z
 ---------------------------------------------------------------------
      1          1           0        0.000000    0.774508   -0.478589
      2          8           0        0.000000    0.000000    0.119647
      3          1           0        0.000000   -0.774508   -0.478589
 ---------------------------------------------------------------------
 Rotational constants (GHZ):         788.8646099         417.9751217         273.2142245
 Leave Link  202 at Tue Mar 10 00:06:53 2026, MaxMem=  4294967296 cpu:               0.0 elap:               0.0
 (Enter /Users/vincenzobarone/gdv_j32p/gdv/l301.exe)
 Standard basis: 6-31G(d) (6D, 7F)
 Ernie: Thresh=  0.10000D-02 Tol=  0.10000D-05 Strict=F.
 There are    10 symmetry adapted cartesian basis functions of A1  symmetry.
 There are     1 symmetry adapted cartesian basis functions of A2  symmetry.
 There are     3 symmetry adapted cartesian basis functions of B1  symmetry.
 There are     5 symmetry adapted cartesian basis functions of B2  symmetry.
 There are    10 symmetry adapted basis functions of A1  symmetry.
 There are     1 symmetry adapted basis functions of A2  symmetry.
 There are     3 symmetry adapted basis functions of B1  symmetry.
 There are     5 symmetry adapted basis functions of B2  symmetry.
    19 basis functions,    36 primitive gaussians,    19 cartesian basis functions
     5 alpha electrons        5 beta electrons
       nuclear repulsion energy         8.9932000369 Hartrees.
 IExCor=      4002 DFT=T Ex+Corr=B3LYP ScaHFX=  0.200000
 ScaDFX=  0.800000  0.720000  1.000000  0.810000  1.000000  0.000000
 ScaDFX=  0.000000  0.000000  0.000000  0.000000  0.000000  0.000000
 Grid=UltraFine IRanWt=     -1 IRanGd=            0 ICorTp=0 IEDCtl=  2004
 NAtoms=    3 NActive=    3 NUniq=    2 SFac= 2.25D+00 NAtFMM=   60 NAOKFM=F Big=F
 Integral buffers will be    131072 words long.
 Raffenetti 2 integral format.
 Two-electron integral symmetry is turned on.
 Leave Link  301 at Tue Mar 10 00:06:53 2026, MaxMem=  4294967296 cpu:               0.0 elap:               0.0
 (Enter /Users/vincenzobarone/gdv_j32p/gdv/l302.exe)
 NPDir=0 NMtPBC=     1 NCelOv=     1 NCel=       1 NClECP=     1 NCelD=      1
         NCelK=      1 NCelE2=     1 NClLst=     1 CellRange=     0.0.
 One-electron integrals computed using PRISM.
 One-electron integral symmetry used in STVInt
 NBasis=    19 RedAO= T EigKep=  2.31D-02  NBF=    10     1     3     5
 NBsUse=    19 1.00D-06 EigRej= -1.00D+00 NBFU=    10     1     3     5
 Precomputing XC quadrature grid using
 IXCGrd=   9 Grid=UltraFine IRanWt=          -1 IRanGd=           0 AccXCQ= 0.00D+00.
 Generated NRdTot=       0 NPtTot=       68275 NUsed=           0 NTot=          64
 NSgBfM=    19    19    19    19    19 MxSgAt=     3 MxSgA2=     3 SizInc=   0.000
 NMBTot=      619 MaxBatPerAtom=       81 MaxMicBPerAtom=      212 NBfPt=             1114219.
 Leave Link  302 at Tue Mar 10 00:06:53 2026, MaxMem=  4294967296 cpu:               0.1 elap:               0.0
 (Enter /Users/vincenzobarone/gdv_j32p/gdv/l303.exe)
 DipDrv:  MaxL=1.
 Leave Link  303 at Tue Mar 10 00:06:53 2026, MaxMem=  4294967296 cpu:               0.0 elap:               0.0
 (Enter /Users/vincenzobarone/gdv_j32p/gdv/l401.exe)
 Initial guess from the checkpoint file:  "h2o.chk"
 B after Tr=     0.000000    0.000000    0.000000
         Rot=    1.000000    0.000000    0.000000    0.000000 Ang=   0.00 deg.
 AO Guess basis will be translated and rotated to current coordinates.
 JPrj=2 DoOrth=T DoCkMO=T.
 Initial guess orbital symmetries:
       Occupied  (A1) (A1) (B2) (A1) (B1)
       Virtual   (A1) (B2) (B2) (A1) (B1) (A1) (B2) (A1) (A1) (A2)
                 (B1) (A1) (B2) (A1)
 The electronic state of the initial guess is 1-A1.
 Generating alternative initial guess.
 ExpMin= 1.61D-01 ExpMax= 5.48D+03 ExpMxC= 8.25D+02 IAcc=3 Grid=UltraFine AccDes= 0.00D+00
 Harris functional with IExCor= 4002 and Grid=UltraFine diagonalized for initial guess.
 HarFok:  IExCor=    4002 AccDes= 0.00D+00 Grid=UltraFine IDoV= 1 UseB2=F ITyADJ=14 ICtDFT=  3500011
 FoFCou: FMM=F IPFlag=           0 FMFlag=      100000 FMFlg1=           0
         NFxFlg=           0 DoJE=T BraDBF=F KetDBF=T FulRan=T
         wScrn=  0.000000 ICntrl=       500 IOpCl=  0 I1Cent=   200000004 NGrid=           0
         NMat0=    1 NMatS0=      1 NMatT0=    0 NMatD0=    1 NMtDS0=    0 NMtDT0=    0
 Petite list used in FoFCou.
 Harris En= -76.4463982124083    
 Leave Link  401 at Tue Mar 10 00:06:53 2026, MaxMem=  4294967296 cpu:               0.2 elap:               0.0
 (Enter /Users/vincenzobarone/gdv_j32p/gdv/l502.exe)
 Keep R1 ints in memory in symmetry-blocked form, NReq=6933615.
 FoFCou: FMM=F IPFlag=           0 FMFlag=           0 FMFlg1=           0
         NFxFlg=           0 DoJE=F BraDBF=F KetDBF=F FulRan=T
         wScrn=  0.000000 ICntrl=       600 IOpCl=  0 I1Cent=           0 NGrid=           0
         NMat0=    1 NMatS0=    190 NMatT0=    0 NMatD0=    1 NMtDS0=    0 NMtDT0=    0
 Petite list used in FoFCou.
 Closed shell SCF:
 Using DIIS extrapolation, IDIIS=  1040.
 NGot=  4294967296 LenX=  4294959046 LenY=  4294958164
 Requested convergence on RMS density matrix=1.00D-08 within  48 cycles.
 Requested convergence on MAX density matrix=1.00D-06.
 Requested convergence on             energy=1.00D-06.
 No special actions if energy rises.
 Integral accuracy reduced to 1.0D-05 until final iterations.

 Cycle   1  Pass 0  IDiag  1:
 E= -76.4061382245890    
 DIIS: error= 9.93D-03 at cycle   1 NSaved=   1.
 NSaved= 1 IEnMin= 1 EnMin= -76.4061382245890     IErMin= 1 ErrMin= 9.93D-03
 ErrMax= 9.93D-03  0.00D+00 EMaxC= 1.00D-01 BMatC= 9.44D-04 BMatP= 9.44D-04
 Rises=F IDIUse=3 WtCom= 9.01D-01 WtEn= 9.89D-02
 Coeff-Com:  0.100D+01
 Coeff-En:   0.100D+01
 Coeff:      0.100D+01
 Gap=     0.357 Goal=   None    Shift=    0.000
 GapD=    0.357 DampG=1.000 DampE=1.000 DampFc=1.0000 IDamp=-1.
 RMSDP=4.01D-03 MaxDP=3.00D-02              OVMax= 2.83D-02

 Cycle   2  Pass 0  IDiag  1:
 E= -76.4085459343531     Delta-E=       -0.002407709764 Rises=F Damp=F AM=F Ri=F Fa=F
 DIIS: error= 3.76D-03 at cycle   2 NSaved=   2.
 NSaved= 2 IEnMin= 2 EnMin= -76.4085459343531     IErMin= 2 ErrMin= 3.76D-03
 ErrMax= 3.76D-03  0.00D+00 EMaxC= 1.00D-01 BMatC= 1.28D-04 BMatP= 9.44D-04
 Rises=F IDIUse=3 WtCom= 9.77D-01 WtEn= 2.31D-02
 Coeff-Com:  0.135D+00 0.865D+00
 Coeff-En:   0.000D+00 0.100D+01
 Coeff:      0.132D+00 0.868D+00
 Gap=     0.345 Goal=   None    Shift=    0.000
 RMSDP=1.11D-03 MaxDP=7.78D-03 DE=-2.41D-03 OVMax= 8.63D-03

 Cycle   3  Pass 0  IDiag  1:
 E= -76.4085216908836     Delta-E=        0.000024243469 Rises=F Damp=F AM=F Ri=F Fa=F
 DIIS: error= 4.22D-03 at cycle   3 NSaved=   3.
 NSaved= 3 IEnMin= 2 EnMin= -76.4085459343531     IErMin= 2 ErrMin= 3.76D-03
 ErrMax= 4.22D-03  0.00D+00 EMaxC= 1.00D-01 BMatC= 1.51D-04 BMatP= 1.28D-04
 Rises=T IDIUse=3 WtCom= 1.33D-01 WtEn= 8.67D-01
 Coeff-Com: -0.194D-01 0.527D+00 0.492D+00
 Coeff-En:   0.000D+00 0.527D+00 0.473D+00
 Coeff:     -0.259D-02 0.527D+00 0.476D+00
 Gap=     0.350 Goal=   None    Shift=    0.000
 RMSDP=6.05D-04 MaxDP=4.25D-03 DE= 2.42D-05 OVMax= 4.26D-03

 Cycle   4  Pass 0  IDiag  1:
 E= -76.4087340762159     Delta-E=       -0.000212385332 Rises=F Damp=F AM=F Ri=F Fa=F
 DIIS: error= 1.41D-04 at cycle   4 NSaved=   4.
 NSaved= 4 IEnMin= 4 EnMin= -76.4087340762159     IErMin= 4 ErrMin= 1.41D-04
 ErrMax= 1.41D-04  0.00D+00 EMaxC= 1.00D-01 BMatC= 1.60D-07 BMatP= 1.28D-04
 Rises=F IDIUse=3 WtCom= 1.00D+00 WtEn= 1.67D-04
 Coeff-Com: -0.831D-02 0.976D-01 0.961D-01 0.815D+00
 Coeff-En:   0.000D+00 0.000D+00 0.000D+00 0.100D+01
 Coeff:     -0.830D-02 0.975D-01 0.961D-01 0.815D+00
 Gap=     0.350 Goal=   None    Shift=    0.000
 RMSDP=2.42D-05 MaxDP=1.84D-04 DE=-2.12D-04 OVMax= 1.42D-04

 Cycle   5  Pass 0  IDiag  1:
 E= -76.4087343370217     Delta-E=       -0.000000260806 Rises=F Damp=F AM=F Ri=F Fa=F
 DIIS: error= 9.82D-06 at cycle   5 NSaved=   5.
 NSaved= 5 IEnMin= 5 EnMin= -76.4087343370217     IErMin= 5 ErrMin= 9.82D-06
 ErrMax= 9.82D-06  0.00D+00 EMaxC= 1.00D-01 BMatC= 8.92D-10 BMatP= 1.60D-07
 Rises=F IDIUse=1 WtCom= 1.00D+00 WtEn= 0.00D+00
 Coeff-Com:  0.308D-03-0.702D-02-0.714D-02 0.188D-01 0.995D+00
 Coeff:      0.308D-03-0.702D-02-0.714D-02 0.188D-01 0.995D+00
 Gap=     0.350 Goal=   None    Shift=    0.000
 RMSDP=3.66D-06 MaxDP=2.26D-05 DE=-2.61D-07 OVMax= 3.77D-05

 Initial convergence to 1.0D-05 achieved.  Increase integral accuracy.
 Cycle   6  Pass 1  IDiag  1:
 E= -76.4087345580914     Delta-E=       -0.000000221070 Rises=F Damp=F AM=F Ri=F Fa=F
 DIIS: error= 2.22D-06 at cycle   1 NSaved=   1.
 NSaved= 1 IEnMin= 1 EnMin= -76.4087345580914     IErMin= 1 ErrMin= 2.22D-06
 ErrMax= 2.22D-06  0.00D+00 EMaxC= 1.00D-01 BMatC= 3.37D-11 BMatP= 3.37D-11
 Rises=F IDIUse=1 WtCom= 1.00D+00 WtEn= 0.00D+00
 Coeff-Com:  0.100D+01
 Coeff:      0.100D+01
 Gap=     0.350 Goal=   None    Shift=    0.000
 RMSDP=3.66D-06 MaxDP=2.26D-05 DE=-2.21D-07 OVMax= 5.87D-06

 Cycle   7  Pass 1  IDiag  1:
 E= -76.4087345580652     Delta-E=        0.000000000026 Rises=F Damp=F AM=F Ri=F Fa=F
 DIIS: error= 2.64D-06 at cycle   2 NSaved=   2.
 NSaved= 2 IEnMin= 1 EnMin= -76.4087345580914     IErMin= 1 ErrMin= 2.22D-06
 ErrMax= 2.64D-06  0.00D+00 EMaxC= 1.00D-01 BMatC= 5.95D-11 BMatP= 3.37D-11
 Rises=F IDIUse=1 WtCom= 1.00D+00 WtEn= 0.00D+00
 Coeff-Com:  0.573D+00 0.427D+00
 Coeff:      0.573D+00 0.427D+00
 Gap=     0.350 Goal=   None    Shift=    0.000
 RMSDP=3.94D-07 MaxDP=2.77D-06 DE= 2.61D-11 OVMax= 2.79D-06

 Cycle   8  Pass 1  IDiag  1:
 E= -76.4087345581492     Delta-E=       -0.000000000084 Rises=F Damp=F AM=F Ri=F Fa=F
 DIIS: error= 1.54D-07 at cycle   3 NSaved=   3.
 NSaved= 3 IEnMin= 3 EnMin= -76.4087345581492     IErMin= 3 ErrMin= 1.54D-07
 ErrMax= 1.54D-07  0.00D+00 EMaxC= 1.00D-01 BMatC= 1.45D-13 BMatP= 3.37D-11
 Rises=F IDIUse=1 WtCom= 1.00D+00 WtEn= 0.00D+00
 Coeff-Com: -0.734D-01-0.335D-02 0.108D+01
 Coeff:     -0.734D-01-0.335D-02 0.108D+01
 Gap=     0.350 Goal=   None    Shift=    0.000
 RMSDP=3.25D-08 MaxDP=1.82D-07 DE=-8.40D-11 OVMax= 2.48D-07

 Cycle   9  Pass 1  IDiag  1:
 E= -76.4087345581496     Delta-E=        0.000000000000 Rises=F Damp=F AM=F Ri=F Fa=F
 DIIS: error= 8.78D-09 at cycle   4 NSaved=   4.
 NSaved= 4 IEnMin= 4 EnMin= -76.4087345581496     IErMin= 4 ErrMin= 8.78D-09
 ErrMax= 8.78D-09  0.00D+00 EMaxC= 1.00D-01 BMatC= 5.38D-16 BMatP= 1.45D-13
 Rises=F IDIUse=1 WtCom= 1.00D+00 WtEn= 0.00D+00
 Coeff-Com: -0.119D-01-0.995D-03 0.123D+00 0.890D+00
 Coeff:     -0.119D-01-0.995D-03 0.123D+00 0.890D+00
 Gap=     0.350 Goal=   None    Shift=    0.000
 RMSDP=1.38D-09 MaxDP=9.32D-09 DE=-3.69D-13 OVMax= 1.59D-08

 SCF Done:  E(RB3LYP) =  -76.4087345581     A.U. after    9 cycles
            NFock=  9  Conv=0.14D-08     -V/T= 2.0082
 KE=          75.783962 PE=        -198.555002 EE=          37.369105
 Leave Link  502 at Tue Mar 10 00:06:53 2026, MaxMem=  4294967296 cpu:               0.2 elap:               0.1
 (Enter /Users/vincenzobarone/gdv_j32p/gdv/l508.exe)
 QCSCF skips out because SCF is already converged.
 Leave Link  508 at Tue Mar 10 00:06:53 2026, MaxMem=  4294967296 cpu:               0.0 elap:               0.0
 (Enter /Users/vincenzobarone/gdv_j32p/gdv/l701.exe)
 ... and contract with generalized density number  0.
 Compute integral first derivatives.
 Leave Link  701 at Tue Mar 10 00:06:53 2026, MaxMem=  4294967296 cpu:               0.1 elap:               0.0
 (Enter /Users/vincenzobarone/gdv_j32p/gdv/l702.exe)
 L702 exits ... SP integral derivatives will be done elsewhere.
 Leave Link  702 at Tue Mar 10 00:06:53 2026, MaxMem=  4294967296 cpu:               0.0 elap:               0.0
 (Enter /Users/vincenzobarone/gdv_j32p/gdv/l703.exe)
 Integral derivatives from FoFJK, PRISM(SPDF).
 Compute integral first derivatives, UseDBF=F ICtDFT=           0.
 Calling FoFJK, ICntrl=      2127 FMM=F ISym2X=1 I1Cent= 0 IOpClX= 0 NMat=1 NMatS=1 NMatT=0.
 FoFJK:  IHMeth= 1 ICntrl=    2127 DoSepK=F KAlg= 0 I1Cent=           0 FoldK=F
 IRaf=         0 NMat=       1 IRICut=       1 DoRegI=T DoRafI=F ISym2E= 1 IDoP0=0 IntGTp=1.
 FoFCou: FMM=F IPFlag=           0 FMFlag=      100000 FMFlg1=         800
         NFxFlg=           0 DoJE=F BraDBF=F KetDBF=F FulRan=T
         wScrn=  0.000000 ICntrl=      2127 IOpCl=  0 I1Cent=           0 NGrid=           0
         NMat0=    1 NMatS0=      1 NMatT0=    0 NMatD0=    1 NMtDS0=    0 NMtDT0=    0
 Petite list used in FoFCou.
 Leave Link  703 at Tue Mar 10 00:06:53 2026, MaxMem=  4294967296 cpu:               0.2 elap:               0.0
 (Enter /Users/vincenzobarone/gdv_j32p/gdv/l716.exe)
 Dipole        =-6.70092316D-17 0.00000000D+00-8.19538781D-01
 ***** Axes restored to original set *****
 -------------------------------------------------------------------
 Center     Atomic                   Forces (Hartrees/Bohr)
 Number     Number              X              Y              Z
 -------------------------------------------------------------------
      1        1          -0.004142617    0.009041363    0.000000000
      2        8           0.008285234    0.000000000    0.000000000
      3        1          -0.004142617   -0.009041363    0.000000000
 -------------------------------------------------------------------
 Cartesian Forces:  Max     0.009041363 RMS     0.005441202
 Leave Link  716 at Tue Mar 10 00:06:53 2026, MaxMem=  4294967296 cpu:               0.0 elap:               0.0
 (Enter /Users/vincenzobarone/gdv_j32p/gdv/l103.exe)

 GradGradGradGradGradGradGradGradGradGradGradGradGradGradGradGradGradGrad
 Berny optimization.
 Using GEDIIS/GDIIS optimizer.
 FormGI is forming the generalized inverse of G from B-inverse, IUseBI=4.
 NTrRot=    -1 NTRed=     3 NAtoms=     3 NSkip=     0 NRank=     3 IsLin=F EigSml=7.6180D-01
 Internal  Forces:  Max     0.009687738 RMS     0.008266286
 Search for a local minimum.
 Step number     2 out of a maximum of    20
 All quantities printed in internal units (Hartrees-Bohrs-Radians)
 RMS Force = .82663D-02 SwitMx=.10000D-02 MixMth= 1
 Mixed Optimization -- RFO/linear search
 Update second derivatives using D2CorX and points    1    2
 DE= -5.32D-03 DEPred=-6.22D-03 R= 8.56D-01
 TightC=F SS=  1.41D+00  RLast= 2.57D-01 DXNew= 5.0454D-01 7.7160D-01
 Trust test= 8.56D-01 RLast= 2.57D-01 DXMaxT set to 5.05D-01
 The second derivative matrix:
                          R1        R2        A1
           R1           0.48484
           R2          -0.01016   0.48484
           A1           0.03525   0.03525   0.19384
 ITU=  1  0
 Use linear search instead of GDIIS.
     Eigenvalues ---    0.18525   0.48327   0.49500
 RFO step:  Lambda=-3.99038118D-04 EMin= 1.85248945D-01
 Quartic linear search produced a step of -0.05752.
 GrdOpt: GIC=T ITstSp= 0 NP=   2 DidLin=T DidDIS=F IRisen=  0
         ISwap=1 XLin=-0.058 DXMaxT= 0.505 DidEig=F Rises=F
 Iteration  1 RMS(Cart)=  0.01132724 RMS(Int)=  0.00010524
 Iteration  2 RMS(Cart)=  0.00004539 RMS(Int)=  0.00000001
 Iteration  3 RMS(Cart)=  0.00000000 RMS(Int)=  0.00000000
 ClnCor:  largest displacement from symmetrization is 4.97D-16 for atom     3.
 Variable       Old X    -DE/DX   Delta X   Delta X   Delta X     New X
                                 (Linear)    (Quad)   (Total)
    R1        1.84937  -0.00969   0.00123  -0.02042  -0.01919   1.83019
    R2        1.84937  -0.00969   0.00123  -0.02042  -0.01919   1.83019
    A1        1.82622  -0.00416  -0.01469  -0.00097  -0.01566   1.81055
         Item               Value     Threshold  Converged?
 Maximum Force            0.009688     0.000015     NO 
 RMS     Force            0.008266     0.000010     NO 
 Maximum Displacement     0.023990     0.000060     NO 
 RMS     Displacement     0.019589     0.000040     NO 
 Predicted change in Energy=-2.171716D-04
 Lowest energy point so far.  Saving SCF results.
 GradGradGradGradGradGradGradGradGradGradGradGradGradGradGradGradGradGrad

 Leave Link  103 at Tue Mar 10 00:06:53 2026, MaxMem=  4294967296 cpu:               0.0 elap:               0.0
 (Enter /Users/vincenzobarone/gdv_j32p/gdv/l202.exe)
                          Input orientation:                          
 ---------------------------------------------------------------------
 Center     Atomic      Atomic             Coordinates (Angstroms)
 Number     Number       Type             X           Y           Z
 ---------------------------------------------------------------------
      1          1           0        0.666004   -0.761813    0.000000
      2          8           0        0.067992    0.000000    0.000000
      3          1           0        0.666004    0.761813    0.000000
 ---------------------------------------------------------------------
                    Distance matrix (angstroms):
                    1          2          3
     1  H    0.000000
     2  O    0.968492   0.000000
     3  H    1.523625   0.968492   0.000000
 Stoichiometry    H2O
 Framework group  C2V[C2(O),SGV(H2)]
 Deg. of freedom     2
 Full point group                 C2V     NOp   4
 RotChk:  IX=0 Diff= 5.30D-33
 Largest Abelian subgroup         C2V     NOp   4
 Largest concise Abelian subgroup C2      NOp   2
                         Standard orientation:                         
 ---------------------------------------------------------------------
 Center     Atomic      Atomic             Coordinates (Angstroms)
 Number     Number       Type             X           Y           Z
 ---------------------------------------------------------------------
      1          1           0        0.000000    0.761813   -0.478410
      2          8           0        0.000000    0.000000    0.119603
      3          1           0        0.000000   -0.761813   -0.478410
 ---------------------------------------------------------------------
 Rotational constants (GHZ):         789.4539497         432.0218844         279.2207373
 Leave Link  202 at Tue Mar 10 00:06:53 2026, MaxMem=  4294967296 cpu:               0.0 elap:               0.0
 (Enter /Users/vincenzobarone/gdv_j32p/gdv/l301.exe)
 Standard basis: 6-31G(d) (6D, 7F)
 Ernie: Thresh=  0.10000D-02 Tol=  0.10000D-05 Strict=F.
 There are    10 symmetry adapted cartesian basis functions of A1  symmetry.
 There are     1 symmetry adapted cartesian basis functions of A2  symmetry.
 There are     3 symmetry adapted cartesian basis functions of B1  symmetry.
 There are     5 symmetry adapted cartesian basis functions of B2  symmetry.
 There are    10 symmetry adapted basis functions of A1  symmetry.
 There are     1 symmetry adapted basis functions of A2  symmetry.
 There are     3 symmetry adapted basis functions of B1  symmetry.
 There are     5 symmetry adapted basis functions of B2  symmetry.
    19 basis functions,    36 primitive gaussians,    19 cartesian basis functions
     5 alpha electrons        5 beta electrons
       nuclear repulsion energy         9.0895983639 Hartrees.
 IExCor=      4002 DFT=T Ex+Corr=B3LYP ScaHFX=  0.200000
 ScaDFX=  0.800000  0.720000  1.000000  0.810000  1.000000  0.000000
 ScaDFX=  0.000000  0.000000  0.000000  0.000000  0.000000  0.000000
 Grid=UltraFine IRanWt=     -1 IRanGd=            0 ICorTp=0 IEDCtl=  2004
 NAtoms=    3 NActive=    3 NUniq=    2 SFac= 2.25D+00 NAtFMM=   60 NAOKFM=F Big=F
 Integral buffers will be    131072 words long.
 Raffenetti 2 integral format.
 Two-electron integral symmetry is turned on.
 Leave Link  301 at Tue Mar 10 00:06:53 2026, MaxMem=  4294967296 cpu:               0.0 elap:               0.0
 (Enter /Users/vincenzobarone/gdv_j32p/gdv/l302.exe)
 NPDir=0 NMtPBC=     1 NCelOv=     1 NCel=       1 NClECP=     1 NCelD=      1
         NCelK=      1 NCelE2=     1 NClLst=     1 CellRange=     0.0.
 One-electron integrals computed using PRISM.
 One-electron integral symmetry used in STVInt
 NBasis=    19 RedAO= T EigKep=  2.27D-02  NBF=    10     1     3     5
 NBsUse=    19 1.00D-06 EigRej= -1.00D+00 NBFU=    10     1     3     5
 Precomputing XC quadrature grid using
 IXCGrd=   9 Grid=UltraFine IRanWt=          -1 IRanGd=           0 AccXCQ= 0.00D+00.
 Generated NRdTot=       0 NPtTot=       68291 NUsed=           0 NTot=          64
 NSgBfM=    19    19    19    19    19 MxSgAt=     3 MxSgA2=     3 SizInc=   0.000
 NMBTot=      629 MaxBatPerAtom=       81 MaxMicBPerAtom=      213 NBfPt=             1111778.
 Leave Link  302 at Tue Mar 10 00:06:53 2026, MaxMem=  4294967296 cpu:               0.1 elap:               0.0
 (Enter /Users/vincenzobarone/gdv_j32p/gdv/l303.exe)
 DipDrv:  MaxL=1.
 Leave Link  303 at Tue Mar 10 00:06:53 2026, MaxMem=  4294967296 cpu:               0.0 elap:               0.0
 (Enter /Users/vincenzobarone/gdv_j32p/gdv/l401.exe)
 Initial guess from the checkpoint file:  "h2o.chk"
 B after Tr=     0.000000    0.000000    0.000000
         Rot=    1.000000    0.000000    0.000000    0.000000 Ang=   0.00 deg.
 AO Guess basis will be translated and rotated to current coordinates.
 JPrj=2 DoOrth=T DoCkMO=T.
 Initial guess orbital symmetries:
       Occupied  (A1) (A1) (B2) (A1) (B1)
       Virtual   (A1) (B2) (B2) (A1) (B1) (A1) (B2) (A1) (A1) (A2)
                 (B1) (A1) (B2) (A1)
 The electronic state of the initial guess is 1-A1.
 Generating alternative initial guess.
 ExpMin= 1.61D-01 ExpMax= 5.48D+03 ExpMxC= 8.25D+02 IAcc=3 Grid=UltraFine AccDes= 0.00D+00
 Harris functional with IExCor= 4002 and Grid=UltraFine diagonalized for initial guess.
 HarFok:  IExCor=    4002 AccDes= 0.00D+00 Grid=UltraFine IDoV= 1 UseB2=F ITyADJ=14 ICtDFT=  3500011
 FoFCou: FMM=F IPFlag=           0 FMFlag=      100000 FMFlg1=           0
         NFxFlg=           0 DoJE=T BraDBF=F KetDBF=T FulRan=T
         wScrn=  0.000000 ICntrl=       500 IOpCl=  0 I1Cent=   200000004 NGrid=           0
         NMat0=    1 NMatS0=      1 NMatT0=    0 NMatD0=    1 NMtDS0=    0 NMtDT0=    0
 Petite list used in FoFCou.
 Harris En= -76.4471773448928    
 Leave Link  401 at Tue Mar 10 00:06:53 2026, MaxMem=  4294967296 cpu:               0.2 elap:               0.0
 (Enter /Users/vincenzobarone/gdv_j32p/gdv/l502.exe)
 Keep R1 ints in memory in symmetry-blocked form, NReq=6933615.
 FoFCou: FMM=F IPFlag=           0 FMFlag=           0 FMFlg1=           0
         NFxFlg=           0 DoJE=F BraDBF=F KetDBF=F FulRan=T
         wScrn=  0.000000 ICntrl=       600 IOpCl=  0 I1Cent=           0 NGrid=           0
         NMat0=    1 NMatS0=    190 NMatT0=    0 NMatD0=    1 NMtDS0=    0 NMtDT0=    0
 Petite list used in FoFCou.
 Closed shell SCF:
 Using DIIS extrapolation, IDIIS=  1040.
 NGot=  4294967296 LenX=  4294959046 LenY=  4294958164
 Requested convergence on RMS density matrix=1.00D-08 within  48 cycles.
 Requested convergence on MAX density matrix=1.00D-06.
 Requested convergence on             energy=1.00D-06.
 No special actions if energy rises.
 Integral accuracy reduced to 1.0D-05 until final iterations.

 Cycle   1  Pass 0  IDiag  1:
 E= -76.4088928098485    
 DIIS: error= 1.74D-03 at cycle   1 NSaved=   1.
 NSaved= 1 IEnMin= 1 EnMin= -76.4088928098485     IErMin= 1 ErrMin= 1.74D-03
 ErrMax= 1.74D-03  0.00D+00 EMaxC= 1.00D-01 BMatC= 3.04D-05 BMatP= 3.04D-05
 Rises=F IDIUse=3 WtCom= 9.93D-01 WtEn= 7.24D-03
 Coeff-Com:  0.100D+01
 Coeff-En:   0.100D+01
 Coeff:      0.100D+01
 Gap=     0.356 Goal=   None    Shift=    0.000
 GapD=    0.356 DampG=1.000 DampE=1.000 DampFc=1.0000 IDamp=-1.
 RMSDP=5.08D-04 MaxDP=3.02D-03              OVMax= 4.26D-03

 Cycle   2  Pass 0  IDiag  1:
 E= -76.4089235972780     Delta-E=       -0.000030787429 Rises=F Damp=F AM=F Ri=F Fa=F
 DIIS: error= 1.66D-03 at cycle   2 NSaved=   2.
 NSaved= 2 IEnMin= 2 EnMin= -76.4089235972780     IErMin= 2 ErrMin= 1.66D-03
 ErrMax= 1.66D-03  0.00D+00 EMaxC= 1.00D-01 BMatC= 2.13D-05 BMatP= 3.04D-05
 Rises=F IDIUse=3 WtCom= 9.93D-01 WtEn= 6.78D-03
 Coeff-Com:  0.444D+00 0.556D+00
 Coeff-En:   0.202D+00 0.798D+00
 Coeff:      0.442D+00 0.558D+00
 Gap=     0.353 Goal=   None    Shift=    0.000
 RMSDP=2.83D-04 MaxDP=1.94D-03 DE=-3.08D-05 OVMax= 1.96D-03

 Cycle   3  Pass 0  IDiag  1:
 E= -76.4089494757539     Delta-E=       -0.000025878476 Rises=F Damp=F AM=F Ri=F Fa=F
 DIIS: error= 5.06D-04 at cycle   3 NSaved=   3.
 NSaved= 3 IEnMin= 3 EnMin= -76.4089494757539     IErMin= 3 ErrMin= 5.06D-04
 ErrMax= 5.06D-04  0.00D+00 EMaxC= 1.00D-01 BMatC= 2.52D-06 BMatP= 2.13D-05
 Rises=F IDIUse=3 WtCom= 9.99D-01 WtEn= 1.14D-03
 Coeff-Com:  0.419D-01 0.260D+00 0.699D+00
 Coeff-En:   0.000D+00 0.710D-01 0.929D+00
 Coeff:      0.419D-01 0.259D+00 0.699D+00
 Gap=     0.354 Goal=   None    Shift=    0.000
 RMSDP=8.57D-05 MaxDP=6.71D-04 DE=-2.59D-05 OVMax= 6.37D-04

 Cycle   4  Pass 0  IDiag  1:
 E= -76.4089530342270     Delta-E=       -0.000003558473 Rises=F Damp=F AM=F Ri=F Fa=F
 DIIS: error= 5.16D-05 at cycle   4 NSaved=   4.
 NSaved= 4 IEnMin= 4 EnMin= -76.4089530342270     IErMin= 4 ErrMin= 5.16D-05
 ErrMax= 5.16D-05  0.00D+00 EMaxC= 1.00D-01 BMatC= 2.41D-08 BMatP= 2.52D-06
 Rises=F IDIUse=1 WtCom= 1.00D+00 WtEn= 0.00D+00
 Coeff-Com: -0.715D-02 0.297D-01 0.154D+00 0.824D+00
 Coeff:     -0.715D-02 0.297D-01 0.154D+00 0.824D+00
 Gap=     0.354 Goal=   None    Shift=    0.000
 RMSDP=7.63D-06 MaxDP=6.23D-05 DE=-3.56D-06 OVMax= 6.17D-05

 Initial convergence to 1.0D-05 achieved.  Increase integral accuracy.
 Cycle   5  Pass 1  IDiag  1:
 E= -76.4089537165663     Delta-E=       -0.000000682339 Rises=F Damp=F AM=F Ri=F Fa=F
 DIIS: error= 1.05D-06 at cycle   1 NSaved=   1.
 NSaved= 1 IEnMin= 1 EnMin= -76.4089537165663     IErMin= 1 ErrMin= 1.05D-06
 ErrMax= 1.05D-06  0.00D+00 EMaxC= 1.00D-01 BMatC= 1.05D-11 BMatP= 1.05D-11
 Rises=F IDIUse=1 WtCom= 1.00D+00 WtEn= 0.00D+00
 Coeff-Com:  0.100D+01
 Coeff:      0.100D+01
 Gap=     0.354 Goal=   None    Shift=    0.000
 RMSDP=7.63D-06 MaxDP=6.23D-05 DE=-6.82D-07 OVMax= 5.46D-06

 Cycle   6  Pass 1  IDiag  1:
 E= -76.4089537165980     Delta-E=       -0.000000000032 Rises=F Damp=F AM=F Ri=F Fa=F
 DIIS: error= 8.99D-07 at cycle   2 NSaved=   2.
 NSaved= 2 IEnMin= 2 EnMin= -76.4089537165980     IErMin= 2 ErrMin= 8.99D-07
 ErrMax= 8.99D-07  0.00D+00 EMaxC= 1.00D-01 BMatC= 6.23D-12 BMatP= 1.05D-11
 Rises=F IDIUse=1 WtCom= 1.00D+00 WtEn= 0.00D+00
 Coeff-Com:  0.406D+00 0.594D+00
 Coeff:      0.406D+00 0.594D+00
 Gap=     0.354 Goal=   None    Shift=    0.000
 RMSDP=1.60D-07 MaxDP=1.13D-06 DE=-3.17D-11 OVMax= 1.31D-06

 Cycle   7  Pass 1  IDiag  1:
 E= -76.4089537166054     Delta-E=       -0.000000000007 Rises=F Damp=F AM=F Ri=F Fa=F
 DIIS: error= 3.42D-07 at cycle   3 NSaved=   3.
 NSaved= 3 IEnMin= 3 EnMin= -76.4089537166054     IErMin= 3 ErrMin= 3.42D-07
 ErrMax= 3.42D-07  0.00D+00 EMaxC= 1.00D-01 BMatC= 1.13D-12 BMatP= 6.23D-12
 Rises=F IDIUse=1 WtCom= 1.00D+00 WtEn= 0.00D+00
 Coeff-Com: -0.184D-01 0.289D+00 0.729D+00
 Coeff:     -0.184D-01 0.289D+00 0.729D+00
 Gap=     0.354 Goal=   None    Shift=    0.000
 RMSDP=6.71D-08 MaxDP=5.14D-07 DE=-7.40D-12 OVMax= 6.11D-07

 Cycle   8  Pass 1  IDiag  1:
 E= -76.4089537166071     Delta-E=       -0.000000000002 Rises=F Damp=F AM=F Ri=F Fa=F
 DIIS: error= 3.58D-08 at cycle   4 NSaved=   4.
 NSaved= 4 IEnMin= 4 EnMin= -76.4089537166071     IErMin= 4 ErrMin= 3.58D-08
 ErrMax= 3.58D-08  0.00D+00 EMaxC= 1.00D-01 BMatC= 1.37D-14 BMatP= 1.13D-12
 Rises=F IDIUse=1 WtCom= 1.00D+00 WtEn= 0.00D+00
 Coeff-Com: -0.198D-01 0.422D-01 0.177D+00 0.801D+00
 Coeff:     -0.198D-01 0.422D-01 0.177D+00 0.801D+00
 Gap=     0.354 Goal=   None    Shift=    0.000
 RMSDP=6.46D-09 MaxDP=3.95D-08 DE=-1.72D-12 OVMax= 3.75D-08

 SCF Done:  E(RB3LYP) =  -76.4089537166     A.U. after    8 cycles
            NFock=  8  Conv=0.65D-08     -V/T= 2.0078
 KE=          75.820145 PE=        -198.759957 EE=          37.441260
 Leave Link  502 at Tue Mar 10 00:06:53 2026, MaxMem=  4294967296 cpu:               0.2 elap:               0.1
 (Enter /Users/vincenzobarone/gdv_j32p/gdv/l508.exe)
 QCSCF skips out because SCF is already converged.
 Leave Link  508 at Tue Mar 10 00:06:53 2026, MaxMem=  4294967296 cpu:               0.0 elap:               0.0
 (Enter /Users/vincenzobarone/gdv_j32p/gdv/l701.exe)
 ... and contract with generalized density number  0.
 Compute integral first derivatives.
 Leave Link  701 at Tue Mar 10 00:06:53 2026, MaxMem=  4294967296 cpu:               0.1 elap:               0.0
 (Enter /Users/vincenzobarone/gdv_j32p/gdv/l702.exe)
 L702 exits ... SP integral derivatives will be done elsewhere.
 Leave Link  702 at Tue Mar 10 00:06:53 2026, MaxMem=  4294967296 cpu:               0.0 elap:               0.0
 (Enter /Users/vincenzobarone/gdv_j32p/gdv/l703.exe)
 Integral derivatives from FoFJK, PRISM(SPDF).
 Compute integral first derivatives, UseDBF=F ICtDFT=           0.
 Calling FoFJK, ICntrl=      2127 FMM=F ISym2X=1 I1Cent= 0 IOpClX= 0 NMat=1 NMatS=1 NMatT=0.
 FoFJK:  IHMeth= 1 ICntrl=    2127 DoSepK=F KAlg= 0 I1Cent=           0 FoldK=F
 IRaf=         0 NMat=       1 IRICut=       1 DoRegI=T DoRafI=F ISym2E= 1 IDoP0=0 IntGTp=1.
 FoFCou: FMM=F IPFlag=           0 FMFlag=      100000 FMFlg1=         800
         NFxFlg=           0 DoJE=F BraDBF=F KetDBF=F FulRan=T
         wScrn=  0.000000 ICntrl=      2127 IOpCl=  0 I1Cent=           0 NGrid=           0
         NMat0=    1 NMatS0=      1 NMatT0=    0 NMatD0=    1 NMtDS0=    0 NMtDT0=    0
 Petite list used in FoFCou.
 Leave Link  703 at Tue Mar 10 00:06:53 2026, MaxMem=  4294967296 cpu:               0.2 elap:               0.0
 (Enter /Users/vincenzobarone/gdv_j32p/gdv/l716.exe)
 Dipole        =-6.59394188D-17 0.00000000D+00-8.23836897D-01
 ***** Axes restored to original set *****
 -------------------------------------------------------------------
 Center     Atomic                   Forces (Hartrees/Bohr)
 Number     Number              X              Y              Z
 -------------------------------------------------------------------
      1        1           0.000216544   -0.000065310    0.000000000
      2        8          -0.000433089    0.000000000    0.000000000
      3        1           0.000216544    0.000065310    0.000000000
 -------------------------------------------------------------------
 Cartesian Forces:  Max     0.000433089 RMS     0.000179468
 Leave Link  716 at Tue Mar 10 00:06:53 2026, MaxMem=  4294967296 cpu:               0.0 elap:               0.0
 (Enter /Users/vincenzobarone/gdv_j32p/gdv/l103.exe)

 GradGradGradGradGradGradGradGradGradGradGradGradGradGradGradGradGradGrad
 Berny optimization.
 Using GEDIIS/GDIIS optimizer.
 FormGI is forming the generalized inverse of G from B-inverse, IUseBI=4.
 NTrRot=    -1 NTRed=     3 NAtoms=     3 NSkip=     0 NRank=     3 IsLin=F EigSml=7.6893D-01
 Internal  Forces:  Max     0.000237935 RMS     0.000204225
 Search for a local minimum.
 Step number     3 out of a maximum of    20
 All quantities printed in internal units (Hartrees-Bohrs-Radians)
 RMS Force = .20423D-03 SwitMx=.10000D-02 MixMth= 2
 Mixed Optimization -- En-DIIS/RFO-DIIS
 Update second derivatives using D2CorX and points    1    2    3
 DE= -2.19D-04 DEPred=-2.17D-04 R= 1.01D+00
 TightC=F SS=  1.41D+00  RLast= 3.13D-02 DXNew= 8.4853D-01 9.3993D-02
 Trust test= 1.01D+00 RLast= 3.13D-02 DXMaxT set to 5.05D-01
 The second derivative matrix:
                          R1        R2        A1
           R1           0.49416
           R2          -0.00084   0.49416
           A1           0.02597   0.02597   0.18667
 ITU=  1  1  0
 Use linear search instead of GDIIS.
     Eigenvalues ---    0.18233   0.49500   0.49767
 RFO step:  Lambda=-4.75915270D-07 EMin= 1.82330114D-01
 Quartic linear search produced a step of -0.00743.
 GrdOpt: GIC=T ITstSp= 0 NP=   3 DidLin=T DidDIS=F IRisen=  0
         ISwap=1 XLin=-0.007 DXMaxT= 0.505 DidEig=F Rises=F
 Iteration  1 RMS(Cart)=  0.00040859 RMS(Int)=  0.00000042
 Iteration  2 RMS(Cart)=  0.00000026 RMS(Int)=  0.00000000
 ClnCor:  largest displacement from symmetrization is 3.14D-16 for atom     3.
 Variable       Old X    -DE/DX   Delta X   Delta X   Delta X     New X
                                 (Linear)    (Quad)   (Total)
    R1        1.83019   0.00019   0.00014   0.00030   0.00045   1.83063
    R2        1.83019   0.00019   0.00014   0.00030   0.00045   1.83063
    A1        1.81055  -0.00024   0.00012  -0.00152  -0.00141   1.80915
         Item               Value     Threshold  Converged?
 Maximum Force            0.000238     0.000015     NO 
 RMS     Force            0.000204     0.000010     NO 
 Maximum Displacement     0.000859     0.000060     NO 
 RMS     Displacement     0.000708     0.000040     NO 
 Predicted change in Energy=-2.495610D-07
 Lowest energy point so far.  Saving SCF results.
 GradGradGradGradGradGradGradGradGradGradGradGradGradGradGradGradGradGrad

 Leave Link  103 at Tue Mar 10 00:06:53 2026, MaxMem=  4294967296 cpu:               0.0 elap:               0.0
 (Enter /Users/vincenzobarone/gdv_j32p/gdv/l202.exe)
                          Input orientation:                          
 ---------------------------------------------------------------------
 Center     Atomic      Atomic             Coordinates (Angstroms)
 Number     Number       Type             X           Y           Z
 ---------------------------------------------------------------------
      1          1           0        0.666231   -0.761577    0.000000
      2          8           0        0.067537    0.000000    0.000000
      3          1           0        0.666231    0.761577    0.000000
 ---------------------------------------------------------------------
                    Distance matrix (angstroms):
                    1          2          3
     1  H    0.000000
     2  O    0.968728   0.000000
     3  H    1.523153   0.968728   0.000000
 Stoichiometry    H2O
 Framework group  C2V[C2(O),SGV(H2)]
 Deg. of freedom     2
 Full point group                 C2V     NOp   4
 RotChk:  IX=0 Diff= 5.30D-33
 Largest Abelian subgroup         C2V     NOp   4
 Largest concise Abelian subgroup C2      NOp   2
                         Standard orientation:                         
 ---------------------------------------------------------------------
 Center     Atomic      Atomic             Coordinates (Angstroms)
 Number     Number       Type             X           Y           Z
 ---------------------------------------------------------------------
      1          1           0        0.000000    0.761577   -0.478955
      2          8           0        0.000000    0.000000    0.119739
      3          1           0        0.000000   -0.761577   -0.478955
 ---------------------------------------------------------------------
 Rotational constants (GHZ):         787.6575100         432.2895849         279.1072986
 Leave Link  202 at Tue Mar 10 00:06:53 2026, MaxMem=  4294967296 cpu:               0.0 elap:               0.0
 (Enter /Users/vincenzobarone/gdv_j32p/gdv/l301.exe)
 Standard basis: 6-31G(d) (6D, 7F)
 Ernie: Thresh=  0.10000D-02 Tol=  0.10000D-05 Strict=F.
 There are    10 symmetry adapted cartesian basis functions of A1  symmetry.
 There are     1 symmetry adapted cartesian basis functions of A2  symmetry.
 There are     3 symmetry adapted cartesian basis functions of B1  symmetry.
 There are     5 symmetry adapted cartesian basis functions of B2  symmetry.
 There are    10 symmetry adapted basis functions of A1  symmetry.
 There are     1 symmetry adapted basis functions of A2  symmetry.
 There are     3 symmetry adapted basis functions of B1  symmetry.
 There are     5 symmetry adapted basis functions of B2  symmetry.
    19 basis functions,    36 primitive gaussians,    19 cartesian basis functions
     5 alpha electrons        5 beta electrons
       nuclear repulsion energy         9.0875805636 Hartrees.
 IExCor=      4002 DFT=T Ex+Corr=B3LYP ScaHFX=  0.200000
 ScaDFX=  0.800000  0.720000  1.000000  0.810000  1.000000  0.000000
 ScaDFX=  0.000000  0.000000  0.000000  0.000000  0.000000  0.000000
 Grid=UltraFine IRanWt=     -1 IRanGd=            0 ICorTp=0 IEDCtl=  2004
 NAtoms=    3 NActive=    3 NUniq=    2 SFac= 2.25D+00 NAtFMM=   60 NAOKFM=F Big=F
 Integral buffers will be    131072 words long.
 Raffenetti 2 integral format.
 Two-electron integral symmetry is turned on.
 Leave Link  301 at Tue Mar 10 00:06:53 2026, MaxMem=  4294967296 cpu:               0.0 elap:               0.0
 (Enter /Users/vincenzobarone/gdv_j32p/gdv/l302.exe)
 NPDir=0 NMtPBC=     1 NCelOv=     1 NCel=       1 NClECP=     1 NCelD=      1
         NCelK=      1 NCelE2=     1 NClLst=     1 CellRange=     0.0.
 One-electron integrals computed using PRISM.
 One-electron integral symmetry used in STVInt
 NBasis=    19 RedAO= T EigKep=  2.27D-02  NBF=    10     1     3     5
 NBsUse=    19 1.00D-06 EigRej= -1.00D+00 NBFU=    10     1     3     5
 Precomputing XC quadrature grid using
 IXCGrd=   9 Grid=UltraFine IRanWt=          -1 IRanGd=           0 AccXCQ= 0.00D+00.
 Generated NRdTot=       0 NPtTot=       68290 NUsed=           0 NTot=          64
 NSgBfM=    19    19    19    19    19 MxSgAt=     3 MxSgA2=     3 SizInc=   0.000
 NMBTot=      622 MaxBatPerAtom=       81 MaxMicBPerAtom=      208 NBfPt=             1111794.
 Leave Link  302 at Tue Mar 10 00:06:53 2026, MaxMem=  4294967296 cpu:               0.1 elap:               0.0
 (Enter /Users/vincenzobarone/gdv_j32p/gdv/l303.exe)
 DipDrv:  MaxL=1.
 Leave Link  303 at Tue Mar 10 00:06:53 2026, MaxMem=  4294967296 cpu:               0.0 elap:               0.0
 (Enter /Users/vincenzobarone/gdv_j32p/gdv/l401.exe)
 Initial guess from the checkpoint file:  "h2o.chk"
 B after Tr=     0.000000    0.000000    0.000000
         Rot=    1.000000    0.000000    0.000000    0.000000 Ang=   0.00 deg.
 AO Guess basis will be translated and rotated to current coordinates.
 JPrj=2 DoOrth=T DoCkMO=T.
 Initial guess orbital symmetries:
       Occupied  (A1) (A1) (B2) (A1) (B1)
       Virtual   (A1) (B2) (B2) (A1) (B1) (A1) (B2) (A1) (A1) (A2)
                 (B1) (A1) (B2) (A1)
 The electronic state of the initial guess is 1-A1.
 Leave Link  401 at Tue Mar 10 00:06:53 2026, MaxMem=  4294967296 cpu:               0.0 elap:               0.0
 (Enter /Users/vincenzobarone/gdv_j32p/gdv/l502.exe)
 Keep R1 ints in memory in symmetry-blocked form, NReq=6933615.
 FoFCou: FMM=F IPFlag=           0 FMFlag=           0 FMFlg1=           0
         NFxFlg=           0 DoJE=F BraDBF=F KetDBF=F FulRan=T
         wScrn=  0.000000 ICntrl=       600 IOpCl=  0 I1Cent=           0 NGrid=           0
         NMat0=    1 NMatS0=    190 NMatT0=    0 NMatD0=    1 NMtDS0=    0 NMtDT0=    0
 Petite list used in FoFCou.
 Closed shell SCF:
 Using DIIS extrapolation, IDIIS=  1040.
 NGot=  4294967296 LenX=  4294959046 LenY=  4294958164
 Requested convergence on RMS density matrix=1.00D-08 within  48 cycles.
 Requested convergence on MAX density matrix=1.00D-06.
 Requested convergence on             energy=1.00D-06.
 No special actions if energy rises.

 Cycle   1  Pass 1  IDiag  1:
 E= -76.4089538582842    
 DIIS: error= 6.34D-05 at cycle   1 NSaved=   1.
 NSaved= 1 IEnMin= 1 EnMin= -76.4089538582842     IErMin= 1 ErrMin= 6.34D-05
 ErrMax= 6.34D-05  0.00D+00 EMaxC= 1.00D-01 BMatC= 4.04D-08 BMatP= 4.04D-08
 Rises=F IDIUse=1 WtCom= 1.00D+00 WtEn= 0.00D+00
 Coeff-Com:  0.100D+01
 Coeff:      0.100D+01
 Gap=     0.354 Goal=   None    Shift=    0.000
 RMSDP=2.97D-05 MaxDP=2.44D-04              OVMax= 2.19D-04

 Cycle   2  Pass 1  IDiag  1:
 E= -76.4089539529417     Delta-E=       -0.000000094657 Rises=F Damp=F AM=F Ri=F Fa=F
 DIIS: error= 4.78D-05 at cycle   2 NSaved=   2.
 NSaved= 2 IEnMin= 2 EnMin= -76.4089539529417     IErMin= 2 ErrMin= 4.78D-05
 ErrMax= 4.78D-05  0.00D+00 EMaxC= 1.00D-01 BMatC= 1.82D-08 BMatP= 4.04D-08
 Rises=F IDIUse=1 WtCom= 1.00D+00 WtEn= 0.00D+00
 Coeff-Com:  0.349D+00 0.651D+00
 Coeff:      0.349D+00 0.651D+00
 Gap=     0.354 Goal=   None    Shift=    0.000
 RMSDP=9.91D-06 MaxDP=6.53D-05 DE=-9.47D-08 OVMax= 7.26D-05

 Cycle   3  Pass 1  IDiag  1:
 E= -76.4089539700356     Delta-E=       -0.000000017094 Rises=F Damp=F AM=F Ri=F Fa=F
 DIIS: error= 2.63D-05 at cycle   3 NSaved=   3.
 NSaved= 3 IEnMin= 3 EnMin= -76.4089539700356     IErMin= 3 ErrMin= 2.63D-05
 ErrMax= 2.63D-05  0.00D+00 EMaxC= 1.00D-01 BMatC= 6.00D-09 BMatP= 1.82D-08
 Rises=F IDIUse=1 WtCom= 1.00D+00 WtEn= 0.00D+00
 Coeff-Com: -0.308D-01 0.366D+00 0.665D+00
 Coeff:     -0.308D-01 0.366D+00 0.665D+00
 Gap=     0.354 Goal=   None    Shift=    0.000
 RMSDP=3.88D-06 MaxDP=2.75D-05 DE=-1.71D-08 OVMax= 2.96D-05

 Cycle   4  Pass 1  IDiag  1:
 E= -76.4089539785345     Delta-E=       -0.000000008499 Rises=F Damp=F AM=F Ri=F Fa=F
 DIIS: error= 2.78D-07 at cycle   4 NSaved=   4.
 NSaved= 4 IEnMin= 4 EnMin= -76.4089539785345     IErMin= 4 ErrMin= 2.78D-07
 ErrMax= 2.78D-07  0.00D+00 EMaxC= 1.00D-01 BMatC= 5.97D-13 BMatP= 6.00D-09
 Rises=F IDIUse=1 WtCom= 1.00D+00 WtEn= 0.00D+00
 Coeff-Com: -0.168D-02 0.579D-02 0.801D-02 0.988D+00
 Coeff:     -0.168D-02 0.579D-02 0.801D-02 0.988D+00
 Gap=     0.354 Goal=   None    Shift=    0.000
 RMSDP=1.16D-07 MaxDP=1.01D-06 DE=-8.50D-09 OVMax= 1.02D-06

 Cycle   5  Pass 1  IDiag  1:
 E= -76.4089539785363     Delta-E=       -0.000000000002 Rises=F Damp=F AM=F Ri=F Fa=F
 DIIS: error= 8.93D-08 at cycle   5 NSaved=   5.
 NSaved= 5 IEnMin= 5 EnMin= -76.4089539785363     IErMin= 5 ErrMin= 8.93D-08
 ErrMax= 8.93D-08  0.00D+00 EMaxC= 1.00D-01 BMatC= 5.39D-14 BMatP= 5.97D-13
 Rises=F IDIUse=1 WtCom= 1.00D+00 WtEn= 0.00D+00
 Coeff-Com:  0.197D-03-0.426D-02-0.736D-02 0.198D+00 0.814D+00
 Coeff:      0.197D-03-0.426D-02-0.736D-02 0.198D+00 0.814D+00
 Gap=     0.354 Goal=   None    Shift=    0.000
 RMSDP=1.11D-08 MaxDP=4.80D-08 DE=-1.76D-12 OVMax= 1.02D-07

 Cycle   6  Pass 1  IDiag  1:
 E= -76.4089539785364     Delta-E=        0.000000000000 Rises=F Damp=F AM=F Ri=F Fa=F
 DIIS: error= 1.48D-08 at cycle   6 NSaved=   6.
 NSaved= 6 IEnMin= 6 EnMin= -76.4089539785364     IErMin= 6 ErrMin= 1.48D-08
 ErrMax= 1.48D-08  0.00D+00 EMaxC= 1.00D-01 BMatC= 1.27D-15 BMatP= 5.39D-14
 Rises=F IDIUse=1 WtCom= 1.00D+00 WtEn= 0.00D+00
 Coeff-Com:  0.359D-04-0.360D-03-0.159D-03-0.218D-01-0.119D-01 0.103D+01
 Coeff:      0.359D-04-0.360D-03-0.159D-03-0.218D-01-0.119D-01 0.103D+01
 Gap=     0.354 Goal=   None    Shift=    0.000
 RMSDP=2.72D-09 MaxDP=1.62D-08 DE=-1.28D-13 OVMax= 2.16D-08

 SCF Done:  E(RB3LYP) =  -76.4089539785     A.U. after    6 cycles
            NFock=  6  Conv=0.27D-08     -V/T= 2.0078
 KE=          75.819511 PE=        -198.755428 EE=          37.439382
 Leave Link  502 at Tue Mar 10 00:06:53 2026, MaxMem=  4294967296 cpu:               0.2 elap:               0.0
 (Enter /Users/vincenzobarone/gdv_j32p/gdv/l508.exe)
 QCSCF skips out because SCF is already converged.
 Leave Link  508 at Tue Mar 10 00:06:53 2026, MaxMem=  4294967296 cpu:               0.0 elap:               0.0
 (Enter /Users/vincenzobarone/gdv_j32p/gdv/l701.exe)
 ... and contract with generalized density number  0.
 Compute integral first derivatives.
 Leave Link  701 at Tue Mar 10 00:06:53 2026, MaxMem=  4294967296 cpu:               0.1 elap:               0.0
 (Enter /Users/vincenzobarone/gdv_j32p/gdv/l702.exe)
 L702 exits ... SP integral derivatives will be done elsewhere.
 Leave Link  702 at Tue Mar 10 00:06:53 2026, MaxMem=  4294967296 cpu:               0.0 elap:               0.0
 (Enter /Users/vincenzobarone/gdv_j32p/gdv/l703.exe)
 Integral derivatives from FoFJK, PRISM(SPDF).
 Compute integral first derivatives, UseDBF=F ICtDFT=           0.
 Calling FoFJK, ICntrl=      2127 FMM=F ISym2X=1 I1Cent= 0 IOpClX= 0 NMat=1 NMatS=1 NMatT=0.
 FoFJK:  IHMeth= 1 ICntrl=    2127 DoSepK=F KAlg= 0 I1Cent=           0 FoldK=F
 IRaf=         0 NMat=       1 IRICut=       1 DoRegI=T DoRafI=F ISym2E= 1 IDoP0=0 IntGTp=1.
 FoFCou: FMM=F IPFlag=           0 FMFlag=      100000 FMFlg1=         800
         NFxFlg=           0 DoJE=F BraDBF=F KetDBF=F FulRan=T
         wScrn=  0.000000 ICntrl=      2127 IOpCl=  0 I1Cent=           0 NGrid=           0
         NMat0=    1 NMatS0=      1 NMatT0=    0 NMatD0=    1 NMtDS0=    0 NMtDT0=    0
 Petite list used in FoFCou.
 Leave Link  703 at Tue Mar 10 00:06:53 2026, MaxMem=  4294967296 cpu:               0.2 elap:               0.0
 (Enter /Users/vincenzobarone/gdv_j32p/gdv/l716.exe)
 Dipole        =-6.59053922D-17 0.00000000D+00-8.24350852D-01
 ***** Axes restored to original set *****
 -------------------------------------------------------------------
 Center     Atomic                   Forces (Hartrees/Bohr)
 Number     Number              X              Y              Z
 -------------------------------------------------------------------
      1        1           0.000008356    0.000002985    0.000000000
      2        8          -0.000016711    0.000000000    0.000000000
      3        1           0.000008356   -0.000002985    0.000000000
 -------------------------------------------------------------------
 Cartesian Forces:  Max     0.000016711 RMS     0.000006966
 Leave Link  716 at Tue Mar 10 00:06:53 2026, MaxMem=  4294967296 cpu:               0.0 elap:               0.0
 (Enter /Users/vincenzobarone/gdv_j32p/gdv/l103.exe)

 GradGradGradGradGradGradGradGradGradGradGradGradGradGradGradGradGradGrad
 Berny optimization.
 Using GEDIIS/GDIIS optimizer.
 FormGI is forming the generalized inverse of G from B-inverse, IUseBI=4.
 NTrRot=    -1 NTRed=     3 NAtoms=     3 NSkip=     0 NRank=     3 IsLin=F EigSml=7.6842D-01
 Internal  Forces:  Max     0.000015402 RMS     0.000009185
 Search for a local minimum.
 Step number     4 out of a maximum of    20
 All quantities printed in internal units (Hartrees-Bohrs-Radians)
 RMS Force = .91851D-05 SwitMx=.10000D-02 MixMth= 2
 Mixed Optimization -- En-DIIS/RFO-DIIS
 Swapping is turned off.
 Update second derivatives using D2CorX and points    1    2    3    4
 DE= -2.62D-07 DEPred=-2.50D-07 R= 1.05D+00
 Trust test= 1.05D+00 RLast= 1.54D-03 DXMaxT set to 5.05D-01
 The second derivative matrix:
                          R1        R2        A1
           R1           0.49683
           R2           0.00183   0.49683
           A1           0.02818   0.02818   0.17592
 ITU=  0  1  1  0
     Eigenvalues ---    0.17107   0.49500   0.50352
 En-DIIS/RFO-DIIS/Sim-DIIS IScMMF=       -3 using points:     4    3
 RFO step:  Lambda= 0.00000000D+00.
 NNeg= 0 NGDIIS= 2 SimSw=  2.50D-01 Rises=F DC= -2.62D-07 SmlDif=  1.00D-05
 NRisDI= 0 DoIntr=F SqrtH=F CThrHd= 10.0 CDAdj=  3.0
 RMS Error=  0.5327954602D-04 NUsed= 2 OKEnD=F EnDIS=F
 InvSVX:  RCond= 5.94D-07 Info=           0 Equed=N FErr=  1.04D-15 BErr=  4.14D-17
 DidBck=FF Rises=F RFO-DIIS coefs:    1.05792   -0.05792
 GrdOpt: GIC=T ITstSp= 0 NP=   4 DidLin=F DidDIS=T IRisen=  0
         ISwap=0 XLin= 0.000 DXMaxT= 0.505 DidEig=F Rises=F
 Iteration  1 RMS(Cart)=  0.00002822 RMS(Int)=  0.00000000
 Iteration  2 RMS(Cart)=  0.00000000 RMS(Int)=  0.00000000
 ClnCor:  largest displacement from symmetrization is 2.22D-16 for atom     3.
 Variable       Old X    -DE/DX   Delta X   Delta X   Delta X     New X
                                 (Linear)    (Quad)   (Total)
    R1        1.83063   0.00000   0.00003  -0.00001   0.00001   1.83064
    R2        1.83063   0.00000   0.00003  -0.00001   0.00001   1.83064
    A1        1.80915  -0.00002  -0.00008  -0.00001  -0.00009   1.80906
         Item               Value     Threshold  Converged?
 Maximum Force            0.000015     0.000015     NO 
 RMS     Force            0.000009     0.000010     YES
 Maximum Displacement     0.000048     0.000060     YES
 RMS     Displacement     0.000049     0.000040     NO 
 Predicted change in Energy=-7.312925D-10
 Lowest energy point so far.  Saving SCF results.
 GradGradGradGradGradGradGradGradGradGradGradGradGradGradGradGradGradGrad

 Leave Link  103 at Tue Mar 10 00:06:53 2026, MaxMem=  4294967296 cpu:               0.0 elap:               0.0
 (Enter /Users/vincenzobarone/gdv_j32p/gdv/l202.exe)
                          Input orientation:                          
 ---------------------------------------------------------------------
 Center     Atomic      Atomic             Coordinates (Angstroms)
 Number     Number       Type             X           Y           Z
 ---------------------------------------------------------------------
      1          1           0        0.666244   -0.761554    0.000000
      2          8           0        0.067512    0.000000    0.000000
      3          1           0        0.666244    0.761554    0.000000
 ---------------------------------------------------------------------
                    Distance matrix (angstroms):
                    1          2          3
     1  H    0.000000
     2  O    0.968734   0.000000
     3  H    1.523108   0.968734   0.000000
 Stoichiometry    H2O
 Framework group  C2V[C2(O),SGV(H2)]
 Deg. of freedom     2
 Full point group                 C2V     NOp   4
 RotChk:  IX=0 Diff= 5.30D-33
 Largest Abelian subgroup         C2V     NOp   4
 Largest concise Abelian subgroup C2      NOp   2
                         Standard orientation:                         
 ---------------------------------------------------------------------
 Center     Atomic      Atomic             Coordinates (Angstroms)
 Number     Number       Type             X           Y           Z
 ---------------------------------------------------------------------
      1          1           0        0.000000    0.761554   -0.478986
      2          8           0        0.000000    0.000000    0.119746
      3          1           0        0.000000   -0.761554   -0.478986
 ---------------------------------------------------------------------
 Rotational constants (GHZ):         787.5570433         432.3154182         279.1054502
 Leave Link  202 at Tue Mar 10 00:06:53 2026, MaxMem=  4294967296 cpu:               0.0 elap:               0.0
 (Enter /Users/vincenzobarone/gdv_j32p/gdv/l301.exe)
 Standard basis: 6-31G(d) (6D, 7F)
 Ernie: Thresh=  0.10000D-02 Tol=  0.10000D-05 Strict=F.
 There are    10 symmetry adapted cartesian basis functions of A1  symmetry.
 There are     1 symmetry adapted cartesian basis functions of A2  symmetry.
 There are     3 symmetry adapted cartesian basis functions of B1  symmetry.
 There are     5 symmetry adapted cartesian basis functions of B2  symmetry.
 There are    10 symmetry adapted basis functions of A1  symmetry.
 There are     1 symmetry adapted basis functions of A2  symmetry.
 There are     3 symmetry adapted basis functions of B1  symmetry.
 There are     5 symmetry adapted basis functions of B2  symmetry.
    19 basis functions,    36 primitive gaussians,    19 cartesian basis functions
     5 alpha electrons        5 beta electrons
       nuclear repulsion energy         9.0875394114 Hartrees.
 IExCor=      4002 DFT=T Ex+Corr=B3LYP ScaHFX=  0.200000
 ScaDFX=  0.800000  0.720000  1.000000  0.810000  1.000000  0.000000
 ScaDFX=  0.000000  0.000000  0.000000  0.000000  0.000000  0.000000
 Grid=UltraFine IRanWt=     -1 IRanGd=            0 ICorTp=0 IEDCtl=  2004
 NAtoms=    3 NActive=    3 NUniq=    2 SFac= 2.25D+00 NAtFMM=   60 NAOKFM=F Big=F
 Integral buffers will be    131072 words long.
 Raffenetti 2 integral format.
 Two-electron integral symmetry is turned on.
 Leave Link  301 at Tue Mar 10 00:06:53 2026, MaxMem=  4294967296 cpu:               0.0 elap:               0.0
 (Enter /Users/vincenzobarone/gdv_j32p/gdv/l302.exe)
 NPDir=0 NMtPBC=     1 NCelOv=     1 NCel=       1 NClECP=     1 NCelD=      1
         NCelK=      1 NCelE2=     1 NClLst=     1 CellRange=     0.0.
 One-electron integrals computed using PRISM.
 One-electron integral symmetry used in STVInt
 NBasis=    19 RedAO= T EigKep=  2.27D-02  NBF=    10     1     3     5
 NBsUse=    19 1.00D-06 EigRej= -1.00D+00 NBFU=    10     1     3     5
 Precomputing XC quadrature grid using
 IXCGrd=   9 Grid=UltraFine IRanWt=          -1 IRanGd=           0 AccXCQ= 0.00D+00.
 Generated NRdTot=       0 NPtTot=       68283 NUsed=           0 NTot=          64
 NSgBfM=    19    19    19    19    19 MxSgAt=     3 MxSgA2=     3 SizInc=   0.000
 NMBTot=      627 MaxBatPerAtom=       81 MaxMicBPerAtom=      211 NBfPt=             1111762.
 Leave Link  302 at Tue Mar 10 00:06:53 2026, MaxMem=  4294967296 cpu:               0.1 elap:               0.0
 (Enter /Users/vincenzobarone/gdv_j32p/gdv/l303.exe)
 DipDrv:  MaxL=1.
 Leave Link  303 at Tue Mar 10 00:06:53 2026, MaxMem=  4294967296 cpu:               0.0 elap:               0.0
 (Enter /Users/vincenzobarone/gdv_j32p/gdv/l401.exe)
 Initial guess from the checkpoint file:  "h2o.chk"
 B after Tr=     0.000000    0.000000    0.000000
         Rot=    1.000000    0.000000    0.000000    0.000000 Ang=   0.00 deg.
 AO Guess basis will be translated and rotated to current coordinates.
 JPrj=2 DoOrth=T DoCkMO=T.
 Initial guess orbital symmetries:
       Occupied  (A1) (A1) (B2) (A1) (B1)
       Virtual   (A1) (B2) (B2) (A1) (B1) (A1) (B2) (A1) (A1) (A2)
                 (B1) (A1) (B2) (A1)
 The electronic state of the initial guess is 1-A1.
 Leave Link  401 at Tue Mar 10 00:06:53 2026, MaxMem=  4294967296 cpu:               0.0 elap:               0.0
 (Enter /Users/vincenzobarone/gdv_j32p/gdv/l502.exe)
 Keep R1 ints in memory in symmetry-blocked form, NReq=6933615.
 FoFCou: FMM=F IPFlag=           0 FMFlag=           0 FMFlg1=           0
         NFxFlg=           0 DoJE=F BraDBF=F KetDBF=F FulRan=T
         wScrn=  0.000000 ICntrl=       600 IOpCl=  0 I1Cent=           0 NGrid=           0
         NMat0=    1 NMatS0=    190 NMatT0=    0 NMatD0=    1 NMtDS0=    0 NMtDT0=    0
 Petite list used in FoFCou.
 Closed shell SCF:
 Using DIIS extrapolation, IDIIS=  1040.
 NGot=  4294967296 LenX=  4294959046 LenY=  4294958164
 Requested convergence on RMS density matrix=1.00D-08 within  48 cycles.
 Requested convergence on MAX density matrix=1.00D-06.
 Requested convergence on             energy=1.00D-06.
 No special actions if energy rises.

 Cycle   1  Pass 1  IDiag  1:
 E= -76.4089539789319    
 DIIS: error= 3.59D-06 at cycle   1 NSaved=   1.
 NSaved= 1 IEnMin= 1 EnMin= -76.4089539789319     IErMin= 1 ErrMin= 3.59D-06
 ErrMax= 3.59D-06  0.00D+00 EMaxC= 1.00D-01 BMatC= 1.21D-10 BMatP= 1.21D-10
 Rises=F IDIUse=1 WtCom= 1.00D+00 WtEn= 0.00D+00
 Coeff-Com:  0.100D+01
 Coeff:      0.100D+01
 Gap=     0.354 Goal=   None    Shift=    0.000
 RMSDP=1.47D-06 MaxDP=1.15D-05              OVMax= 1.03D-05

 Cycle   2  Pass 1  IDiag  1:
 E= -76.4089539792371     Delta-E=       -0.000000000305 Rises=F Damp=F AM=F Ri=F Fa=F
 DIIS: error= 1.45D-06 at cycle   2 NSaved=   2.
 NSaved= 2 IEnMin= 2 EnMin= -76.4089539792371     IErMin= 2 ErrMin= 1.45D-06
 ErrMax= 1.45D-06  0.00D+00 EMaxC= 1.00D-01 BMatC= 1.89D-11 BMatP= 1.21D-10
 Rises=F IDIUse=1 WtCom= 1.00D+00 WtEn= 0.00D+00
 Coeff-Com:  0.158D+00 0.842D+00
 Coeff:      0.158D+00 0.842D+00
 Gap=     0.354 Goal=   None    Shift=    0.000
 RMSDP=4.08D-07 MaxDP=2.83D-06 DE=-3.05D-10 OVMax= 3.14D-06

 Cycle   3  Pass 1  IDiag  1:
 E= -76.4089539792376     Delta-E=       -0.000000000001 Rises=F Damp=F AM=F Ri=F Fa=F
 DIIS: error= 1.50D-06 at cycle   3 NSaved=   3.
 NSaved= 3 IEnMin= 3 EnMin= -76.4089539792376     IErMin= 2 ErrMin= 1.45D-06
 ErrMax= 1.50D-06  0.00D+00 EMaxC= 1.00D-01 BMatC= 1.91D-11 BMatP= 1.89D-11
 Rises=F IDIUse=1 WtCom= 1.00D+00 WtEn= 0.00D+00
 Coeff-Com: -0.167D-01 0.507D+00 0.510D+00
 Coeff:     -0.167D-01 0.507D+00 0.510D+00
 Gap=     0.354 Goal=   None    Shift=    0.000
 RMSDP=2.17D-07 MaxDP=1.51D-06 DE=-5.40D-13 OVMax= 1.53D-06

 Cycle   4  Pass 1  IDiag  1:
 E= -76.4089539792644     Delta-E=       -0.000000000027 Rises=F Damp=F AM=F Ri=F Fa=F
 DIIS: error= 5.74D-08 at cycle   4 NSaved=   4.
 NSaved= 4 IEnMin= 4 EnMin= -76.4089539792644     IErMin= 4 ErrMin= 5.74D-08
 ErrMax= 5.74D-08  0.00D+00 EMaxC= 1.00D-01 BMatC= 3.40D-14 BMatP= 1.89D-11
 Rises=F IDIUse=1 WtCom= 1.00D+00 WtEn= 0.00D+00
 Coeff-Com: -0.850D-02 0.103D+00 0.119D+00 0.787D+00
 Coeff:     -0.850D-02 0.103D+00 0.119D+00 0.787D+00
 Gap=     0.354 Goal=   None    Shift=    0.000
 RMSDP=9.04D-09 MaxDP=5.29D-08 DE=-2.68D-11 OVMax= 5.95D-08

 SCF Done:  E(RB3LYP) =  -76.4089539793     A.U. after    4 cycles
            NFock=  4  Conv=0.90D-08     -V/T= 2.0078
 KE=          75.819503 PE=        -198.755326 EE=          37.439330
 Leave Link  502 at Tue Mar 10 00:06:53 2026, MaxMem=  4294967296 cpu:               0.2 elap:               0.0
 (Enter /Users/vincenzobarone/gdv_j32p/gdv/l508.exe)
 QCSCF skips out because SCF is already converged.
 Leave Link  508 at Tue Mar 10 00:06:53 2026, MaxMem=  4294967296 cpu:               0.0 elap:               0.0
 (Enter /Users/vincenzobarone/gdv_j32p/gdv/l701.exe)
 ... and contract with generalized density number  0.
 Compute integral first derivatives.
 Leave Link  701 at Tue Mar 10 00:06:53 2026, MaxMem=  4294967296 cpu:               0.1 elap:               0.0
 (Enter /Users/vincenzobarone/gdv_j32p/gdv/l702.exe)
 L702 exits ... SP integral derivatives will be done elsewhere.
 Leave Link  702 at Tue Mar 10 00:06:53 2026, MaxMem=  4294967296 cpu:               0.0 elap:               0.0
 (Enter /Users/vincenzobarone/gdv_j32p/gdv/l703.exe)
 Integral derivatives from FoFJK, PRISM(SPDF).
 Compute integral first derivatives, UseDBF=F ICtDFT=           0.
 Calling FoFJK, ICntrl=      2127 FMM=F ISym2X=1 I1Cent= 0 IOpClX= 0 NMat=1 NMatS=1 NMatT=0.
 FoFJK:  IHMeth= 1 ICntrl=    2127 DoSepK=F KAlg= 0 I1Cent=           0 FoldK=F
 IRaf=         0 NMat=       1 IRICut=       1 DoRegI=T DoRafI=F ISym2E= 1 IDoP0=0 IntGTp=1.
 FoFCou: FMM=F IPFlag=           0 FMFlag=      100000 FMFlg1=         800
         NFxFlg=           0 DoJE=F BraDBF=F KetDBF=F FulRan=T
         wScrn=  0.000000 ICntrl=      2127 IOpCl=  0 I1Cent=           0 NGrid=           0
         NMat0=    1 NMatS0=      1 NMatT0=    0 NMatD0=    1 NMtDS0=    0 NMtDT0=    0
 Petite list used in FoFCou.
 Leave Link  703 at Tue Mar 10 00:06:54 2026, MaxMem=  4294967296 cpu:               0.2 elap:               0.0
 (Enter /Users/vincenzobarone/gdv_j32p/gdv/l716.exe)
 Dipole        =-6.59026719D-17 0.00000000D+00-8.24382933D-01
 ***** Axes restored to original set *****
 -------------------------------------------------------------------
 Center     Atomic                   Forces (Hartrees/Bohr)
 Number     Number              X              Y              Z
 -------------------------------------------------------------------
      1        1           0.000000054   -0.000000168    0.000000000
      2        8          -0.000000109    0.000000000    0.000000000
      3        1           0.000000054    0.000000168    0.000000000
 -------------------------------------------------------------------
 Cartesian Forces:  Max     0.000000168 RMS     0.000000091
 Leave Link  716 at Tue Mar 10 00:06:54 2026, MaxMem=  4294967296 cpu:               0.0 elap:               0.0
 (Enter /Users/vincenzobarone/gdv_j32p/gdv/l103.exe)

 GradGradGradGradGradGradGradGradGradGradGradGradGradGradGradGradGradGrad
 Berny optimization.
 Using GEDIIS/GDIIS optimizer.
 FormGI is forming the generalized inverse of G from B-inverse, IUseBI=4.
 NTrRot=    -1 NTRed=     3 NAtoms=     3 NSkip=     0 NRank=     3 IsLin=F EigSml=7.6839D-01
 Internal  Forces:  Max     0.000000166 RMS     0.000000150
 Search for a local minimum.
 Step number     5 out of a maximum of    20
 All quantities printed in internal units (Hartrees-Bohrs-Radians)
 RMS Force = .15004D-06 SwitMx=.10000D-02 MixMth= 2
 Mixed Optimization -- En-DIIS/RFO-DIIS
 Swapping is turned off.
 Update second derivatives using D2CorX and points    2    3    4    5
 DE= -7.28D-10 DEPred=-7.31D-10 R= 9.95D-01
 Trust test= 9.95D-01 RLast= 9.23D-05 DXMaxT set to 5.05D-01
 The second derivative matrix:
                          R1        R2        A1
           R1           0.49552
           R2           0.00052   0.49552
           A1           0.02969   0.02969   0.17751
 ITU=  0  0  1  1
     Eigenvalues ---    0.17206   0.49500   0.50149
 En-DIIS/RFO-DIIS/Sim-DIIS IScMMF=       -3 using points:     5    4    3
 RFO step:  Lambda= 0.00000000D+00.
 NNeg= 0 NGDIIS= 3 SimSw=  2.50D-01 Rises=F DC= -7.28D-10 SmlDif=  1.00D-05
 NRisDI= 0 DoIntr=F SqrtH=F CThrHd= 10.0 CDAdj=  3.0
 RMS Error=  0.3935170247D-06 NUsed= 3 OKEnD=F EnDIS=F
 InvSVX:  RCond= 8.41D-11 Info=           0 Equed=N FErr=  2.31D-15 BErr=  7.19D-17
 DIIS inversion failure, remove point   3.
 InvSVX:  RCond= 9.58D-09 Info=           0 Equed=N FErr=  9.30D-16 BErr=  5.83D-17
 DIIS inversion failure, remove point   2.
 Use linear search instead of GDIIS.
 RFO step:  Lambda= 0.00000000D+00 EMin= 1.72063866D-01
 Quartic linear search produced a step of -0.00451.
 GrdOpt: GIC=T ITstSp= 0 NP=   4 DidLin=T DidDIS=F IRisen=  0
         ISwap=0 XLin=-0.005 DXMaxT= 0.505 DidEig=F Rises=F
 Iteration  1 RMS(Cart)=  0.00000026 RMS(Int)=  0.00000000
 ClnCor:  largest displacement from symmetrization is 3.14D-16 for atom     3.
 Variable       Old X    -DE/DX   Delta X   Delta X   Delta X     New X
                                 (Linear)    (Quad)   (Total)
    R1        1.83064   0.00000   0.00000   0.00000   0.00000   1.83064
    R2        1.83064   0.00000   0.00000   0.00000   0.00000   1.83064
    A1        1.80906   0.00000   0.00000   0.00000   0.00000   1.80906
         Item               Value     Threshold  Converged?
 Maximum Force            0.000000     0.000015     YES
 RMS     Force            0.000000     0.000010     YES
 Maximum Displacement     0.000001     0.000060     YES
 RMS     Displacement     0.000000     0.000040     YES
 Predicted change in Energy=-7.988905D-14
 Optimization completed.
    -- Stationary point found.
                           ----------------------------
                           !   Optimized Parameters   !
                           ! (Angstroms and Degrees)  !
 --------------------------                            --------------------------
 ! Name  Definition              Value          Derivative Info.                !
 --------------------------------------------------------------------------------
 ! R1    R(1,2)                  0.9687         -DE/DX =    0.0                 !
 ! R2    R(2,3)                  0.9687         -DE/DX =    0.0                 !
 ! A1    A(1,2,3)              103.6513         -DE/DX =    0.0                 !
 --------------------------------------------------------------------------------
 Lowest energy point so far.  Saving SCF results.
 Largest change from initial coordinates is atom    1       0.070 Angstoms.
 GradGradGradGradGradGradGradGradGradGradGradGradGradGradGradGradGradGrad

 Leave Link  103 at Tue Mar 10 00:06:54 2026, MaxMem=  4294967296 cpu:               0.0 elap:               0.0
 (Enter /Users/vincenzobarone/gdv_j32p/gdv/l202.exe)
                          Input orientation:                          
 ---------------------------------------------------------------------
 Center     Atomic      Atomic             Coordinates (Angstroms)
 Number     Number       Type             X           Y           Z
 ---------------------------------------------------------------------
      1          1           0        0.666244   -0.761554    0.000000
      2          8           0        0.067512    0.000000    0.000000
      3          1           0        0.666244    0.761554    0.000000
 ---------------------------------------------------------------------
                    Distance matrix (angstroms):
                    1          2          3
     1  H    0.000000
     2  O    0.968734   0.000000
     3  H    1.523108   0.968734   0.000000
 Stoichiometry    H2O
 Framework group  C2V[C2(O),SGV(H2)]
 Deg. of freedom     2
 Full point group                 C2V     NOp   4
 RotChk:  IX=0 Diff= 5.30D-33
 Largest Abelian subgroup         C2V     NOp   4
 Largest concise Abelian subgroup C2      NOp   2
                         Standard orientation:                         
 ---------------------------------------------------------------------
 Center     Atomic      Atomic             Coordinates (Angstroms)
 Number     Number       Type             X           Y           Z
 ---------------------------------------------------------------------
      1          1           0        0.000000    0.761554   -0.478986
      2          8           0        0.000000    0.000000    0.119746
      3          1           0        0.000000   -0.761554   -0.478986
 ---------------------------------------------------------------------
 Rotational constants (GHZ):         787.5570433         432.3154182         279.1054502
 Leave Link  202 at Tue Mar 10 00:06:54 2026, MaxMem=  4294967296 cpu:               0.0 elap:               0.0
 (Enter /Users/vincenzobarone/gdv_j32p/gdv/l601.exe)
 Copying SCF densities to generalized density rwf, IOpCl= 0 IROHF=0.
 
 **********************************************************************
 
               Population analysis using the SCF Density.
 
 **********************************************************************
 
 Orbital symmetries:
       Occupied  (A1) (A1) (B2) (A1) (B1)
       Virtual   (A1) (B2) (B2) (A1) (B1) (A1) (B2) (A1) (A1) (A2)
                 (B1) (A1) (B2) (A1)
 The electronic state is 1-A1.
 Alpha  occ. eigenvalues --      -19.13817      -0.99788      -0.51713      -0.37222      -0.29119
 Alpha virt. eigenvalues --        0.06260       0.14812       0.77245       0.86092       0.89078
 Alpha virt. eigenvalues --        0.89509       1.06578       1.19344       1.72910       1.74638
 Alpha virt. eigenvalues --        1.77981       2.28056       2.57709       3.55190
          Condensed to atoms (all electrons):
               1          2          3
     1  H    0.393675   0.242575  -0.023408
     2  O    0.242575   8.289168   0.242575
     3  H   -0.023408   0.242575   0.393675
 Mulliken charges:
               1
     1  H    0.387159
     2  O   -0.774317
     3  H    0.387159
 Sum of Mulliken charges=   0.00000
 Mulliken charges with hydrogens summed into heavy atoms:
               1
     2  O    0.000000
 Electronic spatial extent (au):  <R**2>=             19.1866
 Charge=              0.0000 electrons
 Dipole moment (field-independent basis, Debye):
    X=              0.0000    Y=              0.0000    Z=             -2.0954  Tot=              2.0954
 Quadrupole moment (field-independent basis, Debye-Ang):
   XX=             -7.2039   YY=             -4.2866   ZZ=             -5.9898
   XY=              0.0000   XZ=              0.0000   YZ=              0.0000
 Traceless Quadrupole moment (field-independent basis, Debye-Ang):
   XX=             -1.3771   YY=              1.5402   ZZ=             -0.1630
   XY=              0.0000   XZ=              0.0000   YZ=              0.0000
 Octapole moment (field-independent basis, Debye-Ang**2):
  XXX=              0.0000  YYY=              0.0000  ZZZ=             -1.2172  XYY=              0.0000
  XXY=              0.0000  XXZ=             -0.3236  XZZ=              0.0000  YZZ=              0.0000
  YYZ=             -1.2129  XYZ=              0.0000
 Hexadecapole moment (field-independent basis, Debye-Ang**3):
 XXXX=             -5.2143 YYYY=             -6.0611 ZZZZ=             -6.2947 XXXY=              0.0000
 XXXZ=              0.0000 YYYX=              0.0000 YYYZ=              0.0000 ZZZX=              0.0000
 ZZZY=              0.0000 XXYY=             -2.1174 XXZZ=             -1.9680 YYZZ=             -1.7416
 XXYZ=              0.0000 YYXZ=              0.0000 ZZXY=              0.0000
 N-N=           9.087539 E-N=        -198.755327  KE=          75.819503
 Symmetry A1   KE=          67.659207
 Symmetry A2   KE=           0.000000
 Symmetry B1   KE=           4.599935
 Symmetry B2   KE=           3.560362
 No NMR shielding tensors so no spin-rotation constants.
 Leave Link  601 at Tue Mar 10 00:06:54 2026, MaxMem=  4294967296 cpu:               0.1 elap:               0.0
 (Enter /Users/vincenzobarone/gdv_j32p/gdv/l9999.exe)
 Unable to Open any file for archive entry.
 1\1\GINC-MACBOOK-PRO-DI-VINCENZO\FOpt\RB3LYP\6-31G(d)\H2O1\VINCENZOBAR
 ONE\10-Mar-2026\0\\#P B3LYP 6-31G* opt=tight\\h2o\\0,1\H,0.6662441158,
 -0.7615539378,0.\O,0.0675117684,0.,0.\H,0.6662441158,0.7615539378,0.\\
 Version=AppleM1-GDVRevJ.32+\State=1-A1\HF=-76.408954\RMSD=9.037e-09\RM
 SF=9.083e-08\Dipole=0.8243829,0.,0.\Quadrupole=-0.1212034,1.1450772,-1
 .0238738,0.,0.,0.\PG=C02V [C2(O1),SGV(H2)]\\@
 The archive entry for this job was punched.


 Happiness is a conscious choice, not an automatic response.
 -- Mildred Barthel
 Job cpu time:       0 days  0 hours  0 minutes  1.4 seconds.
 Elapsed time:       0 days  0 hours  0 minutes  1.4 seconds.
 File lengths (MBytes):  RWF=     22 Int=      0 D2E=      0 Chk=     17 Scr=      1
 Normal termination of Gaussian DV at Tue Mar 10 00:06:54 2026.
 Initial command:
 "/Users/vincenzobarone/gdv_j32p/gdv/l1.exe" -scrdir="/Users/vincenzobarone/Documents/GAUSSIAN_SCRATCH/" "/Users/vincenzobarone/Documents/GAUSSIAN_SCRATCH/Gau-39829.inp" "h2o.log" 
 Entering Link 1 = /Users/vincenzobarone/gdv_j32p/gdv/l1.exe PID=     39833.
  
 Copyright (c) 1988-2025, Gaussian, Inc.  All Rights Reserved.
  
 This is the private, development version of
 the Gaussian(R) DV system of programs. It is based on
 the Gaussian(R) 16 system (copyright 2016, Gaussian, Inc.),
 the Gaussian(R) 09 system (copyright 2009, Gaussian, Inc.),
 the Gaussian(R) 03 system (copyright 2003, Gaussian, Inc.),
 the Gaussian(R) 98 system (copyright 1998, Gaussian, Inc.),
 the Gaussian(R) 94 system (copyright 1995, Gaussian, Inc.),
 the Gaussian 92(TM) system (copyright 1992, Gaussian, Inc.),
 the Gaussian 90(TM) system (copyright 1990, Gaussian, Inc.),
 the Gaussian 88(TM) system (copyright 1988, Gaussian, Inc.),
 the Gaussian 86(TM) system (copyright 1986, Carnegie Mellon
 University), and the Gaussian 82(TM) system (copyright 1983,
 Carnegie Mellon University). Gaussian is a federally registered
 trademark of Gaussian, Inc.
  
 This software contains proprietary and confidential information,
 including trade secrets, belonging to Gaussian, Inc.
  
 This software is provided under written license and may be
 used, copied, transmitted, or stored only in accord with that
 written license.
  
 The following legend is applicable only to US Government
 contracts under FAR:
  
                    RESTRICTED RIGHTS LEGEND
  
 Use, reproduction and disclosure by the US Government is
 subject to restrictions as set forth in subparagraphs (a)
 and (c) of the Commercial Computer Software - Restricted
 Rights clause in FAR 52.227-19.
  
 Gaussian, Inc.
 340 Quinnipiac St., Bldg. 40, Wallingford CT 06492
  
  
 ---------------------------------------------------------------
 Warning -- This program may not be used in any manner that
 competes with the business of Gaussian, Inc. or will provide
 assistance to any competitor of Gaussian, Inc.  The licensee
 of this program is prohibited from giving any competitor of
 Gaussian, Inc. access to this program.  By using this program,
 the user acknowledges that Gaussian, Inc. is engaged in the
 business of creating and licensing software in the field of
 computational chemistry and represents and warrants to the
 licensee that it is not a competitor of Gaussian, Inc. and that
 it will not use this program in any manner prohibited above.
 ---------------------------------------------------------------
  

 Cite this work as:
 Gaussian Development Version, Revision J.32+,
 M. J. Frisch, G. W. Trucks, G. Scalmani, J. R. Cheeseman, X. Li, 
 J. Bloino, B. G. Janesko, A. V. Marenich, J. Zheng, F. Lipparini, 
 A. Jenkins, A. Liu, H. Liu, H. B. Schlegel, G. E. Scuseria, 
 M. A. Robb, V. Barone, G. A. Petersson, H. Nakatsuji, B. Mennucci, 
 C. Adamo, N. Rega, M. Caricato, H. P. Hratchian, J. V. Ortiz, 
 F. Pawlowski, A. F. Izmaylov, H. Hu, C. Liao, J. L. Sonnenberg, 
 D. Williams-Young, F. Ding, R. Gomperts, F. Egidi, J. Goings, 
 B. Peng, A. Petrone, T. Henderson, D. Ranasinghe, V. G. Zakrzewski, 
 J. Gao, G. Zheng, M. Mendolicchio, W. Liang, M. Hada, M. Ehara, 
 K. Toyota, R. Fukuda, J. Hasegawa, M. Ishida, T. Nakajima, Y. Honda, 
 O. Kitao, H. Nakai, T. Vreven, K. Throssell, J. A. Montgomery, Jr., 
 J. E. Peralta, F. Ogliaro, M. J. Bearpark, J. J. Heyd, 
 E. N. Brothers, K. N. Kudin, V. N. Staroverov, T. A. Keith, 
 R. Kobayashi, J. Normand, K. Raghavachari, A. P. Rendell, 
 J. C. Burant, S. S. Iyengar, M. Cossi, J. M. Millam, M. Klene, 
 R. Cammi, R. L. Martin, O. Farkas, J. B. Foresman, and D. J. Fox, 
 Gaussian, Inc., Wallingford CT, 2024.
 
 *********************************************
 Gaussian DV:  AppleM1-GDVRevJ.32+ 19-Oct-2025
                  10-Mar-2026 
 *********************************************
 %mem=32GB
 %NPROC=8
 Will use up to    8 processors via shared memory.
 %chk=h2o
 ----------------------------------------------------------------------
 #P Freq=ANHARM SYMM=COM geom=checkpoint guess=read chkbas iop(7/8=10,7
 /33=2)
 ----------------------------------------------------------------------
 1/10=4,29=2,30=1,38=21,80=1/1,6,3;
 2/12=2,21=2/2;
 3/5=7,6=2,11=9,14=-4,25=1,30=1,67=1,71=2,116=-2/1,2,3;
 4/5=1,69=2/1;
 5/5=2,8=3,13=1,38=6,98=1/2,8;
 8/6=4,10=90,11=11/1;
 11/6=1,8=1,9=11,15=111,16=1/1,2,10;
 10/6=1,60=-2/2;
 6/7=2,8=2,9=2,10=2,28=1/1;
 7/8=10,10=1,25=1,33=2,71=2/1,2,3,16;
 1/38=20,80=1/6(3);
 7/8=10,25=202,33=2,44=-1,71=1,92=10/16,17;
 1/10=4,30=1,38=20,80=1/3;
 99//99;
 3/5=7,6=1,11=9,14=-2,25=1,30=1,71=2,82=7,187=7/1,2,3;
 4/5=5,16=3,69=2/1;
 5/5=2,8=3,13=1,38=5,98=1/2,8;
 8/6=4,10=90,11=11/1;
 11/6=1,8=1,9=11,15=111,16=1/1,2,10;
 10/6=1,60=-2/2;
 6/7=2,8=2,9=2,10=2,28=1/1;
 7/7=1,8=10,10=1,25=1,33=2,71=1/1,2,3,16;
 1/38=20,80=1/6(-8);
 7/8=10,25=202,33=2,44=-1,71=1,92=10/16,17;
 1/10=4,30=1,38=20,80=1/3;
 99//99;
 Leave Link    1 at Tue Mar 10 00:06:54 2026, MaxMem=  4294967296 cpu:               0.0 elap:               0.0
 (Enter /Users/vincenzobarone/gdv_j32p/gdv/l101.exe)
 ---
 H20
 ---
 Structure from the checkpoint file:  "h2o.chk"
 Charge =     0 Multiplicity =     1
 Redundant internal coordinates found in file.  (GICs).
 H,0,0.6662441158,-0.7615539378,0.
 O,0,0.0675117684,0.,0.
 H,0,0.6662441158,0.7615539378,0.
 
 Recover connectivity data from disk.
 Reading GIC definitions from chk.
 Skipping GIC derivative info from chk, if any.
 No input coordinate modifications requested.
 Forming B-matrix definitions.
 Forming B-matrix derivative definitions.
 ITRead=  0  0  0
 MicOpt= -1 -1 -1
 NAtoms=      3 NQM=        3 NQMF=       0 NMMI=      0 NMMIF=      0
                NMic=       0 NMicF=      0.
                    Isotopes and Nuclear Properties:
 (Nuclear quadrupole moments (NQMom) in fm**2, nuclear magnetic moments (NMagM)
  in nuclear magnetons)

  Atom         1           2           3
 IAtWgt=           1          16           1
 AtmWgt=   1.0078250  15.9949146   1.0078250
 NucSpn=           1           0           1
 AtZEff=    1.000000    5.600000    1.000000
 NQMom=    0.0000000   0.0000000   0.0000000
 NMagM=    2.7928460   0.0000000   2.7928460
 AtZNuc=   1.0000000   8.0000000   1.0000000
 Leave Link  101 at Tue Mar 10 00:06:54 2026, MaxMem=  4294967296 cpu:               0.1 elap:               0.1
 (Enter /Users/vincenzobarone/gdv_j32p/gdv/l106.exe)
 Numerical evaluation of third derivatives.
 Nuclear step= 0.010000 Angstroms, electric field step= 0.003333 atomic units, NStep=1.
 Leave Link  106 at Tue Mar 10 00:06:54 2026, MaxMem=  4294967296 cpu:               0.0 elap:               0.0
 (Enter /Users/vincenzobarone/gdv_j32p/gdv/l103.exe)

 GradGradGradGradGradGradGradGradGradGradGradGradGradGradGradGradGradGrad
 Berny optimization.
 Initialization pass.
                           ----------------------------
                           !    Initial Parameters    !
                           ! (Angstroms and Degrees)  !
 --------------------------                            --------------------------
 ! Name  Definition              Value          Derivative Info.                !
 --------------------------------------------------------------------------------
 ! R1    R(1,2)                  0.9687         calculate D2E/DX2 analytically  !
 ! R2    R(2,3)                  0.9687         calculate D2E/DX2 analytically  !
 ! A1    A(1,2,3)              103.6513         calculate D2E/DX2 analytically  !
 --------------------------------------------------------------------------------
 Trust Radius=3.00D-01 FncErr=1.00D-07 GrdErr=1.00D-07 EigMax=2.50D+02 EigMin=1.00D-04
 Number of steps in this run=      2 maximum allowed number of steps=      2.
 GradGradGradGradGradGradGradGradGradGradGradGradGradGradGradGradGradGrad

 Leave Link  103 at Tue Mar 10 00:06:54 2026, MaxMem=  4294967296 cpu:               0.0 elap:               0.0
 (Enter /Users/vincenzobarone/gdv_j32p/gdv/l202.exe)
                          Input orientation:                          
 ---------------------------------------------------------------------
 Center     Atomic      Atomic             Coordinates (Angstroms)
 Number     Number       Type             X           Y           Z
 ---------------------------------------------------------------------
      1          1           0        0.666244   -0.761554    0.000000
      2          8           0        0.067512    0.000000    0.000000
      3          1           0        0.666244    0.761554    0.000000
 ---------------------------------------------------------------------
                    Distance matrix (angstroms):
                    1          2          3
     1  H    0.000000
     2  O    0.968734   0.000000
     3  H    1.523108   0.968734   0.000000
 Stoichiometry    H2O
 Framework group  C2V[C2(O),SGV(H2)]
 Deg. of freedom     2
 Full point group                 C2V     NOp   4
 RotChk:  IX=0 Diff= 4.76D-16
 Largest Abelian subgroup         C2V     NOp   4
 Largest concise Abelian subgroup C2      NOp   2
                         Standard orientation:                         
 ---------------------------------------------------------------------
 Center     Atomic      Atomic             Coordinates (Angstroms)
 Number     Number       Type             X           Y           Z
 ---------------------------------------------------------------------
      1          1           0        0.000000    0.761554   -0.531725
      2          8           0        0.000000    0.000000    0.067007
      3          1           0        0.000000   -0.761554   -0.531725
 ---------------------------------------------------------------------
 Rotational constants (GHZ):         787.5570433         432.3154182         279.1054502
 Leave Link  202 at Tue Mar 10 00:06:54 2026, MaxMem=  4294967296 cpu:               0.0 elap:               0.0
 (Enter /Users/vincenzobarone/gdv_j32p/gdv/l301.exe)
 Basis read from chk: "h2o.chk" (6D, 7F)
 No pseudopotential information found on chk file.
 There are    10 symmetry adapted cartesian basis functions of A1  symmetry.
 There are     1 symmetry adapted cartesian basis functions of A2  symmetry.
 There are     3 symmetry adapted cartesian basis functions of B1  symmetry.
 There are     5 symmetry adapted cartesian basis functions of B2  symmetry.
 There are    10 symmetry adapted basis functions of A1  symmetry.
 There are     1 symmetry adapted basis functions of A2  symmetry.
 There are     3 symmetry adapted basis functions of B1  symmetry.
 There are     5 symmetry adapted basis functions of B2  symmetry.
    19 basis functions,    36 primitive gaussians,    19 cartesian basis functions
     5 alpha electrons        5 beta electrons
       nuclear repulsion energy         9.0875394114 Hartrees.
 IExCor=         0 DFT=F Ex=HF Corr=None N6=None ScaHFX=  1.000000
 ScaDFX=  1.000000  1.000000  1.000000  1.000000  1.000000  0.000000
 ScaDFX=  0.000000  0.000000  0.000000  0.000000  0.000000  0.000000
 Grid=UltraFine IRanWt=     -1 IRanGd=            0 ICorTp=0 IEDCtl=  2004
 NAtoms=    3 NActive=    3 NUniq=    2 SFac= 2.25D+00 NAtFMM=   60 NAOKFM=F Big=F
 Integral buffers will be    131072 words long.
 Raffenetti 1 integral format.
 Two-electron integral symmetry is turned on.
 No density basis found on file 200724.
 Leave Link  301 at Tue Mar 10 00:06:54 2026, MaxMem=  4294967296 cpu:               0.0 elap:               0.0
 (Enter /Users/vincenzobarone/gdv_j32p/gdv/l302.exe)
 NPDir=0 NMtPBC=     1 NCelOv=     1 NCel=       1 NClECP=     1 NCelD=      1
         NCelK=      1 NCelE2=     1 NClLst=     1 CellRange=     0.0.
 One-electron integrals computed using PRISM.
 One-electron integral symmetry used in STVInt
 NBasis=    19 RedAO= T EigKep=  2.27D-02  NBF=    10     1     3     5
 NBsUse=    19 1.00D-06 EigRej= -1.00D+00 NBFU=    10     1     3     5
 Leave Link  302 at Tue Mar 10 00:06:54 2026, MaxMem=  4294967296 cpu:               0.1 elap:               0.0
 (Enter /Users/vincenzobarone/gdv_j32p/gdv/l303.exe)
 DipDrv:  MaxL=1.
 Leave Link  303 at Tue Mar 10 00:06:54 2026, MaxMem=  4294967296 cpu:               0.0 elap:               0.0
 (Enter /Users/vincenzobarone/gdv_j32p/gdv/l401.exe)
 Initial guess from the checkpoint file:  "h2o.chk"
 B after Tr=     0.000000    0.000000   -0.099663
         Rot=    1.000000    0.000000    0.000000    0.000000 Ang=   0.00 deg.
 AO Guess basis will be translated and rotated to current coordinates.
 JPrj=2 DoOrth=T DoCkMO=T.
 Initial guess orbital symmetries:
       Occupied  (A1) (A1) (B2) (A1) (B1)
       Virtual   (A1) (B2) (B2) (A1) (B1) (A1) (B2) (A1) (A1) (A2)
                 (B1) (A1) (B2) (A1)
 The electronic state of the initial guess is 1-A1.
 Leave Link  401 at Tue Mar 10 00:06:54 2026, MaxMem=  4294967296 cpu:               0.0 elap:               0.0
 (Enter /Users/vincenzobarone/gdv_j32p/gdv/l502.exe)
 Keep R1 ints in memory in symmetry-blocked form, NReq=1666949.
 FoFCou: FMM=F IPFlag=           0 FMFlag=           0 FMFlg1=           0
         NFxFlg=           0 DoJE=F BraDBF=F KetDBF=F FulRan=T
         wScrn=  0.000000 ICntrl=       600 IOpCl=  0 I1Cent=           0 NGrid=           0
         NMat0=    1 NMatS0=    190 NMatT0=    0 NMatD0=    1 NMtDS0=    0 NMtDT0=    0
 Petite list used in FoFCou.
 Closed shell SCF:
 Using DIIS extrapolation, IDIIS=  1040.
 NGot=  4294967296 LenX=  4294959046 LenY=  4294958164
 Requested convergence on RMS density matrix=1.00D-08 within  48 cycles.
 Requested convergence on MAX density matrix=1.00D-06.
 Requested convergence on             energy=1.00D-06.
 No special actions if energy rises.

 Cycle   1  Pass 1  IDiag  1:
 E= -76.0061103677150    
 DIIS: error= 2.21D-02 at cycle   1 NSaved=   1.
 NSaved= 1 IEnMin= 1 EnMin= -76.0061103677150     IErMin= 1 ErrMin= 2.21D-02
 ErrMax= 2.21D-02  0.00D+00 EMaxC= 1.00D-01 BMatC= 5.07D-03 BMatP= 5.07D-03
 Rises=F IDIUse=3 WtCom= 7.79D-01 WtEn= 2.21D-01
 Coeff-Com:  0.100D+01
 Coeff-En:   0.100D+01
 Coeff:      0.100D+01
 Gap=     0.709 Goal=   None    Shift=    0.000
 GapD=    0.709 DampG=2.000 DampE=0.500 DampFc=1.0000 IDamp=-1.
 RMSDP=5.17D-03 MaxDP=4.99D-02              OVMax= 1.52D-02

 Cycle   2  Pass 1  IDiag  1:
 E= -76.0096000819254     Delta-E=       -0.003489714210 Rises=F Damp=F AM=F Ri=F Fa=F
 DIIS: error= 2.41D-03 at cycle   2 NSaved=   2.
 NSaved= 2 IEnMin= 2 EnMin= -76.0096000819254     IErMin= 2 ErrMin= 2.41D-03
 ErrMax= 2.41D-03  0.00D+00 EMaxC= 1.00D-01 BMatC= 9.25D-05 BMatP= 5.07D-03
 Rises=F IDIUse=3 WtCom= 9.88D-01 WtEn= 1.18D-02
 Coeff-Com: -0.513D-01 0.105D+01
 Coeff-En:   0.000D+00 0.100D+01
 Coeff:     -0.507D-01 0.105D+01
 Gap=     0.711 Goal=   None    Shift=    0.000
 RMSDP=1.27D-03 MaxDP=9.21D-03 DE=-3.49D-03 OVMax= 6.41D-03

 Cycle   3  Pass 1  IDiag  1:
 E= -76.0097354293185     Delta-E=       -0.000135347393 Rises=F Damp=F AM=F Ri=F Fa=F
 DIIS: error= 1.89D-03 at cycle   3 NSaved=   3.
 NSaved= 3 IEnMin= 3 EnMin= -76.0097354293185     IErMin= 3 ErrMin= 1.89D-03
 ErrMax= 1.89D-03  0.00D+00 EMaxC= 1.00D-01 BMatC= 2.87D-05 BMatP= 9.25D-05
 Rises=F IDIUse=3 WtCom= 9.92D-01 WtEn= 8.21D-03
 Coeff-Com: -0.340D-01 0.382D+00 0.652D+00
 Coeff-En:   0.000D+00 0.000D+00 0.100D+01
 Coeff:     -0.337D-01 0.379D+00 0.655D+00
 Gap=     0.706 Goal=   None    Shift=    0.000
 RMSDP=2.08D-04 MaxDP=1.78D-03 DE=-1.35D-04 OVMax= 1.50D-03

 Cycle   4  Pass 1  IDiag  1:
 E= -76.0097734245366     Delta-E=       -0.000037995218 Rises=F Damp=F AM=F Ri=F Fa=F
 DIIS: error= 1.73D-04 at cycle   4 NSaved=   4.
 NSaved= 4 IEnMin= 4 EnMin= -76.0097734245366     IErMin= 4 ErrMin= 1.73D-04
 ErrMax= 1.73D-04  0.00D+00 EMaxC= 1.00D-01 BMatC= 2.33D-07 BMatP= 2.87D-05
 Rises=F IDIUse=3 WtCom= 1.00D+00 WtEn= 2.27D-04
 Coeff-Com:  0.514D-02-0.797D-01-0.132D+00 0.121D+01
 Coeff-En:   0.000D+00 0.000D+00 0.000D+00 0.100D+01
 Coeff:      0.514D-02-0.797D-01-0.132D+00 0.121D+01
 Gap=     0.706 Goal=   None    Shift=    0.000
 RMSDP=1.02D-04 MaxDP=5.06D-04 DE=-3.80D-05 OVMax= 7.75D-04

 Cycle   5  Pass 1  IDiag  1:
 E= -76.0097746895334     Delta-E=       -0.000001264997 Rises=F Damp=F AM=F Ri=F Fa=F
 DIIS: error= 5.82D-05 at cycle   5 NSaved=   5.
 NSaved= 5 IEnMin= 5 EnMin= -76.0097746895334     IErMin= 5 ErrMin= 5.82D-05
 ErrMax= 5.82D-05  0.00D+00 EMaxC= 1.00D-01 BMatC= 1.90D-08 BMatP= 2.33D-07
 Rises=F IDIUse=1 WtCom= 1.00D+00 WtEn= 0.00D+00
 Coeff-Com: -0.180D-02 0.326D-01 0.411D-01-0.564D+00 0.149D+01
 Coeff:     -0.180D-02 0.326D-01 0.411D-01-0.564D+00 0.149D+01
 Gap=     0.706 Goal=   None    Shift=    0.000
 RMSDP=2.57D-05 MaxDP=1.28D-04 DE=-1.26D-06 OVMax= 2.73D-04

 Cycle   6  Pass 1  IDiag  1:
 E= -76.0097748033670     Delta-E=       -0.000000113834 Rises=F Damp=F AM=F Ri=F Fa=F
 DIIS: error= 9.84D-06 at cycle   6 NSaved=   6.
 NSaved= 6 IEnMin= 6 EnMin= -76.0097748033670     IErMin= 6 ErrMin= 9.84D-06
 ErrMax= 9.84D-06  0.00D+00 EMaxC= 1.00D-01 BMatC= 5.64D-10 BMatP= 1.90D-08
 Rises=F IDIUse=1 WtCom= 1.00D+00 WtEn= 0.00D+00
 Coeff-Com: -0.190D-04-0.377D-03 0.747D-03 0.265D-01-0.241D+00 0.121D+01
 Coeff:     -0.190D-04-0.377D-03 0.747D-03 0.265D-01-0.241D+00 0.121D+01
 Gap=     0.706 Goal=   None    Shift=    0.000
 RMSDP=4.19D-06 MaxDP=2.74D-05 DE=-1.14D-07 OVMax= 4.37D-05

 Cycle   7  Pass 1  IDiag  1:
 E= -76.0097748065024     Delta-E=       -0.000000003135 Rises=F Damp=F AM=F Ri=F Fa=F
 DIIS: error= 1.31D-06 at cycle   7 NSaved=   7.
 NSaved= 7 IEnMin= 7 EnMin= -76.0097748065024     IErMin= 7 ErrMin= 1.31D-06
 ErrMax= 1.31D-06  0.00D+00 EMaxC= 1.00D-01 BMatC= 1.56D-11 BMatP= 5.64D-10
 Rises=F IDIUse=1 WtCom= 1.00D+00 WtEn= 0.00D+00
 Coeff-Com:  0.565D-04-0.922D-03-0.122D-02 0.107D-01 0.349D-02-0.232D+00
 Coeff-Com:  0.122D+01
 Coeff:      0.565D-04-0.922D-03-0.122D-02 0.107D-01 0.349D-02-0.232D+00
 Coeff:      0.122D+01
 Gap=     0.706 Goal=   None    Shift=    0.000
 RMSDP=5.00D-07 MaxDP=3.54D-06 DE=-3.14D-09 OVMax= 4.27D-06

 Cycle   8  Pass 1  IDiag  1:
 E= -76.0097748065688     Delta-E=       -0.000000000066 Rises=F Damp=F AM=F Ri=F Fa=F
 DIIS: error= 2.62D-07 at cycle   8 NSaved=   8.
 NSaved= 8 IEnMin= 8 EnMin= -76.0097748065688     IErMin= 8 ErrMin= 2.62D-07
 ErrMax= 2.62D-07  0.00D+00 EMaxC= 1.00D-01 BMatC= 6.86D-13 BMatP= 1.56D-11
 Rises=F IDIUse=1 WtCom= 1.00D+00 WtEn= 0.00D+00
 Coeff-Com: -0.177D-04 0.314D-03 0.468D-03-0.480D-02 0.857D-02 0.295D-01
 Coeff-Com: -0.369D+00 0.133D+01
 Coeff:     -0.177D-04 0.314D-03 0.468D-03-0.480D-02 0.857D-02 0.295D-01
 Coeff:     -0.369D+00 0.133D+01
 Gap=     0.706 Goal=   None    Shift=    0.000
 RMSDP=8.52D-08 MaxDP=6.22D-07 DE=-6.64D-11 OVMax= 8.54D-07

 Cycle   9  Pass 1  IDiag  1:
 E= -76.0097748065712     Delta-E=       -0.000000000002 Rises=F Damp=F AM=F Ri=F Fa=F
 DIIS: error= 3.64D-08 at cycle   9 NSaved=   9.
 NSaved= 9 IEnMin= 9 EnMin= -76.0097748065712     IErMin= 9 ErrMin= 3.64D-08
 ErrMax= 3.64D-08  0.00D+00 EMaxC= 1.00D-01 BMatC= 7.32D-15 BMatP= 6.86D-13
 Rises=F IDIUse=1 WtCom= 1.00D+00 WtEn= 0.00D+00
 Coeff-Com:  0.562D-05-0.998D-04-0.157D-03 0.156D-02-0.300D-02-0.760D-02
 Coeff-Com:  0.114D+00-0.468D+00 0.136D+01
 Coeff:      0.562D-05-0.998D-04-0.157D-03 0.156D-02-0.300D-02-0.760D-02
 Coeff:      0.114D+00-0.468D+00 0.136D+01
 Gap=     0.706 Goal=   None    Shift=    0.000
 RMSDP=1.01D-08 MaxDP=8.39D-08 DE=-2.42D-12 OVMax= 8.57D-08

 Cycle  10  Pass 1  IDiag  1:
 E= -76.0097748065713     Delta-E=        0.000000000000 Rises=F Damp=F AM=F Ri=F Fa=F
 DIIS: error= 4.73D-09 at cycle  10 NSaved=  10.
 NSaved=10 IEnMin=10 EnMin= -76.0097748065713     IErMin=10 ErrMin= 4.73D-09
 ErrMax= 4.73D-09  0.00D+00 EMaxC= 1.00D-01 BMatC= 8.53D-17 BMatP= 7.32D-15
 Rises=F IDIUse=1 WtCom= 1.00D+00 WtEn= 0.00D+00
 Coeff-Com: -0.947D-06 0.170D-04 0.273D-04-0.272D-03 0.549D-03 0.110D-02
 Coeff-Com: -0.194D-01 0.843D-01-0.325D+00 0.126D+01
 Coeff:     -0.947D-06 0.170D-04 0.273D-04-0.272D-03 0.549D-03 0.110D-02
 Coeff:     -0.194D-01 0.843D-01-0.325D+00 0.126D+01
 Gap=     0.706 Goal=   None    Shift=    0.000
 RMSDP=1.15D-09 MaxDP=1.02D-08 DE=-2.84D-14 OVMax= 8.25D-09

 SCF Done:  E(RHF) =  -76.0097748066     A.U. after   10 cycles
            NFock= 10  Conv=0.12D-08     -V/T= 2.0031
 KE=          75.778170 PE=        -198.638736 EE=          37.763251
 Leave Link  502 at Tue Mar 10 00:06:54 2026, MaxMem=  4294967296 cpu:               0.1 elap:               0.0
 (Enter /Users/vincenzobarone/gdv_j32p/gdv/l508.exe)
 QCSCF skips out because SCF is already converged.
 Leave Link  508 at Tue Mar 10 00:06:54 2026, MaxMem=  4294967296 cpu:               0.0 elap:               0.0
 (Enter /Users/vincenzobarone/gdv_j32p/gdv/l801.exe)
 Range of M.O.s used for correlation:     1    19
 NBasis=    19 NAE=     5 NBE=     5 NFC=     0 NFV=     0
 NROrb=     19 NOA=     5 NOB=     5 NVA=    14 NVB=    14
 Leave Link  801 at Tue Mar 10 00:06:54 2026, MaxMem=  4294967296 cpu:               0.0 elap:               0.0
 (Enter /Users/vincenzobarone/gdv_j32p/gdv/l1101.exe)
 Using compressed storage, NAtomX=     3.
 Will process      4 centers per pass.
 Leave Link 1101 at Tue Mar 10 00:06:54 2026, MaxMem=  4294967296 cpu:               0.1 elap:               0.0
 (Enter /Users/vincenzobarone/gdv_j32p/gdv/l1102.exe)
 Symmetrizing basis deriv contribution to polar:
 IMax=3 JMax=2 DiffMx= 0.00D+00
 Leave Link 1102 at Tue Mar 10 00:06:54 2026, MaxMem=  4294967296 cpu:               0.0 elap:               0.0
 (Enter /Users/vincenzobarone/gdv_j32p/gdv/l1110.exe)
 Forming Gx(P) for the SCF density, NAtomX=     3.
 Integral derivatives from FoFJK, PRISM(SPDF).
 Do as many integral derivatives as possible in FoFJK.
 G2DrvN: MDV=    4294966829.
 G2DrvN: will do     4 centers at a time, making    1 passes.
 Calling FoFCou, ICntrl=  3107 FMM=F I1Cent=   0 AccDes= 0.00D+00.
 FoFJK:  IHMeth= 1 ICntrl=    3107 DoSepK=F KAlg= 0 I1Cent=           0 FoldK=F
 IRaf=         0 NMat=       1 IRICut=       1 DoRegI=T DoRafI=F ISym2E= 1 IDoP0=0 IntGTp=1.
 FoFCou: FMM=F IPFlag=           0 FMFlag=      100000 FMFlg1=           0
         NFxFlg=           0 DoJE=F BraDBF=F KetDBF=F FulRan=T
         wScrn=  0.000000 ICntrl=      3107 IOpCl=  0 I1Cent=           0 NGrid=           0
         NMat0=    1 NMatS0=      1 NMatT0=    0 NMatD0=    1 NMtDS0=    0 NMtDT0=    0
 Petite list used in FoFCou.
 End of G2Drv FD prop file    721 does not exist.
 End of G2Drv FD prop file    722 does not exist.
 End of G2Drv FD prop file    788 does not exist.
 End of G2Drv FD prop file    804 does not exist.
 Leave Link 1110 at Tue Mar 10 00:06:54 2026, MaxMem=  4294967296 cpu:               0.2 elap:               0.1
 (Enter /Users/vincenzobarone/gdv_j32p/gdv/l1002.exe)
 Minotr:  Closed shell wavefunction.
          IDoAtm=111
          Direct CPHF calculation.
          Differentiating once with respect to electric field.
                with respect to dipole field.
          Differentiating once with respect to nuclear coordinates.
          Using symmetry in CPHF.
          Requested convergence is 1.0D-08 RMS, and 1.0D-07 maximum.
          Secondary convergence is 1.0D-12 RMS, and 1.0D-12 maximum.
          NewPWx=T KeepS1=F KeepF1=F KeepIn=T MapXYZ=F SortEE=F KeepMc=T.
 Keep R1 ints in memory in symmetry-blocked form, NReq=1667513.
 FoFCou: FMM=F IPFlag=           0 FMFlag=           0 FMFlg1=           0
         NFxFlg=           0 DoJE=F BraDBF=F KetDBF=F FulRan=T
         wScrn=  0.000000 ICntrl=       600 IOpCl=  0 I1Cent=           0 NGrid=           0
         NMat0=    1 NMatS0=    190 NMatT0=    0 NMatD0=    1 NMtDS0=    0 NMtDT0=    0
 Petite list used in FoFCou.
          MDV=    4294967296 using Grid=Fine.
          Solving linear equations simultaneously, MaxMat=       0.
          There are     9 degrees of freedom in the 1st order CPHF.  IDoFFX=4 NUNeed=     9.
      9 vectors produced by pass  0 Test12= 7.78D-16 1.11D-08 XBig12= 1.24D+00 7.70D-01.
 AX will form     9 AO Fock derivatives at one time.
      9 vectors produced by pass  1 Test12= 7.78D-16 1.11D-08 XBig12= 5.81D-02 1.28D-01.
      9 vectors produced by pass  2 Test12= 7.78D-16 1.11D-08 XBig12= 8.96D-04 1.36D-02.
      9 vectors produced by pass  3 Test12= 7.78D-16 1.11D-08 XBig12= 3.73D-06 9.83D-04.
      9 vectors produced by pass  4 Test12= 7.78D-16 1.11D-08 XBig12= 1.31D-08 6.16D-05.
      6 vectors produced by pass  5 Test12= 7.78D-16 1.11D-08 XBig12= 2.24D-11 1.94D-06.
      2 vectors produced by pass  6 Test12= 7.78D-16 1.11D-08 XBig12= 1.36D-13 1.70D-07.
 InvSVY:  IOpt=1 It=  1 EMax= 2.22D-16
 Solved reduced A of dimension    53 with     9 vectors.
 FullF1:  Do perturbations      1 to       9.
 Isotropic polarizability for W=    0.000000        4.98 Bohr**3.
 End of Minotr FD prop file    721 does not exist.
 End of Minotr FD prop file    722 does not exist.
 End of Minotr FD prop file    788 does not exist.
 End of Minotr FD prop file    804 does not exist.
 Leave Link 1002 at Tue Mar 10 00:06:54 2026, MaxMem=  4294967296 cpu:               0.1 elap:               0.1
 (Enter /Users/vincenzobarone/gdv_j32p/gdv/l601.exe)
 Copying SCF densities to generalized density rwf, IOpCl= 0 IROHF=0.
 
 **********************************************************************
 
               Population analysis using the SCF Density.
 
 **********************************************************************
 
 Orbital symmetries:
       Occupied  (A1) (A1) (B2) (A1) (B1)
       Virtual   (A1) (B2) (B2) (A1) (A1) (B1) (B2) (A1) (A1) (A2)
                 (B1) (A1) (B2) (A1)
 The electronic state is 1-A1.
 Alpha  occ. eigenvalues --      -20.56313      -1.33665      -0.69908      -0.57068      -0.49749
 Alpha virt. eigenvalues --        0.20812       0.30091       1.01373       1.12871       1.16354
 Alpha virt. eigenvalues --        1.16756       1.37642       1.43675       2.02054       2.03719
 Alpha virt. eigenvalues --        2.06877       2.60754       2.92584       3.96293
          Condensed to atoms (all electrons):
               1          2          3
     1  H    0.324557   0.262529  -0.018854
     2  O    0.262529   8.338477   0.262529
     3  H   -0.018854   0.262529   0.324557
 Mulliken charges:
               1
     1  H    0.431768
     2  O   -0.863535
     3  H    0.431768
 Sum of Mulliken charges=   0.00000
 Mulliken charges with hydrogens summed into heavy atoms:
               1
     2  O    0.000000
 APT charges:
               1
     1  H    0.288522
     2  O   -0.577045
     3  H    0.288522
 Sum of APT charges=   0.00000
 APT charges with hydrogens summed into heavy atoms:
               1
     2  O    0.000000
 Electronic spatial extent (au):  <R**2>=             19.0187
 Charge=              0.0000 electrons
 Dipole moment (field-independent basis, Debye):
    X=              0.0000    Y=              0.0000    Z=             -2.2497  Tot=              2.2497
 Quadrupole moment (field-independent basis, Debye-Ang):
   XX=             -7.2505   YY=             -4.1494   ZZ=             -5.7211
   XY=              0.0000   XZ=              0.0000   YZ=              0.0000
 Traceless Quadrupole moment (field-independent basis, Debye-Ang):
   XX=             -1.5435   YY=              1.5576   ZZ=             -0.0141
   XY=              0.0000   XZ=              0.0000   YZ=              0.0000
 Octapole moment (field-independent basis, Debye-Ang**2):
  XXX=              0.0000  YYY=              0.0000  ZZZ=             -0.5341  XYY=              0.0000
  XXY=              0.0000  XXZ=              0.0021  XZZ=              0.0000  YZZ=              0.0000
  YYZ=             -1.1925  XYZ=              0.0000
 Hexadecapole moment (field-independent basis, Debye-Ang**3):
 XXXX=             -5.2335 YYYY=             -5.5798 ZZZZ=             -5.9390 XXXY=              0.0000
 XXXZ=              0.0000 YYYX=              0.0000 YYYZ=              0.0000 ZZZX=              0.0000
 ZZZY=              0.0000 XXYY=             -2.0694 XXZZ=             -1.9318 YYZZ=             -1.4568
 XXYZ=              0.0000 YYXZ=              0.0000 ZZXY=              0.0000
 N-N=           9.087539 E-N=        -198.638736  KE=          75.778170
 Symmetry A1   KE=          67.720336
 Symmetry A2   KE=           0.000000
 Symmetry B1   KE=           4.558303
 Symmetry B2   KE=           3.499531
 No NMR shielding tensors so no spin-rotation constants.
 Leave Link  601 at Tue Mar 10 00:06:54 2026, MaxMem=  4294967296 cpu:               0.1 elap:               0.0
 (Enter /Users/vincenzobarone/gdv_j32p/gdv/l701.exe)
 GetPMM: IRwPM=    824 LRwPM=      0 LPMAll=      2
 SCFChk:  SCF convergence  1.15D-09 required  1.00D-08
 AtDip 
                 1             2             3 
      1   0.000000D+00  0.000000D+00  0.000000D+00
      2   0.000000D+00  0.000000D+00  0.000000D+00
      3   0.000000D+00  0.000000D+00  0.000000D+00
 AtQua 
                 1             2             3             4             5 
      1   0.000000D+00  0.000000D+00  0.000000D+00  0.000000D+00  0.000000D+00
      2   0.000000D+00  0.000000D+00  0.000000D+00  0.000000D+00  0.000000D+00
      3   0.000000D+00  0.000000D+00  0.000000D+00  0.000000D+00  0.000000D+00
                 6 
      1   0.000000D+00
      2   0.000000D+00
      3   0.000000D+00
 AtPol 
                 1 
      1   0.000000D+00
      2   0.000000D+00
      3   0.000000D+00
 Pair potential:
 ... and contract with generalized density number  0.
 Compute integral second derivatives.
 FFX after V2NN 
                1             2             3             4             5 
      1  0.000000D+00
      2  0.000000D+00  0.000000D+00
      3  0.000000D+00  0.000000D+00  0.000000D+00
      4  0.000000D+00  0.000000D+00  0.000000D+00 -0.134595D+01
      5  0.000000D+00  0.000000D+00  0.000000D+00  0.000000D+00  0.119752D+01
      6  0.000000D+00  0.000000D+00  0.000000D+00  0.000000D+00 -0.190076D+01
      7  0.000000D+00  0.000000D+00  0.000000D+00  0.130401D+01  0.000000D+00
      8  0.000000D+00  0.000000D+00  0.000000D+00  0.000000D+00 -0.111365D+01
      9  0.000000D+00  0.000000D+00  0.000000D+00  0.000000D+00  0.190076D+01
     10  0.000000D+00  0.000000D+00  0.000000D+00  0.419384D-01  0.000000D+00
     11  0.000000D+00  0.000000D+00  0.000000D+00  0.000000D+00 -0.838767D-01
     12  0.000000D+00  0.000000D+00  0.000000D+00  0.000000D+00  0.000000D+00
                6             7             8             9            10 
      6  0.148424D+00
      7  0.000000D+00 -0.260802D+01
      8  0.190076D+01  0.000000D+00  0.222729D+01
      9 -0.190362D+00  0.000000D+00  0.000000D+00  0.380725D+00
     10  0.000000D+00  0.130401D+01  0.000000D+00  0.000000D+00 -0.134595D+01
     11  0.000000D+00  0.000000D+00 -0.111365D+01 -0.190076D+01  0.000000D+00
     12  0.419384D-01  0.000000D+00 -0.190076D+01 -0.190362D+00  0.000000D+00
               11            12 
     11  0.119752D+01
     12  0.190076D+01  0.148424D+00
 Entering OneElI...
 OneElI was handed  4294965829 working-precision words.
 Calculate overlap and kinetic energy integrals
    NBasis =  19  MinDer = 2  MaxDer = 2
 Requested accuracy = 0.1000D-12
 ShPair: Thresh= 1.00D-13 NBox=     0 BxSize= 0.00D+00 RnKept= 2.88D+00
         NSMCal=                   36 NSMKep=                  36
 PrmmSu-InSpLW:  IPartL=    0 NPrtUS=    8 NPrtUL=    1 DoSpLW=F IThBeg=    0 IThEnd=    7 NThAct=    8.
 PrSmSu:  IncTry=   512 NBBP=             36 NTPThr=   100 NPartT=    8 Incr=           1 LDynOK=F GPUOK=F.
 PrsmSu:  NPrtUS=   8 ThrOK=T IAlg=2 LenDen=           0 ISkipM=0 DoSpLW=F IThBeg=    0 IThEnd=    7.
 PRISM was handed   536866286 working-precision words and    36 shell-pairs
 PRISM was handed   536866286 working-precision words and    36 shell-pairs
 PRISM was handed   536866286 working-precision words and    36 shell-pairs
 PRISM was handed   536866286 working-precision words and    36 shell-pairs
 PRISM was handed   536866286 working-precision words and    36 shell-pairs
 PRISM was handed   536866286 working-precision words and    36 shell-pairs
 PRISM was handed   536866286 working-precision words and    36 shell-pairs
 Prism:   IPart=     0 DynPar=F LinDyn=F Incr=           1.
 PRISM was handed   536866286 working-precision words and    36 shell-pairs
 IPart=  7 NShTot=           0 NBatch=           0 AvBLen=         0.0
 PrsmSu-ThDecC:  IPartSL=    7    0 NPrtUSL=    8    1 IThBeg=    0 IThEnd=    7 CPU=   -1 GPU=   -1 NThAct=    8.
 IPart=  2 NShTot=           3 NBatch=           3 AvBLen=         1.0
 PrsmSu-ThDecC:  IPartSL=    2    0 NPrtUSL=    8    1 IThBeg=    0 IThEnd=    7 CPU=   -1 GPU=   -1 NThAct=    7.
 IPart=  6 NShTot=           0 NBatch=           0 AvBLen=         0.0
 PrsmSu-ThDecC:  IPartSL=    6    0 NPrtUSL=    8    1 IThBeg=    0 IThEnd=    7 CPU=   -1 GPU=   -1 NThAct=    6.
 IPart=  5 NShTot=           0 NBatch=           0 AvBLen=         0.0
 PrsmSu-ThDecC:  IPartSL=    5    0 NPrtUSL=    8    1 IThBeg=    0 IThEnd=    7 CPU=   -1 GPU=   -1 NThAct=    5.
 IPart=  4 NShTot=           0 NBatch=           0 AvBLen=         0.0
 PrsmSu-ThDecC:  IPartSL=    4    0 NPrtUSL=    8    1 IThBeg=    0 IThEnd=    7 CPU=   -1 GPU=   -1 NThAct=    4.
 IPart=  1 NShTot=          10 NBatch=          10 AvBLen=         1.0
 PrsmSu-ThDecC:  IPartSL=    1    0 NPrtUSL=    8    1 IThBeg=    0 IThEnd=    7 CPU=   -1 GPU=   -1 NThAct=    3.
 IPart=  3 NShTot=           2 NBatch=           2 AvBLen=         1.0
 PrsmSu-ThDecC:  IPartSL=    3    0 NPrtUSL=    8    1 IThBeg=    0 IThEnd=    7 CPU=   -1 GPU=   -1 NThAct=    2.
 IPart=  0 NShTot=          21 NBatch=          21 AvBLen=         1.0
 PrsmSu-ThDecC:  IPartSL=    0    0 NPrtUSL=    8    1 IThBeg=    0 IThEnd=    7 CPU=   -1 GPU=   -1 NThAct=    1.
 PrSmSu:  NxtVal=              9.
 FFX after D2ST 
                1             2             3             4             5 
      1  0.000000D+00
      2  0.000000D+00  0.000000D+00
      3  0.000000D+00  0.000000D+00  0.000000D+00
      4  0.000000D+00  0.000000D+00  0.000000D+00 -0.205021D+01
      5  0.000000D+00  0.000000D+00  0.000000D+00  0.000000D+00  0.121800D+01
      6  0.000000D+00  0.000000D+00  0.000000D+00  0.000000D+00 -0.245475D+01
      7  0.000000D+00  0.000000D+00  0.000000D+00  0.201744D+01  0.000000D+00
      8  0.000000D+00  0.000000D+00  0.000000D+00  0.000000D+00 -0.115349D+01
      9  0.000000D+00  0.000000D+00  0.000000D+00  0.000000D+00  0.245475D+01
     10  0.000000D+00  0.000000D+00  0.000000D+00  0.327780D-01  0.000000D+00
     11  0.000000D+00  0.000000D+00  0.000000D+00  0.000000D+00 -0.645086D-01
     12  0.000000D+00  0.000000D+00  0.000000D+00  0.000000D+00  0.000000D+00
                6             7             8             9            10 
      6 -0.152532D+00
      7  0.000000D+00 -0.403487D+01
      8  0.245475D+01  0.000000D+00  0.230698D+01
      9  0.119754D+00  0.000000D+00  0.000000D+00 -0.239507D+00
     10  0.000000D+00  0.201744D+01  0.000000D+00  0.000000D+00 -0.205021D+01
     11  0.000000D+00  0.000000D+00 -0.115349D+01 -0.245475D+01  0.000000D+00
     12  0.327780D-01  0.000000D+00 -0.245475D+01  0.119754D+00  0.000000D+00
               11            12 
     11  0.121800D+01
     12  0.245475D+01 -0.152532D+00
 Entering OneElI...
 OneElI was handed  4294965829 working-precision words.
 Calculate potential energy integrals
    NBasis =  19  MinDer = 2  MaxDer = 2
 Requested accuracy = 0.1000D-12
 ShPair: Thresh= 1.00D-13 NBox=     0 BxSize= 0.00D+00 RnKept= 2.88D+00
         NSMCal=                   36 NSMKep=                  36
 PrmmSu-InSpLW:  IPartL=    0 NPrtUS=    8 NPrtUL=    1 DoSpLW=F IThBeg=    0 IThEnd=    7 NThAct=    8.
 PrSmSu:  IncTry=   512 NBBP=            108 NTPThr=   100 NPartT=    8 Incr=           1 LDynOK=F GPUOK=F.
 PrsmSu:  NPrtUS=   8 ThrOK=T IAlg=2 LenDen=           0 ISkipM=0 DoSpLW=F IThBeg=    0 IThEnd=    7.
 PRISM was handed   536866371 working-precision words and    36 shell-pairs
 PRISM was handed   536866371 working-precision words and    36 shell-pairs
 PRISM was handed   536866371 working-precision words and    36 shell-pairs
 PRISM was handed   536866371 working-precision words and    36 shell-pairs
 PRISM was handed   536866371 working-precision words and    36 shell-pairs
 PRISM was handed   536866371 working-precision words and    36 shell-pairs
 PRISM was handed   536866371 working-precision words and    36 shell-pairs
 Prism:   IPart=     0 DynPar=F LinDyn=F Incr=           1.
 PRISM was handed   536866371 working-precision words and    36 shell-pairs
 IPart=  4 NShTot=           0 NBatch=           0 AvBLen=         0.0
 PrsmSu-ThDecC:  IPartSL=    4    0 NPrtUSL=    8    1 IThBeg=    0 IThEnd=    7 CPU=   -1 GPU=   -1 NThAct=    8.
 IPart=  2 NShTot=           9 NBatch=           3 AvBLen=         3.0
 PrsmSu-ThDecC:  IPartSL=    2    0 NPrtUSL=    8    1 IThBeg=    0 IThEnd=    7 CPU=   -1 GPU=   -1 NThAct=    7.
 IPart=  5 NShTot=           0 NBatch=           0 AvBLen=         0.0
 PrsmSu-ThDecC:  IPartSL=    5    0 NPrtUSL=    8    1 IThBeg=    0 IThEnd=    7 CPU=   -1 GPU=   -1 NThAct=    6.
 IPart=  7 NShTot=           0 NBatch=           0 AvBLen=         0.0
 PrsmSu-ThDecC:  IPartSL=    7    0 NPrtUSL=    8    1 IThBeg=    0 IThEnd=    7 CPU=   -1 GPU=   -1 NThAct=    5.
 IPart=  6 NShTot=           0 NBatch=           0 AvBLen=         0.0
 PrsmSu-ThDecC:  IPartSL=    6    0 NPrtUSL=    8    1 IThBeg=    0 IThEnd=    7 CPU=   -1 GPU=   -1 NThAct=    4.
 IPart=  3 NShTot=           6 NBatch=           2 AvBLen=         3.0
 PrsmSu-ThDecC:  IPartSL=    3    0 NPrtUSL=    8    1 IThBeg=    0 IThEnd=    7 CPU=   -1 GPU=   -1 NThAct=    3.
 IPart=  1 NShTot=          30 NBatch=          10 AvBLen=         3.0
 PrsmSu-ThDecC:  IPartSL=    1    0 NPrtUSL=    8    1 IThBeg=    0 IThEnd=    7 CPU=   -1 GPU=   -1 NThAct=    2.
 IPart=  0 NShTot=          63 NBatch=          21 AvBLen=         3.0
 PrsmSu-ThDecC:  IPartSL=    0    0 NPrtUSL=    8    1 IThBeg=    0 IThEnd=    7 CPU=   -1 GPU=   -1 NThAct=    1.
 PrSmSu:  NxtVal=              9.
 FFX after D2V 
                1             2             3             4             5 
      1  0.000000D+00
      2  0.000000D+00  0.000000D+00
      3  0.000000D+00  0.000000D+00  0.000000D+00
      4  0.000000D+00  0.000000D+00  0.000000D+00  0.217423D+01
      5  0.000000D+00  0.000000D+00  0.000000D+00  0.000000D+00  0.840964D+00
      6  0.000000D+00  0.000000D+00  0.000000D+00  0.000000D+00  0.107603D+01
      7  0.000000D+00  0.000000D+00  0.000000D+00 -0.221172D+01  0.000000D+00
      8  0.000000D+00  0.000000D+00  0.000000D+00  0.000000D+00 -0.791865D+00
      9  0.000000D+00  0.000000D+00  0.000000D+00  0.000000D+00 -0.105302D+01
     10  0.000000D+00  0.000000D+00  0.000000D+00  0.374907D-01  0.000000D+00
     11  0.000000D+00  0.000000D+00  0.000000D+00  0.000000D+00 -0.490987D-01
     12  0.000000D+00  0.000000D+00  0.000000D+00  0.000000D+00 -0.230131D-01
                6             7             8             9            10 
      6  0.145925D+01
      7  0.000000D+00  0.442344D+01
      8 -0.109905D+01  0.000000D+00  0.158373D+01
      9 -0.151786D+01  0.000000D+00  0.000000D+00  0.303573D+01
     10  0.000000D+00 -0.221172D+01  0.000000D+00  0.000000D+00  0.217423D+01
     11  0.230131D-01  0.000000D+00 -0.791865D+00  0.105302D+01  0.000000D+00
     12  0.586114D-01  0.000000D+00  0.109905D+01 -0.151786D+01  0.000000D+00
               11            12 
     11  0.840964D+00
     12 -0.107603D+01  0.145925D+01
 Second derivatives from L701 IAtSt=0:
                1             2             3             4             5 
      1  0.000000D+00
      2  0.000000D+00  0.000000D+00
      3  0.000000D+00  0.000000D+00  0.000000D+00
      4  0.000000D+00  0.000000D+00  0.000000D+00  0.217423D+01
      5  0.000000D+00  0.000000D+00  0.000000D+00  0.000000D+00  0.840964D+00
      6  0.000000D+00  0.000000D+00  0.000000D+00  0.000000D+00  0.107603D+01
      7  0.000000D+00  0.000000D+00  0.000000D+00 -0.221172D+01  0.000000D+00
      8  0.000000D+00  0.000000D+00  0.000000D+00  0.000000D+00 -0.791865D+00
      9  0.000000D+00  0.000000D+00  0.000000D+00  0.000000D+00 -0.105302D+01
     10  0.000000D+00  0.000000D+00  0.000000D+00  0.374907D-01  0.000000D+00
     11  0.000000D+00  0.000000D+00  0.000000D+00  0.000000D+00 -0.490987D-01
     12  0.000000D+00  0.000000D+00  0.000000D+00  0.000000D+00 -0.230131D-01
                6             7             8             9            10 
      6  0.145925D+01
      7  0.000000D+00  0.442344D+01
      8 -0.109905D+01  0.000000D+00  0.158373D+01
      9 -0.151786D+01  0.000000D+00  0.000000D+00  0.303573D+01
     10  0.000000D+00 -0.221172D+01  0.000000D+00  0.000000D+00  0.217423D+01
     11  0.230131D-01  0.000000D+00 -0.791865D+00  0.105302D+01  0.000000D+00
     12  0.586114D-01  0.000000D+00  0.109905D+01 -0.151786D+01  0.000000D+00
               11            12 
     11  0.840964D+00
     12 -0.107603D+01  0.145925D+01
 Polarizability into L701:
                1             2             3 
      1  0.276024D+01
      2  0.000000D+00  0.708327D+01
      3  0.000000D+00  0.000000D+00  0.510680D+01
 Polarizability after L701:
                1             2             3 
      1  0.276024D+01
      2  0.000000D+00  0.708327D+01
      3  0.000000D+00  0.000000D+00  0.510680D+01
 Dipole Derivatives into L701:
                 1             2             3             4             5 
      1   0.391145D+00  0.000000D+00  0.000000D+00 -0.782290D+00  0.000000D+00
      2   0.000000D+00  0.253167D+00  0.108478D+00  0.000000D+00 -0.506334D+00
      3   0.000000D+00  0.642172D-01  0.221255D+00  0.000000D+00  0.000000D+00
                 6             7             8             9 
      1   0.000000D+00  0.391145D+00  0.000000D+00  0.000000D+00
      2   0.000000D+00  0.000000D+00  0.253167D+00 -0.108478D+00
      3  -0.442511D+00  0.000000D+00 -0.642172D-01  0.221255D+00
 Dipole Derivatives after L701:
                 1             2             3             4             5 
      1   0.391145D+00  0.000000D+00  0.000000D+00 -0.782290D+00  0.000000D+00
      2   0.000000D+00  0.253167D+00  0.108478D+00  0.000000D+00 -0.506334D+00
      3   0.000000D+00  0.642172D-01  0.221255D+00  0.000000D+00  0.000000D+00
                 6             7             8             9 
      1   0.000000D+00  0.391145D+00  0.000000D+00  0.000000D+00
      2   0.000000D+00  0.000000D+00  0.253167D+00 -0.108478D+00
      3  -0.442511D+00  0.000000D+00 -0.642172D-01  0.221255D+00
 Hessian into L701:
                1             2             3             4             5 
      1  0.258883D-01
      2  0.000000D+00  0.139029D+00
      3  0.000000D+00 -0.776651D-01  0.810132D-01
      4 -0.125205D-01  0.000000D+00  0.000000D+00  0.250410D-01
      5  0.000000D+00 -0.121262D+00  0.150374D+00  0.000000D+00  0.242524D+00
      6  0.000000D+00  0.495658D-02 -0.717115D-01  0.000000D+00  0.000000D+00
      7 -0.133678D-01  0.000000D+00  0.000000D+00 -0.125205D-01  0.000000D+00
      8  0.000000D+00 -0.177668D-01 -0.727085D-01  0.000000D+00 -0.121262D+00
      9  0.000000D+00  0.727085D-01 -0.930170D-02  0.000000D+00 -0.150374D+00
                6             7             8             9 
      6  0.143423D+00
      7  0.000000D+00  0.258883D-01
      8 -0.495658D-02  0.000000D+00  0.139029D+00
      9 -0.717115D-01  0.000000D+00  0.776651D-01  0.810132D-01
 Hessian after L701:
                1             2             3             4             5 
      1  0.220012D+01
      2  0.000000D+00  0.979993D+00
      3  0.000000D+00  0.998368D+00  0.154027D+01
      4 -0.222424D+01  0.000000D+00  0.000000D+00  0.444849D+01
      5  0.000000D+00 -0.913127D+00 -0.948673D+00  0.000000D+00  0.182625D+01
      6  0.000000D+00 -0.104806D+01 -0.158958D+01  0.000000D+00  0.000000D+00
      7  0.241229D-01  0.000000D+00  0.000000D+00 -0.222424D+01  0.000000D+00
      8  0.000000D+00 -0.668655D-01 -0.496954D-01  0.000000D+00 -0.913127D+00
      9  0.000000D+00  0.496954D-01  0.493097D-01  0.000000D+00  0.948673D+00
                6             7             8             9 
      6  0.317915D+01
      7  0.000000D+00  0.220012D+01
      8  0.104806D+01  0.000000D+00  0.979993D+00
      9 -0.158958D+01  0.000000D+00 -0.998368D+00  0.154027D+01
 Leave Link  701 at Tue Mar 10 00:06:54 2026, MaxMem=  4294967296 cpu:               0.2 elap:               0.0
 (Enter /Users/vincenzobarone/gdv_j32p/gdv/l702.exe)
 L702 exits ... SP integral derivatives will be done elsewhere.
 Leave Link  702 at Tue Mar 10 00:06:54 2026, MaxMem=  4294967296 cpu:               0.0 elap:               0.0
 (Enter /Users/vincenzobarone/gdv_j32p/gdv/l703.exe)
 GetPMM: IRwPM=    824 LRwPM=      0 LPMAll=      2
 Integral derivatives from FoFJK, PRISM(SPDF).
 Compute integral second derivatives, UseDBF=F ICtDFT=           0.
 ICntrl=    100127.
 Calling FoFJK, ICntrl=    100127 FMM=F ISym2X=1 I1Cent= 0 IOpClX= 0 NMat=1 NMatS=1 NMatT=0.
 FoFJK:  IHMeth= 1 ICntrl=  100127 DoSepK=F KAlg= 0 I1Cent=           0 FoldK=F
 IRaf=         0 NMat=       1 IRICut=       1 DoRegI=T DoRafI=F ISym2E= 1 IDoP0=0 IntGTp=1.
 FoFCou: FMM=F IPFlag=           0 FMFlag=      100000 FMFlg1=         800
         NFxFlg=           0 DoJE=F BraDBF=F KetDBF=F FulRan=T
         wScrn=  0.000000 ICntrl=    100127 IOpCl=  0 I1Cent=           0 NGrid=           0
         NMat0=    1 NMatS0=      1 NMatT0=    0 NMatD0=    1 NMtDS0=    0 NMtDT0=    0
 Petite list used in FoFCou.
 FoFCou:  KetSym=F NOpSet=  4 NOpAb=4 NOp=  4.
 FoFCou:  CnvScl= 1.00D+00 Thresh= 1.00D-12 IAcrcy=      10.
 ShPair: Thresh= 1.00D-12 NBox=     0 BxSize= 0.00D+00 RnKept= 2.88D+00
         NSMCal=                   36 NSMKep=                  36
 PrismS was handed  4294959552 working-precision words and    36 shell-pairs
 LenC2 before Schwartz=          37 after=          37 DMx= 1.04D+00.
 FoFCou: LinMIO=F DoNuc=F BraDBF=F KetDBF=F HaveP=T PDBF=F HaveZ=T HaveW=F
         NIJTC =       6 NIJTAt=       0 NIJTCD=       0 NIJTT =       6
         IJTBeg=       1 IJTEnd=       6 KLTBeg=       1 KLTEnd=       6
         IPTBeg=       1 IPTEnd=       6 IPTBCv=       1 IPTECv=       6
         IZTBeg=       1 IZTEnd=       6 IZTBCv=       1 IZTECv=       6
         IWTBeg=       7 IWTEnd=       6 IWTBCv=       7 IWTECv=       6
         INTBeg=       1 INTEnd=       0 IFTBCv=       1 IFTECv=       6
 NCel replicated for PrismC:     1
 CoulSu-InSpLW:  IPartL=    0 NPrtUS=    8 NPrtUL=    1 DoSpLW=F IThBeg=    0 IThEnd=    7 NThAct=    8.
 CoulSu:  IncTry=  1024 NBBP=            666 NTPThr=   100 NPartT=    8 Incr=           1 LDynOK=F GPUOK=F.
 CoulSu:  NPrtUS=   8 ThrOK=T IAlg=2 LenDen=           0 LWGrdD=           0 DoCopy=F ISkipM=0
          DoSpLW=F IThBeg=    0 IThEnd=    7.
 CoulSu:  IPart=    5 IPartR=    5 CPU=   -1 GPU=   -1.
 Enter PrismC:  IPart=  5 JobTyp=22 DoJE=F Cont=F.
 PrismC:  IPart=     5 DynPar=F LinDyn=F Incr=           1 UseFst=F UseS4=T ISplat=2.
 PrismC was handed   536866486 working-precision words and    36 shell-pairs
 CoulSu:  IPart=    6 IPartR=    6 CPU=   -1 GPU=   -1.
 CoulSu:  IPart=    0 IPartR=    0 CPU=   -1 GPU=   -1.
 CoulSu:  IPart=    4 IPartR=    4 CPU=   -1 GPU=   -1.
 Enter PrismC:  IPart=  6 JobTyp=22 DoJE=F Cont=F.
 PrismC:  IPart=     6 DynPar=F LinDyn=F Incr=           1 UseFst=F UseS4=T ISplat=2.
 PrismC was handed   536866486 working-precision words and    36 shell-pairs
 CoulSu:  IPart=    3 IPartR=    3 CPU=   -1 GPU=   -1.
 Enter PrismC:  IPart=  0 JobTyp=22 DoJE=F Cont=F.
 CoulSu:  IPart=    7 IPartR=    7 CPU=   -1 GPU=   -1.
 PrismC:  IPart=     0 DynPar=F LinDyn=F Incr=           1 UseFst=F UseS4=T ISplat=2.
 PrismC was handed   536866486 working-precision words and    36 shell-pairs
 CoulSu:  IPart=    1 IPartR=    1 CPU=   -1 GPU=   -1.
 Enter PrismC:  IPart=  4 JobTyp=22 DoJE=F Cont=F.
 CoulSu:  IPart=    2 IPartR=    2 CPU=   -1 GPU=   -1.
 Enter PrismC:  IPart=  2 JobTyp=22 DoJE=F Cont=F.
 Enter PrismC:  IPart=  7 JobTyp=22 DoJE=F Cont=F.
 PrismC:  IPart=     4 DynPar=F LinDyn=F Incr=           1 UseFst=F UseS4=T ISplat=2.
 PrismC was handed   536866486 working-precision words and    36 shell-pairs
 Enter PrismC:  IPart=  1 JobTyp=22 DoJE=F Cont=F.
 PrismC:  IPart=     2 DynPar=F LinDyn=F Incr=           1 UseFst=F UseS4=T ISplat=2.
 PrismC was handed   536866486 working-precision words and    36 shell-pairs
 PrismC:  IPart=     1 DynPar=F LinDyn=F Incr=           1 UseFst=F UseS4=T ISplat=2.
 PrismC was handed   536866486 working-precision words and    36 shell-pairs
 PrismC:  IPart=     7 DynPar=F LinDyn=F Incr=           1 UseFst=F UseS4=T ISplat=2.
 PrismC was handed   536866486 working-precision words and    36 shell-pairs
 Enter PrismC:  IPart=  3 JobTyp=22 DoJE=F Cont=F.
 PrismC:  IPart=     3 DynPar=F LinDyn=F Incr=           1 UseFst=F UseS4=T ISplat=2.
 PrismC was handed   536866486 working-precision words and    36 shell-pairs
 IPart=  2 NShTot=          35 NShNF=          35 NShFF=           0 MinMC=       7
           NShCPU=          35 NBCPU=          35 AvBCPU=         1.0
           NShGPU=           0 NBGPU=           0 AvBGPU=         0.0
 CoulSu-ThDecC:  IPartSL=    2    0 NPrtUSL=    8    1 IThBeg=    0 IThEnd=    7 CPU=   -1 GPU=   -1 NThAct=    8.
 IPart=  4 NShTot=           6 NShNF=           6 NShFF=           0 MinMC=       7
           NShCPU=           6 NBCPU=           6 AvBCPU=         1.0
           NShGPU=           0 NBGPU=           0 AvBGPU=         0.0
 CoulSu-ThDecC:  IPartSL=    4    0 NPrtUSL=    8    1 IThBeg=    0 IThEnd=    7 CPU=   -1 GPU=   -1 NThAct=    7.
 IPart=  6 NShTot=           3 NShNF=           3 NShFF=           0 MinMC=       7
           NShCPU=           3 NBCPU=           3 AvBCPU=         1.0
           NShGPU=           0 NBGPU=           0 AvBGPU=         0.0
 CoulSu-ThDecC:  IPartSL=    6    0 NPrtUSL=    8    1 IThBeg=    0 IThEnd=    7 CPU=   -1 GPU=   -1 NThAct=    6.
 IPart=  5 NShTot=           6 NShNF=           6 NShFF=           0 MinMC=       7
           NShCPU=           6 NBCPU=           6 AvBCPU=         1.0
           NShGPU=           0 NBGPU=           0 AvBGPU=         0.0
 CoulSu-ThDecC:  IPartSL=    5    0 NPrtUSL=    8    1 IThBeg=    0 IThEnd=    7 CPU=   -1 GPU=   -1 NThAct=    5.
 IPart=  1 NShTot=         132 NShNF=         132 NShFF=           0 MinMC=       7
           NShCPU=         132 NBCPU=         132 AvBCPU=         1.0
           NShGPU=           0 NBGPU=           0 AvBGPU=         0.0
 CoulSu-ThDecC:  IPartSL=    1    0 NPrtUSL=    8    1 IThBeg=    0 IThEnd=    7 CPU=   -1 GPU=   -1 NThAct=    4.
 IPart=  3 NShTot=          38 NShNF=          38 NShFF=           0 MinMC=       7
           NShCPU=          38 NBCPU=          38 AvBCPU=         1.0
           NShGPU=           0 NBGPU=           0 AvBGPU=         0.0
 CoulSu-ThDecC:  IPartSL=    3    0 NPrtUSL=    8    1 IThBeg=    0 IThEnd=    7 CPU=   -1 GPU=   -1 NThAct=    3.
 IPart=  7 NShTot=           3 NShNF=           3 NShFF=           0 MinMC=       7
           NShCPU=           3 NBCPU=           3 AvBCPU=         1.0
           NShGPU=           0 NBGPU=           0 AvBGPU=         0.0
 CoulSu-ThDecC:  IPartSL=    7    0 NPrtUSL=    8    1 IThBeg=    0 IThEnd=    7 CPU=   -1 GPU=   -1 NThAct=    2.
 IPart=  0 NShTot=         155 NShNF=         155 NShFF=           0 MinMC=       7
           NShCPU=         155 NBCPU=         155 AvBCPU=         1.0
           NShGPU=           0 NBGPU=           0 AvBGPU=         0.0
 CoulSu-ThDecC:  IPartSL=    0    0 NPrtUSL=    8    1 IThBeg=    0 IThEnd=    7 CPU=   -1 GPU=   -1 NThAct=    1.
 CoulSu:  NxtVal=              9 LenVP=      536866487 MinMC=       7.
 Hessian from J: 
                1             2             3             4             5 
      1  0.000000D+00
      2  0.000000D+00  0.000000D+00
      3  0.000000D+00  0.000000D+00  0.000000D+00
      4  0.000000D+00  0.000000D+00  0.000000D+00 -0.218787D+01
      5  0.000000D+00  0.000000D+00  0.000000D+00  0.000000D+00 -0.610453D+00
      6  0.000000D+00  0.000000D+00  0.000000D+00  0.000000D+00 -0.121717D+01
      7  0.000000D+00  0.000000D+00  0.000000D+00  0.221079D+01  0.000000D+00
      8  0.000000D+00  0.000000D+00  0.000000D+00  0.000000D+00  0.577581D+00
      9  0.000000D+00  0.000000D+00  0.000000D+00  0.000000D+00  0.123244D+01
     10  0.000000D+00  0.000000D+00  0.000000D+00 -0.229151D-01  0.000000D+00
     11  0.000000D+00  0.000000D+00  0.000000D+00  0.000000D+00  0.328721D-01
     12  0.000000D+00  0.000000D+00  0.000000D+00  0.000000D+00 -0.152669D-01
                6             7             8             9            10 
      6 -0.131128D+01
      7  0.000000D+00 -0.442158D+01
      8  0.120190D+01  0.000000D+00 -0.115516D+01
      9  0.134173D+01  0.000000D+00  0.000000D+00 -0.268346D+01
     10  0.000000D+00  0.221079D+01  0.000000D+00  0.000000D+00 -0.218787D+01
     11  0.152669D-01  0.000000D+00  0.577581D+00 -0.123244D+01  0.000000D+00
     12 -0.304498D-01  0.000000D+00 -0.120190D+01  0.134173D+01  0.000000D+00
               11            12 
     11 -0.610453D+00
     12  0.121717D+01 -0.131128D+01
 Force constants from FoF: 
                1             2             3             4             5 
      1  0.000000D+00
      2  0.000000D+00  0.000000D+00
      3  0.000000D+00  0.000000D+00  0.000000D+00
      4  0.000000D+00  0.000000D+00  0.000000D+00 -0.218787D+01
      5  0.000000D+00  0.000000D+00  0.000000D+00  0.000000D+00 -0.610453D+00
      6  0.000000D+00  0.000000D+00  0.000000D+00  0.000000D+00 -0.121717D+01
      7  0.000000D+00  0.000000D+00  0.000000D+00  0.221079D+01  0.000000D+00
      8  0.000000D+00  0.000000D+00  0.000000D+00  0.000000D+00  0.577581D+00
      9  0.000000D+00  0.000000D+00  0.000000D+00  0.000000D+00  0.123244D+01
     10  0.000000D+00  0.000000D+00  0.000000D+00 -0.229151D-01  0.000000D+00
     11  0.000000D+00  0.000000D+00  0.000000D+00  0.000000D+00  0.328721D-01
     12  0.000000D+00  0.000000D+00  0.000000D+00  0.000000D+00 -0.152669D-01
                6             7             8             9            10 
      6 -0.131128D+01
      7  0.000000D+00 -0.442158D+01
      8  0.120190D+01  0.000000D+00 -0.115516D+01
      9  0.134173D+01  0.000000D+00  0.000000D+00 -0.268346D+01
     10  0.000000D+00  0.221079D+01  0.000000D+00  0.000000D+00 -0.218787D+01
     11  0.152669D-01  0.000000D+00  0.577581D+00 -0.123244D+01  0.000000D+00
     12 -0.304498D-01  0.000000D+00 -0.120190D+01  0.134173D+01  0.000000D+00
               11            12 
     11 -0.610453D+00
     12  0.121717D+01 -0.131128D+01
 Second derivatives from L703 IAtSt=0:
                1             2             3             4             5 
      1  0.000000D+00
      2  0.000000D+00  0.000000D+00
      3  0.000000D+00  0.000000D+00  0.000000D+00
      4  0.000000D+00  0.000000D+00  0.000000D+00 -0.218787D+01
      5  0.000000D+00  0.000000D+00  0.000000D+00  0.000000D+00 -0.610453D+00
      6  0.000000D+00  0.000000D+00  0.000000D+00  0.000000D+00 -0.121717D+01
      7  0.000000D+00  0.000000D+00  0.000000D+00  0.221079D+01  0.000000D+00
      8  0.000000D+00  0.000000D+00  0.000000D+00  0.000000D+00  0.577581D+00
      9  0.000000D+00  0.000000D+00  0.000000D+00  0.000000D+00  0.123244D+01
     10  0.000000D+00  0.000000D+00  0.000000D+00 -0.229151D-01  0.000000D+00
     11  0.000000D+00  0.000000D+00  0.000000D+00  0.000000D+00  0.328721D-01
     12  0.000000D+00  0.000000D+00  0.000000D+00  0.000000D+00 -0.152669D-01
                6             7             8             9            10 
      6 -0.131128D+01
      7  0.000000D+00 -0.442158D+01
      8  0.120190D+01  0.000000D+00 -0.115516D+01
      9  0.134173D+01  0.000000D+00  0.000000D+00 -0.268346D+01
     10  0.000000D+00  0.221079D+01  0.000000D+00  0.000000D+00 -0.218787D+01
     11  0.152669D-01  0.000000D+00  0.577581D+00 -0.123244D+01  0.000000D+00
     12 -0.304498D-01  0.000000D+00 -0.120190D+01  0.134173D+01  0.000000D+00
               11            12 
     11 -0.610453D+00
     12  0.121717D+01 -0.131128D+01
 Polarizability into L703:
                1             2             3 
      1  0.276024D+01
      2  0.000000D+00  0.708327D+01
      3  0.000000D+00  0.000000D+00  0.510680D+01
 Polarizability after L703:
                1             2             3 
      1  0.276024D+01
      2  0.000000D+00  0.708327D+01
      3  0.000000D+00  0.000000D+00  0.510680D+01
 Dipole Derivatives into L703:
                 1             2             3             4             5 
      1   0.391145D+00  0.000000D+00  0.000000D+00 -0.782290D+00  0.000000D+00
      2   0.000000D+00  0.253167D+00  0.108478D+00  0.000000D+00 -0.506334D+00
      3   0.000000D+00  0.642172D-01  0.221255D+00  0.000000D+00  0.000000D+00
                 6             7             8             9 
      1   0.000000D+00  0.391145D+00  0.000000D+00  0.000000D+00
      2   0.000000D+00  0.000000D+00  0.253167D+00 -0.108478D+00
      3  -0.442511D+00  0.000000D+00 -0.642172D-01  0.221255D+00
 Dipole Derivatives after L703:
                 1             2             3             4             5 
      1   0.391145D+00  0.000000D+00  0.000000D+00 -0.782290D+00  0.000000D+00
      2   0.000000D+00  0.253167D+00  0.108478D+00  0.000000D+00 -0.506334D+00
      3   0.000000D+00  0.642172D-01  0.221255D+00  0.000000D+00  0.000000D+00
                 6             7             8             9 
      1   0.000000D+00  0.391145D+00  0.000000D+00  0.000000D+00
      2   0.000000D+00  0.000000D+00  0.253167D+00 -0.108478D+00
      3  -0.442511D+00  0.000000D+00 -0.642172D-01  0.221255D+00
 Hessian into L703:
                1             2             3             4             5 
      1  0.220012D+01
      2  0.000000D+00  0.979993D+00
      3  0.000000D+00  0.998368D+00  0.154027D+01
      4 -0.222424D+01  0.000000D+00  0.000000D+00  0.444849D+01
      5  0.000000D+00 -0.913127D+00 -0.948673D+00  0.000000D+00  0.182625D+01
      6  0.000000D+00 -0.104806D+01 -0.158958D+01  0.000000D+00  0.000000D+00
      7  0.241229D-01  0.000000D+00  0.000000D+00 -0.222424D+01  0.000000D+00
      8  0.000000D+00 -0.668655D-01 -0.496954D-01  0.000000D+00 -0.913127D+00
      9  0.000000D+00  0.496954D-01  0.493097D-01  0.000000D+00  0.948673D+00
                6             7             8             9 
      6  0.317915D+01
      7  0.000000D+00  0.220012D+01
      8  0.104806D+01  0.000000D+00  0.979993D+00
      9 -0.158958D+01  0.000000D+00 -0.998368D+00  0.154027D+01
 Hessian after L703:
                1             2             3             4             5 
      1  0.122448D-01
      2  0.000000D+00  0.369540D+00
      3  0.000000D+00 -0.218801D+00  0.228985D+00
      4 -0.134527D-01  0.000000D+00  0.000000D+00  0.269053D-01
      5  0.000000D+00 -0.335546D+00  0.253230D+00  0.000000D+00  0.671093D+00
      6  0.000000D+00  0.184373D+00 -0.247845D+00  0.000000D+00  0.000000D+00
      7  0.120786D-02  0.000000D+00  0.000000D+00 -0.134527D-01  0.000000D+00
      8  0.000000D+00 -0.339934D-01 -0.344285D-01  0.000000D+00 -0.335546D+00
      9  0.000000D+00  0.344285D-01  0.188599D-01  0.000000D+00 -0.253230D+00
                6             7             8             9 
      6  0.495691D+00
      7  0.000000D+00  0.122448D-01
      8 -0.184373D+00  0.000000D+00  0.369540D+00
      9 -0.247845D+00  0.000000D+00  0.218801D+00  0.228985D+00
 Leave Link  703 at Tue Mar 10 00:06:54 2026, MaxMem=  4294967296 cpu:               0.5 elap:               0.1
 (Enter /Users/vincenzobarone/gdv_j32p/gdv/l716.exe)
 GetPMM: IRwPM=    824 LRwPM=      0 LPMAll=      2
 LCrdCa=F IOp= 7
 LCrdCa=F IOp=16
 LCrdCa=F IOp=17
 FrcOut: Internal coordinates from IOZRed, Value= 
                 1 
      1   0.183064D+01
      2   0.183064D+01
      3   0.180906D+01
 FrcOut:
 IF    =   2046743 IFX   =   2046752 IFXYZ =   2046761
 IFFX  =   2046770 IFFFX =   2046815 IFLen =         9
 IFFLen=        45 IFFFLn=         0 IEDerv=   2046815
 LEDerv=       485 IFroze=   2047463 ICStrt=   2048265
 Dipole        =-7.23740249D-17-1.96143395D-15-8.85114812D-01
 DipoleDeriv   = 3.91145224D-01 7.57219788D-17 6.39998195D-17
                -6.00723073D-18 2.53166786D-01 6.42172408D-02
                -2.30770727D-18 1.08478397D-01 2.21255327D-01
                -7.82290444D-01 9.55810971D-16 5.86767957D-16
                 2.60006033D-17-5.06333572D-01-7.01138649D-10
                 2.55078304D-17-1.98324877D-09-4.42510650D-01
                 3.91145223D-01-4.18290279D-16-3.17829667D-16
                 2.32195408D-17 2.53166780D-01-6.42172398D-02
                 1.67077761D-17-1.08478400D-01 2.21255329D-01
 Polarizability= 2.76023965D+00 3.47694867D-16 7.08326751D+00
                 2.33659907D-16 3.24775728D-10 5.10680200D+00
 HyperPolar    = 6.14538910D-17 1.76015946D-08-1.82164307D-15
                -1.79302053D-07-1.42463043D-01-1.53235923D-15
                -2.08727977D+01-8.76383214D-16-1.52255272D-06
                -1.02597477D+01
 Quadrupole    =-1.14755612D+00 1.15805071D+00-1.04945932D-02
                 1.06314450D-16 7.38388375D-17 1.46111930D-15
 VibFq2-Diag1:  N=      9 IV=           4 MDV=  4292918471 NE2=   476990940
 Full mass-weighted force constant matrix:
 Low frequencies ---    0.0007    0.0014    0.0018  537.9424  572.1900  630.2145
 Low frequencies --- 1888.3642 3785.7326 3884.3916
 OrtVCM:  Ph=1 IPass= 1 DotMx1= 0.00D+00
 OrtVCM:  IS=    1 I=    1 IndO=    1 Dot= 1.00D+00 DotN= 1.00D+00 ElMax1= 9.42D-01 ElMax1N= 9.42D-01
 OrtVCM:  Ph=2 NNew=    0 IAdd=    2 IPass= 1 DotMx2= 0.00D+00
 OrtVCM:  IS=    1 I=    2 IndO=    2 Dot= 1.00D+00 DotN= 1.00D+00 ElMax1= 9.42D-01 ElMax1N= 9.42D-01
 OrtVCM:  Ph=2 NNew=    0 IAdd=    3 IPass= 1 DotMx2= 0.00D+00
 OrtVCM:  IS=    1 I=    3 IndO=    3 Dot= 1.00D+00 DotN= 1.00D+00 ElMax1= 9.42D-01 ElMax1N= 9.42D-01
 OrtVCM:  Ph=2 NNew=    0 IAdd=    4 IPass= 1 DotMx2= 5.55D-17
 OrtVCM:  IS=    1 I=    4 IndO=    4 Dot= 1.00D+00 DotN= 1.00D+00 ElMax1= 6.66D-01 ElMax1N= 6.66D-01
 OrtVCM:  Ph=2 NNew=    0 IAdd=    5 IPass= 1 DotMx2= 1.11D-16
 OrtVCM:  IS=    1 I=    5 IndO=    5 Dot= 1.00D+00 DotN= 1.00D+00 ElMax1= 7.07D-01 ElMax1N= 7.07D-01
 OrtVCM:  Ph=2 NNew=    0 IAdd=    6 IPass= 1 DotMx2= 2.78D-17
 OrtVCM:  IS=    1 I=    6 IndO=    6 Dot= 1.00D+00 DotN= 1.00D+00 ElMax1= 5.68D-01 ElMax1N= 5.68D-01
 OrtVCM:  Ph=1 IPass= 1 DotMx1= 7.07D-01
 OrtVCM:  Ph=1 IPass= 2 DotMx1= 2.45D-16
 OrtVCM:  IS=    1 I=    1 IndO=    0 Dot= 4.57D-33 DotN= 4.57D-33 ElMax1= 3.46D-17 ElMax1N= 3.46D-17
 OrtVCM:  IS=    1 I=    2 IndO=    7 Dot= 7.87D-01 DotN= 7.87D-01 ElMax1= 7.87D-01 ElMax1N= 7.87D-01
 OrtVCM:  Ph=2 NNew=    0 IAdd=    3 IPass= 1 DotMx2= 2.54D-01
 OrtVCM:  Ph=2 NNew=    0 IAdd=    3 IPass= 2 DotMx2= 3.57D-17
 OrtVCM:  IS=    1 I=    3 IndO=    8 Dot= 5.57D-01 DotN= 5.57D-01 ElMax1= 5.57D-01 ElMax1N= 5.57D-01
 SchOr2:  IPass= 1 Test2A= 1.00D-01 IOff=     0 NDo=     3 NNew=     2
 OrtVCM:  Ph=1 IPass= 1 DotMx1= 9.42D-01
 OrtVCM:  Ph=1 IPass= 2 DotMx1= 1.17D-16
 OrtVCM:  IS=    1 I=    1 IndO=    0 Dot= 5.49D-34 DotN= 5.49D-34 ElMax1= 1.79D-17 ElMax1N= 1.79D-17
 SchOr2:  IPass= 1 Test2A= 1.00D-01 IOff=     3 NDo=     1 NNew=     0
 OrtVCM:  Ph=1 IPass= 1 DotMx1= 9.42D-01
 OrtVCM:  Ph=1 IPass= 2 DotMx1= 1.03D-16
 OrtVCM:  IS=    1 I=    1 IndO=    9 Dot= 3.66D-02 DotN= 3.66D-02 ElMax1= 1.46D-01 ElMax1N= 1.46D-01
 SchOr2:  IPass= 1 Test2A= 1.00D-01 IOff=     4 NDo=     1 NNew=     1
 VibFq2-Diag2:  N=      3 IV=           4 MDV=  4292918471 NE2=  1430972822

 Eigenvalues of Mass-weighted Force Constants in hartree/(bohr**2*amu):
     0.18883642D+04     0.37857326D+04     0.38843684D+04
 Dipole derivative wrt mode   1:  9.55414D-16  4.67380D-08  1.00030D+01
 Vibrational polarizability contributions from mode   1       0.0000000       0.0000000       0.7551238
 Dipole derivative wrt mode   2: -1.49499D-15  1.45849D-07 -3.81591D+00
 Vibrational polarizability contributions from mode   2       0.0000000       0.0000000       0.0273420
 Dipole derivative wrt mode   3:  1.37922D-15  6.65383D+00  4.94710D-08
 Vibrational polarizability contributions from mode   3       0.0000000       0.0789652       0.0000000
 Diagonal vibrational polarizability:
        0.0000000       0.0789652       0.7824658
 NorSel:  MapVib=      1      2      3
 Harmonic frequencies (cm**-1), IR intensities (KM/Mole), Raman scattering
 activities (A**4/AMU), depolarization ratios for plane and unpolarized
 incident light, reduced masses (AMU), force constants (mDyne/A),
 and normal coordinates:
                           1         2         3
                          A1        A1        B2
       Frequencies ---  1888.3642 3785.7326 3884.3684
    Reduced masses ---     1.0817    1.0460    1.0810
   Force constants ---     2.2727    8.8329    9.6099
    IR Intensities ---   100.0591   14.5612   44.2735
 Coord Atom Element:
   1     1     1          0.00000   0.00000   0.00000
   2     1     1          0.43244   0.58149   0.55452
   3     1     1          0.55725  -0.40074  -0.43596
   1     2     8          0.00000   0.00000   0.00000
   2     2     8          0.00000   0.00000  -0.06988
   3     2     8         -0.07022   0.05050   0.00000
   1     3     1          0.00000   0.00000   0.00000
   2     3     1         -0.43244  -0.58149   0.55452
   3     3     1          0.55725  -0.40074   0.43596
 Harmonic frequencies (cm**-1), IR intensities (KM/Mole), Raman scattering
 activities (A**4/AMU), depolarization ratios for plane and unpolarized
 incident light, reduced masses (AMU), force constants (mDyne/A),
 and normal coordinates:
                      1                      2                      3
                     A1                     A1                     B2
 Frequencies --   1888.3642              3785.7326              3884.3684
 Red. masses --      1.0817                 1.0460                 1.0810
 Frc consts  --      2.2727                 8.8329                 9.6099
 IR Inten    --    100.0591                14.5612                44.2735
  Atom  AN      X      Y      Z        X      Y      Z        X      Y      Z
     1   1     0.00   0.43   0.56     0.00   0.58  -0.40     0.00   0.55  -0.44
     2   8     0.00   0.00  -0.07     0.00   0.00   0.05     0.00  -0.07   0.00
     3   1     0.00  -0.43   0.56     0.00  -0.58  -0.40     0.00   0.55   0.44

 -------------------
 - Thermochemistry -
 -------------------
 Temperature 298.150 Kelvin.  Pressure 1.00000 Atm.
 Atom     1 has atomic number  1 and mass   1.00783
 Atom     2 has atomic number  8 and mass  15.99491
 Atom     3 has atomic number  1 and mass   1.00783
 Molecular mass:    18.01056 amu.
 Principal axes and moments of inertia in atomic units:
                                 1                 2                 3
     Eigenvalues --            2.291569          4.174594          6.466163
           X                   0.000000          0.000000          1.000000
           Y                   1.000000          0.000000          0.000000
           Z                   0.000000          1.000000          0.000000
 This molecule is an asymmetric top.
 Rotational symmetry number  2.
 Rotational temperatures (Kelvin)     37.79678    20.74787    13.39495
 Rotational constants (GHZ):         787.55704   432.31542   279.10545
 Zero-point vibrational energy      57172.3 (Joules/Mol)
                                   13.66451 (Kcal/Mol)
 Vibrational temperatures:   2716.93  5446.82  5588.74
          (Kelvin)
 
 Zero-point correction=                           0.021776 (Hartree/Particle)
 Thermal correction to Energy=                    0.024609
 Thermal correction to Enthalpy=                  0.025553
 Thermal correction to Gibbs Free Energy=         0.004109
 Sum of electronic and zero-point Energies=            -75.987999
 Sum of electronic and thermal Energies=               -75.985166
 Sum of electronic and thermal Enthalpies=             -75.984221
 Sum of electronic and thermal Free Energies=          -76.005666
 
                     E (Thermal)             CV                S
                      KCal/Mol        Cal/Mol-Kelvin    Cal/Mol-Kelvin
 Total                   15.443              5.980             45.134
 Electronic               0.000              0.000              0.000
 Translational            0.889              2.981             34.608
 Rotational               0.889              2.981             10.524
 Vibrational             13.665              0.018              0.002
                       Q            Log10(Q)             Ln(Q)
 Total Bot       0.128869D-01         -1.889852         -4.351545
 Total V=0       0.133754D+09          8.126305         18.711509
 Vib (Bot)       0.963586D-10        -10.016109        -23.062944
 Vib (V=0)       0.100011D+01          0.000048          0.000110
 Electronic      0.100000D+01          0.000000          0.000000
 Translational   0.300431D+07          6.477745         14.915559
 Rotational      0.445156D+02          1.648512          3.795840
 Write normal modes, IRwNMS=   765 IRotNM=-1 NVibU=     3.
 Normal modes: 
                 1             2             3 
      1   0.000000D+00  0.000000D+00  0.000000D+00
      2   0.432437D+00  0.581490D+00  0.554521D+00
      3   0.557255D+00 -0.400742D+00 -0.435964D+00
      4   0.000000D+00  0.000000D+00  0.000000D+00
      5   0.000000D+00  0.000000D+00 -0.698798D-01
      6  -0.702242D-01  0.505008D-01  0.000000D+00
      7   0.000000D+00  0.000000D+00  0.000000D+00
      8  -0.432437D+00 -0.581490D+00  0.554521D+00
      9   0.557255D+00 -0.400742D+00  0.435964D+00

     ==================================================
      Anharmonic Data: Displacement Vectors Definition
     ==================================================
 Symm:  InNGrp=     InAxis=0 RotPrA=T RotCs=F.
 PtGrp-- Translation vector:    0.000000    0.000000    0.000000
 PtGrp-- Principal moments and axes of charge:
         Moments:        2.2915689        4.1745937        6.4661625
         Axes   :         0.000000         0.000000         1.000000
                          1.000000         0.000000         0.000000
                          0.000000         1.000000         0.000000
 The molecule is not linear, ITop=1.
 Principal inertia moments (amu-bohr**2):
 Iaa = 0.229157D+01 Ibb= 0.417459D+01 Icc= 0.646616D+01
 Rotation matrix to Principal Axis frame: 
                 1             2             3 
      1   0.000000D+00  0.000000D+00  0.100000D+01
      2   0.100000D+01  0.000000D+00  0.000000D+00
      3   0.000000D+00  0.100000D+01  0.000000D+00
 PtGrp-- Principal moments and axes of charge:
         Moments:        2.2915689        4.1745937        6.4661625
         Axes   :         0.000000         0.000000         1.000000
                          1.000000         0.000000         0.000000
                          0.000000         1.000000         0.000000
 Coordinates after PtGrp: 
                 1             2             3 
      1  -0.189411D-15  0.143913D+01 -0.100482D+01
      2  -0.775354D-17  0.226257D-15  0.126625D+00
      3   0.312465D-15 -0.143913D+01 -0.100482D+01
 Rotation matrix after PtGrp: 
                 1             2             3 
      1   0.100000D+01  0.269630D-15  0.139116D-15
      2  -0.235600D-15  0.100000D+01 -0.639788D-15
      3  -0.139116D-15  0.639788D-15  0.100000D+01
 Coordinates at top of FWGrp:
                 1             2             3 
      1  -0.189411D-15  0.143913D+01 -0.100482D+01
      2  -0.775354D-17  0.226257D-15  0.126625D+00
      3   0.312465D-15 -0.143913D+01 -0.100482D+01
 PG Mult Table 
              1            2            3            4
     1            1            2            3            4
     2            2            1            4            3
     3            3            4            1            2
     4            4            3            2            1
 PGChTb: Point group = "C2V " input group "C2V "
 PGChTb: Point group character table below.
         NOpAll=   4 NCls=   4 NReps=   4
 Class #   -->    1    2    3    4
 Operations-->    1    2    3    4
 NOper/Class->    1    1    1    1
               ~~~~ ~~~~ ~~~~ ~~~~
        A1   |    1    1    1    1 z
        A2   |    1    1   -1   -1 Rz
        B1   |    1   -1   -1    1 x,Ry
        B2   |    1   -1    1   -1 y,Rx
 Class # 1 Size:  1 Name: E          Oper:  1
 Class # 2 Size:  1 Name: C2         Oper:  2
 Class # 3 Size:  1 Name: Sgm        Oper:  3
 Class # 4 Size:  1 Name: Sgm'       Oper:  4
 LisGen=   2   3
 DidUR= T T T T
 PG Generators 
              1
     1            2
     2            3

 Framework definition based on atomic masses: C2V 
 
                                                                 H20
                                                             IR Spectrum
 
     3   3                                                             1                                                             
     8   7                                                             8                                                             
     8   8                                                             8                                                             
     4   6                                                             8                                                             
 
     X   X                                                             X                                                             
     X   X                                                             X                                                             
     X   X                                                             X                                                             
     X                                                                 X                                                             
     X                                                                 X                                                             
     X                                                                 X                                                             
     X                                                                 X                                                             
     X                                                                 X                                                             
     X                                                                 X                                                             
                                                                       X                                                             
                                                                       X                                                             
                                                                       X                                                             
                                                                       X                                                             
                                                                       X                                                             
                                                                       X                                                             
                                                                       X                                                             
                                                                       X                                                             
                                                                       X                                                             
                                                                       X                                                             
                                                                       X                                                             
 
 Forces in standard orientation:
 -------------------------------------------------------------------
 Center     Atomic                   Forces (Hartrees/Bohr)
 Number     Number              X              Y              Z
 -------------------------------------------------------------------
      1        1           0.000000000    0.015883552   -0.015220873
      2        8           0.000000000    0.000000000    0.030441746
      3        1           0.000000000   -0.015883552   -0.015220873
 -------------------------------------------------------------------
 Cartesian Forces:  Max     0.030441746 RMS     0.014509094
 ***** Axes restored to original set *****
 Rotating derivatives, DoTrsp=F IDiff=-2 LEDeriv=    484 LFDPrp=       0 LDFDPr=       0.
          Cartesian coordinates in L716 (input orientation):          
 ---------------------------------------------------------------------
 Center     Atomic      Atomic             Coordinates (Angstroms)
 Number     Number       Type             X           Y           Z
 ---------------------------------------------------------------------
      1          1           0        0.666244   -0.761554    0.000000
      2          8           0        0.067512    0.000000    0.000000
      3          1           0        0.666244    0.761554    0.000000
 ---------------------------------------------------------------------
 After rot to inp orien Dipole Moment
                 1 
      1   0.885115D+00
      2   0.000000D+00
      3   0.000000D+00
 After rot to inp orien Dipole Derivatives
                 1             2             3             4             5 
      1   0.221255D+00  0.642172D-01  0.000000D+00 -0.442511D+00  0.000000D+00
      2   0.108478D+00  0.253167D+00  0.000000D+00  0.000000D+00 -0.506334D+00
      3   0.000000D+00  0.000000D+00  0.391145D+00  0.000000D+00  0.000000D+00
                 6             7             8             9 
      1   0.000000D+00  0.221255D+00 -0.642172D-01  0.000000D+00
      2   0.000000D+00 -0.108478D+00  0.253167D+00  0.000000D+00
      3  -0.782290D+00  0.000000D+00  0.000000D+00  0.391145D+00
 After rot to inp orien Polarizability
                 1 
      1   0.510680D+01
      2   0.000000D+00
      3   0.708327D+01
      4   0.000000D+00
      5   0.000000D+00
      6   0.276024D+01
 After rot to inp orien HyperPolarizability
                 1 
      1   0.102597D+02
      2   0.152255D-05
      3   0.208728D+02
      4   0.000000D+00
      5   0.000000D+00
      6   0.000000D+00
      7   0.000000D+00
      8   0.142463D+00
      9   0.000000D+00
     10   0.000000D+00
 After rot to inp orien Quadrupole Moment
                 1 
      1  -0.104946D-01
      2   0.115805D+01
      3  -0.114756D+01
      4   0.000000D+00
      5   0.000000D+00
      6   0.000000D+00
 After rot to inp orien QEq coupling tensors
                 1             2             3 
      1  -0.494074D-01 -0.281170D+00 -0.494074D-01
      2   0.317005D+00  0.000000D+00 -0.317005D+00
      3  -0.212569D+00 -0.166982D+01 -0.212569D+00
      4   0.000000D+00  0.000000D+00  0.000000D+00
      5   0.000000D+00  0.000000D+00  0.000000D+00
      6   0.261977D+00  0.195099D+01  0.261977D+00
 After rot to inp orien force vector number 1
 I=    1 X=   1.522087306899D-02 Y=  -1.588355156909D-02 Z=   0.000000000000D+00
 I=    2 X=  -3.044174613798D-02 Y=   0.000000000000D+00 Z=   0.000000000000D+00
 I=    3 X=   1.522087306898D-02 Y=   1.588355156909D-02 Z=   0.000000000000D+00
 After rot to inp orien force vector number 2
 I=    1 X=   1.522087306899D-02 Y=  -1.588355156909D-02 Z=   0.000000000000D+00
 I=    2 X=  -3.044174613798D-02 Y=   0.000000000000D+00 Z=   0.000000000000D+00
 I=    3 X=   1.522087306898D-02 Y=   1.588355156909D-02 Z=   0.000000000000D+00
 After rot to inp orien cartesian force constants 
                1             2             3             4             5 
      1  0.228985D+00
      2 -0.218801D+00  0.369540D+00
      3  0.000000D+00  0.000000D+00  0.122448D-01
      4 -0.247845D+00  0.184373D+00  0.000000D+00  0.495691D+00
      5  0.253230D+00 -0.335546D+00  0.000000D+00  0.000000D+00  0.671093D+00
      6  0.000000D+00  0.000000D+00 -0.134527D-01  0.000000D+00  0.000000D+00
      7  0.188599D-01  0.344285D-01  0.000000D+00 -0.247845D+00 -0.253230D+00
      8 -0.344285D-01 -0.339934D-01  0.000000D+00 -0.184373D+00 -0.335546D+00
      9  0.000000D+00  0.000000D+00  0.120786D-02  0.000000D+00  0.000000D+00
                6             7             8             9 
      6  0.269053D-01
      7  0.000000D+00  0.228985D+00
      8  0.000000D+00  0.218801D+00  0.369540D+00
      9 -0.134527D-01  0.000000D+00  0.000000D+00  0.122448D-01
 -------------------------------------------------------------------
 Center     Atomic                   Forces (Hartrees/Bohr)
 Number     Number              X              Y              Z
 -------------------------------------------------------------------
      1        1          -0.015220873    0.015883552    0.000000000
      2        8           0.030441746    0.000000000    0.000000000
      3        1          -0.015220873   -0.015883552    0.000000000
 -------------------------------------------------------------------
 Cartesian Forces:  Max     0.030441746 RMS     0.014509094
 Force constants in Cartesian coordinates: 
                1             2             3             4             5 
      1  0.228985D+00
      2 -0.218801D+00  0.369540D+00
      3  0.000000D+00  0.000000D+00  0.122448D-01
      4 -0.247845D+00  0.184373D+00  0.000000D+00  0.495691D+00
      5  0.253230D+00 -0.335546D+00  0.000000D+00  0.000000D+00  0.671093D+00
      6  0.000000D+00  0.000000D+00 -0.134527D-01  0.000000D+00  0.000000D+00
      7  0.188599D-01  0.344285D-01  0.000000D+00 -0.247845D+00 -0.253230D+00
      8 -0.344285D-01 -0.339934D-01  0.000000D+00 -0.184373D+00 -0.335546D+00
      9  0.000000D+00  0.000000D+00  0.120786D-02  0.000000D+00  0.000000D+00
                6             7             8             9 
      6  0.269053D-01
      7  0.000000D+00  0.228985D+00
      8  0.000000D+00  0.218801D+00  0.369540D+00
      9 -0.134527D-01  0.000000D+00  0.000000D+00  0.122448D-01
 Cartesian forces in FCRed:
 I=    1 X=  -1.522087306899D-02 Y=   1.588355156909D-02 Z=   0.000000000000D+00
 I=    2 X=   3.044174613798D-02 Y=   0.000000000000D+00 Z=   0.000000000000D+00
 I=    3 X=  -1.522087306898D-02 Y=  -1.588355156909D-02 Z=   0.000000000000D+00
 Cartesian force constants in FCRed: 
                1             2             3             4             5 
      1  0.228985D+00
      2 -0.218801D+00  0.369540D+00
      3  0.000000D+00  0.000000D+00  0.122448D-01
      4 -0.247845D+00  0.184373D+00  0.000000D+00  0.495691D+00
      5  0.253230D+00 -0.335546D+00  0.000000D+00  0.000000D+00  0.671093D+00
      6  0.000000D+00  0.000000D+00 -0.134527D-01  0.000000D+00  0.000000D+00
      7  0.188599D-01  0.344285D-01  0.000000D+00 -0.247845D+00 -0.253230D+00
      8 -0.344285D-01 -0.339934D-01  0.000000D+00 -0.184373D+00 -0.335546D+00
      9  0.000000D+00  0.000000D+00  0.120786D-02  0.000000D+00  0.000000D+00
                6             7             8             9 
      6  0.269053D-01
      7  0.000000D+00  0.228985D+00
      8  0.000000D+00  0.218801D+00  0.369540D+00
      9 -0.134527D-01  0.000000D+00  0.000000D+00  0.122448D-01
 Enter LenRIC.
 Enter LenRIC.
 Enter LenRIC.
 Enter LenRIC.
 Internal coordinates in FCRed: 
                 1 
      1   0.183064D+01
      2   0.183064D+01
      3   0.180906D+01
 Enter LenRIC.
 Enter LenRIC.
 CrdBG: NAtInp=     3 NAtoms=     3 NAtNew=     3 NPDir= 0 LGicZM=F NAtDZM=     0 NZG=     0
 Enter Routine CrBGMt.
 CrBGMt: DEBUG = .True.
 CrBGMt Memory Allocations:
    NAt3  =         9 NCoord=         3 LenBSp=        21 LenBFl=        27
    LenGFl=         9 LenBxS=         0 MDV   =4292918761
    IBXTmp=         4 IBFull=        25 IGFull=        79 IBxMat=        88
    IBxQTm=        88 IV    =        88
 CrBGMt: i=         1 IPrim=        16 Idq=         1 Idx=         1 NCoord=         3 NAt3=         9
 CrBGMt: i=         2 IPrim=        19 Idq=         1 Idx=         2 NCoord=         3 NAt3=         9
 CrBGMt: i=         3 IPrim=        22 Idq=         1 Idx=         3 NCoord=         3 NAt3=         9
 CrBGMt: i=         4 IPrim=        25 Idq=         1 Idx=         4 NCoord=         3 NAt3=         9
 CrBGMt: i=         5 IPrim=        27 Idq=         1 Idx=         5 NCoord=         3 NAt3=         9
 CrBGMt: i=         6 IPrim=        29 Idq=         1 Idx=         6 NCoord=         3 NAt3=         9
 CrBGMt: i=         7 IPrim=        31 Idq=         2 Idx=         4 NCoord=         3 NAt3=         9
 CrBGMt: i=         8 IPrim=        34 Idq=         2 Idx=         5 NCoord=         3 NAt3=         9
 CrBGMt: i=         9 IPrim=        37 Idq=         2 Idx=         6 NCoord=         3 NAt3=         9
 CrBGMt: i=        10 IPrim=        40 Idq=         2 Idx=         7 NCoord=         3 NAt3=         9
 CrBGMt: i=        11 IPrim=        42 Idq=         2 Idx=         8 NCoord=         3 NAt3=         9
 CrBGMt: i=        12 IPrim=        44 Idq=         2 Idx=         9 NCoord=         3 NAt3=         9
 CrBGMt: i=        13 IPrim=        46 Idq=         3 Idx=         1 NCoord=         3 NAt3=         9
 CrBGMt: i=        14 IPrim=        58 Idq=         3 Idx=         2 NCoord=         3 NAt3=         9
 CrBGMt: i=        15 IPrim=        65 Idq=         3 Idx=         3 NCoord=         3 NAt3=         9
 CrBGMt: i=        16 IPrim=        72 Idq=         3 Idx=         4 NCoord=         3 NAt3=         9
 CrBGMt: i=        17 IPrim=        81 Idq=         3 Idx=         5 NCoord=         3 NAt3=         9
 CrBGMt: i=        18 IPrim=        90 Idq=         3 Idx=         6 NCoord=         3 NAt3=         9
 CrBGMt: i=        19 IPrim=        99 Idq=         3 Idx=         7 NCoord=         3 NAt3=         9
 CrBGMt: i=        20 IPrim=       105 Idq=         3 Idx=         8 NCoord=         3 NAt3=         9
 CrBGMt: i=        21 IPrim=       111 Idq=         3 Idx=         9 NCoord=         3 NAt3=         9
 CrBGMt: IBMtQ= 
              1
     1            1
     2            1
     3            1
     4            1
     5            1
     6            1
     7            2
     8            2
     9            2
    10            2
    11            2
    12            2
    13            3
    14            3
    15            3
    16            3
    17            3
    18            3
    19            3
    20            3
    21            3
 CrBGMt: IBXTmp= 
              1
     1            1
     2            1
     3            2
     4            2
     5            3
     6            3
     7            4
     8            4
     9            4
    10            5
    11            5
    12            5
    13            6
    14            6
    15            6
    16            7
    17            7
    18            8
    19            8
    20            9
    21            9
 CrBGMt: IBMtX= 
              1
     1            1
     2           13
     3            2
     4           14
     5            3
     6           15
     7            4
     8            7
     9           16
    10            5
    11            8
    12           17
    13            6
    14            9
    15           18
    16           10
    17           19
    18           11
    19           20
    20           12
    21           21
 CrBGMt: IBMtJX= 
              1
     1            1
     2            3
     3            5
     4            7
     5           10
     6           13
     7           16
     8           18
     9           20
    10           22
 CrBGMt: Full (IOp=1) B-matrix= 
                 1             2             3             4             5 
      1   0.618057D+00 -0.786133D+00  0.000000D+00 -0.618057D+00  0.786133D+00
      2   0.000000D+00  0.000000D+00  0.000000D+00 -0.618057D+00 -0.786133D+00
      3  -0.429431D+00 -0.337618D+00  0.000000D+00  0.858861D+00  0.000000D+00
                 6             7             8             9 
      1   0.000000D+00  0.000000D+00  0.000000D+00  0.000000D+00
      2   0.000000D+00  0.618057D+00  0.786133D+00  0.000000D+00
      3   0.000000D+00 -0.429431D+00  0.337618D+00  0.000000D+00
 CrBGMt: Full (IOp=11) B-matrix= 
                 1             2             3 
      1   0.618057D+00  0.000000D+00 -0.429431D+00
      2  -0.786133D+00  0.000000D+00 -0.337618D+00
      3   0.000000D+00  0.000000D+00  0.000000D+00
      4  -0.618057D+00 -0.618057D+00  0.858861D+00
      5   0.786133D+00 -0.786133D+00  0.000000D+00
      6   0.000000D+00  0.000000D+00  0.000000D+00
      7   0.000000D+00  0.618057D+00 -0.429431D+00
      8   0.000000D+00  0.786133D+00  0.337618D+00
      9   0.000000D+00  0.000000D+00  0.000000D+00
 CrBGMt: G-matrix= 
                 1             2             3 
      1   0.200000D+01 -0.236012D+00 -0.530825D+00
      2  -0.236012D+00  0.200000D+01 -0.530825D+00
      3  -0.530825D+00 -0.530825D+00  0.133444D+01
 CrBGMt: Low-triangle G-matrix= 
                1             2             3 
      1  0.200000D+01
      2 -0.236012D+00  0.200000D+01
      3 -0.530825D+00 -0.530825D+00  0.133444D+01
 Jacobi:  N=     3 NSweep=     1 Done= 1.00D-13 Thrsh= 2.89D-02 NDid=           2  66.7%
 Jacobi:  N=     3 NSweep=     2 Done= 1.00D-13 Thrsh= 8.22D-05 NDid=           3 100.0%
 Jacobi:  N=     3 NSweep=     3 Done= 1.00D-13 Thrsh= 9.90D-14 NDid=           3 100.0%
 Jacobi:  N=     3 NO=     0 IConv= 0 OffTop= 5.31D-01 ATop= 2.00D+00 Done= 1.00D-13 NSweep=     3 NTot=         8
 CrBGMt: G-matrix eigenvalues from Jacobi= 
                 1 
      1   0.233003D+01
      2   0.223601D+01
      3   0.768392D+00
 CrdBG: Low-triangle G-matrix= 
                1             2             3 
      1  0.200000D+01
      2 -0.236012D+00  0.200000D+01
      3 -0.530825D+00 -0.530825D+00  0.133444D+01
 Sparse B in FormBX: 
                 1 
      1   0.618057D+00
      2  -0.786133D+00
      3   0.000000D+00
      4  -0.618057D+00
      5   0.786133D+00
      6   0.000000D+00
      7  -0.618057D+00
      8  -0.786133D+00
      9   0.000000D+00
     10   0.618057D+00
     11   0.786133D+00
     12   0.000000D+00
     13  -0.429431D+00
     14  -0.337618D+00
     15   0.000000D+00
     16   0.858861D+00
     17   0.000000D+00
     18   0.000000D+00
     19  -0.429431D+00
     20   0.337618D+00
     21   0.000000D+00
 IB in FormBX: 
              1
     1            1
     2            1
     3            1
     4            1
     5            1
     6            1
     7            2
     8            2
     9            2
    10            2
    11            2
    12            2
    13            3
    14            3
    15            3
    16            3
    17            3
    18            3
    19            3
    20            3
    21            3
    22            1
    23           13
    24            2
    25           14
    26            3
    27           15
    28            4
    29            7
    30           16
    31            5
    32            8
    33           17
    34            6
    35            9
    36           18
    37           10
    38           19
    39           11
    40           20
    41           12
    42           21
    43            1
    44            3
    45            5
    46            7
    47           10
    48           13
    49           16
    50           18
    51           20
    52           22
 LCrdCa=F IOp= 1
 FormGI is forming the generalized inverse of G from B-inverse, IUseBI=4.
 Rank of G is          3
 NTrRot=    -1 NTRed=     3 NAtoms=     3 NSkip=     0 NRank=     3 IsLin=F EigSml=7.6839D-01
 G-Inverse: 
                1             2             3 
      1  0.596281D+00
      2  0.149056D+00  0.596281D+00
      3  0.296488D+00  0.296488D+00  0.985260D+00
 Enter LenRIC.
 Enter LenRIC.
 Enter CrX2Q.
 CrX2Q: Cartesian forces or gradients, FX= 
                 1 
      1  -0.152209D-01
      2   0.158836D-01
      3   0.000000D+00
      4   0.304417D-01
      5   0.000000D+00
      6   0.000000D+00
      7  -0.152209D-01
      8  -0.158836D-01
      9   0.000000D+00
 CrX2Q: Sparse B Matrix, BMat= 
                 1 
      1   0.618057D+00
      2  -0.786133D+00
      3   0.000000D+00
      4  -0.618057D+00
      5   0.786133D+00
      6   0.000000D+00
      7  -0.618057D+00
      8  -0.786133D+00
      9   0.000000D+00
     10   0.618057D+00
     11   0.786133D+00
     12   0.000000D+00
     13  -0.429431D+00
     14  -0.337618D+00
     15   0.000000D+00
     16   0.858861D+00
     17   0.000000D+00
     18   0.000000D+00
     19  -0.429431D+00
     20   0.337618D+00
     21   0.000000D+00
 CrX2Q: LT G-Matrix inverse, GInv= 
                1             2             3 
      1  0.596281D+00
      2  0.149056D+00  0.596281D+00
      3  0.296488D+00  0.296488D+00  0.985260D+00
 CrX2Q: Internal forces or gradients, F= 
                 1 
      1  -0.218940D-01
      2  -0.218940D-01
      3   0.393350D-02
 Enter LenRIC.
 Enter LenRIC.
 CrdBx: NAtInp=     3 NAtoms=     3 NAtNew=     3 NPDir= 0 LGicZM=F NAtDZM=     0 NZG=     0
 Enter Routine CrBxMt.


 Indices of the available Bx terms...
 q=    1  x1=    1  x2=    1
 q=    1  x1=    1  x2=    2
 q=    1  x1=    2  x2=    2
 q=    1  x1=    1  x2=    3
 q=    1  x1=    2  x2=    3
 q=    1  x1=    3  x2=    3
 q=    1  x1=    1  x2=    4
 q=    1  x1=    2  x2=    4
 q=    1  x1=    3  x2=    4
 q=    1  x1=    4  x2=    4
 q=    1  x1=    1  x2=    5
 q=    1  x1=    2  x2=    5
 q=    1  x1=    3  x2=    5
 q=    1  x1=    4  x2=    5
 q=    1  x1=    5  x2=    5
 q=    1  x1=    1  x2=    6
 q=    1  x1=    2  x2=    6
 q=    1  x1=    3  x2=    6
 q=    1  x1=    4  x2=    6
 q=    1  x1=    5  x2=    6
 q=    1  x1=    6  x2=    6
 q=    2  x1=    4  x2=    4
 q=    2  x1=    4  x2=    5
 q=    2  x1=    5  x2=    5
 q=    2  x1=    4  x2=    6
 q=    2  x1=    5  x2=    6
 q=    2  x1=    6  x2=    6
 q=    2  x1=    4  x2=    7
 q=    2  x1=    5  x2=    7
 q=    2  x1=    6  x2=    7
 q=    2  x1=    7  x2=    7
 q=    2  x1=    4  x2=    8
 q=    2  x1=    5  x2=    8
 q=    2  x1=    6  x2=    8
 q=    2  x1=    7  x2=    8
 q=    2  x1=    8  x2=    8
 q=    2  x1=    4  x2=    9
 q=    2  x1=    5  x2=    9
 q=    2  x1=    6  x2=    9
 q=    2  x1=    7  x2=    9
 q=    2  x1=    8  x2=    9
 q=    2  x1=    9  x2=    9
 q=    3  x1=    1  x2=    1
 q=    3  x1=    1  x2=    2
 q=    3  x1=    2  x2=    2
 q=    3  x1=    1  x2=    3
 q=    3  x1=    2  x2=    3
 q=    3  x1=    3  x2=    3
 q=    3  x1=    1  x2=    4
 q=    3  x1=    2  x2=    4
 q=    3  x1=    3  x2=    4
 q=    3  x1=    4  x2=    4
 q=    3  x1=    1  x2=    5
 q=    3  x1=    2  x2=    5
 q=    3  x1=    3  x2=    5
 q=    3  x1=    4  x2=    5
 q=    3  x1=    5  x2=    5
 q=    3  x1=    1  x2=    6
 q=    3  x1=    2  x2=    6
 q=    3  x1=    3  x2=    6
 q=    3  x1=    4  x2=    6
 q=    3  x1=    5  x2=    6
 q=    3  x1=    6  x2=    6
 q=    3  x1=    1  x2=    7
 q=    3  x1=    2  x2=    7
 q=    3  x1=    3  x2=    7
 q=    3  x1=    4  x2=    7
 q=    3  x1=    5  x2=    7
 q=    3  x1=    6  x2=    7
 q=    3  x1=    7  x2=    7
 q=    3  x1=    1  x2=    8
 q=    3  x1=    2  x2=    8
 q=    3  x1=    3  x2=    8
 q=    3  x1=    4  x2=    8
 q=    3  x1=    5  x2=    8
 q=    3  x1=    6  x2=    8
 q=    3  x1=    7  x2=    8
 q=    3  x1=    8  x2=    8
 q=    3  x1=    1  x2=    9
 q=    3  x1=    2  x2=    9
 q=    3  x1=    3  x2=    9
 q=    3  x1=    4  x2=    9
 q=    3  x1=    5  x2=    9
 q=    3  x1=    6  x2=    9
 q=    3  x1=    7  x2=    9
 q=    3  x1=    8  x2=    9
 q=    3  x1=    9  x2=    9
 Enter CrX2Q.
 Internal forces in FCRed: 
                 1 
      1  -0.218940D-01
      2  -0.218940D-01
      3   0.393350D-02
 Internal force constants in FCRed: 
                1             2             3 
      1  0.528469D+00
      2 -0.524341D-02  0.528469D+00
      3  0.283356D-01  0.283356D-01  0.194696D+00
 After FrcRed: V(IForce)= 
                 1 
      1  -0.218940D-01
      2  -0.218940D-01
      3   0.393350D-02
 After FrcRed: V(IFrcns)= 
                1             2             3 
      1  0.528469D+00
      2 -0.524341D-02  0.528469D+00
      3  0.283356D-01  0.283356D-01  0.194696D+00
 Force constants in internal coordinates: 
                1             2             3 
      1  0.528469D+00
      2 -0.524341D-02  0.528469D+00
      3  0.283356D-01  0.283356D-01  0.194696D+00
 Final forces over variables, Energy=-7.60097748D+01:
 -2.18939551D-02-2.18939551D-02 3.93350217D-03
 Leave Link  716 at Tue Mar 10 00:06:54 2026, MaxMem=  4294967296 cpu:               0.0 elap:               0.0
 (Enter /Users/vincenzobarone/gdv_j32p/gdv/l106.exe)
 NDeriv=      3 NFrqRd=  0 NDerD0=      0 MskFDP=       0 MskDFD=       0 MskDF0=       0
 At 1st pt FD prop file    721 does not exist.
 At 1st pt FD prop file    722 does not exist.
 D2Numr ... symmetry will not be used.
 Leave Link  106 at Tue Mar 10 00:06:54 2026, MaxMem=  4294967296 cpu:               0.0 elap:               0.0
 (Enter /Users/vincenzobarone/gdv_j32p/gdv/l301.exe)
 Basis read from rwf:  (6D, 7F)
 No pseudopotential information found on rwf file.
    19 basis functions,    36 primitive gaussians,    19 cartesian basis functions
     5 alpha electrons        5 beta electrons
       nuclear repulsion energy         9.0850478999 Hartrees.
 IExCor=         0 DFT=F Ex=HF Corr=None N6=None ScaHFX=  1.000000
 ScaDFX=  1.000000  1.000000  1.000000  1.000000  1.000000  0.000000
 ScaDFX=  0.000000  0.000000  0.000000  0.000000  0.000000  0.000000
 Grid=UltraFine IRanWt=     -1 IRanGd=            0 ICorTp=0 IEDCtl=  2004
 NAtoms=    3 NActive=    3 NUniq=    3 SFac= 1.00D+00 NAtFMM=   60 NAOKFM=F Big=F
 Integral buffers will be    131072 words long.
 Raffenetti 1 integral format.
 Two-electron integral symmetry is turned off.
 No density basis found on file    724.
 Leave Link  301 at Tue Mar 10 00:06:54 2026, MaxMem=  4294967296 cpu:               0.0 elap:               0.0
 (Enter /Users/vincenzobarone/gdv_j32p/gdv/l302.exe)
 NPDir=0 NMtPBC=     1 NCelOv=     1 NCel=       1 NClECP=     1 NCelD=      1
         NCelK=      1 NCelE2=     1 NClLst=     1 CellRange=     0.0.
 One-electron integrals computed using PRISM.
 NBasis=    19 RedAO= T EigKep=  2.27D-02  NBF=    19
 NBsUse=    19 1.00D-06 EigRej= -1.00D+00 NBFU=    19
 Leave Link  302 at Tue Mar 10 00:06:54 2026, MaxMem=  4294967296 cpu:               0.1 elap:               0.0
 (Enter /Users/vincenzobarone/gdv_j32p/gdv/l303.exe)
 DipDrv:  MaxL=1.
 Leave Link  303 at Tue Mar 10 00:06:54 2026, MaxMem=  4294967296 cpu:               0.0 elap:               0.0
 (Enter /Users/vincenzobarone/gdv_j32p/gdv/l401.exe)
 Initial guess from the checkpoint file:  "h2o.chk"
 B after Tr=     0.000000    0.000000   -0.001004
         Rot=    1.000000    0.000000    0.000000    0.000000 Ang=   0.00 deg.
 AO Guess basis will be translated and rotated to current coordinates.
 JPrj=2 DoOrth=T DoCkMO=T.
 Leave Link  401 at Tue Mar 10 00:06:54 2026, MaxMem=  4294967296 cpu:               0.0 elap:               0.0
 (Enter /Users/vincenzobarone/gdv_j32p/gdv/l502.exe)
 Keep R1 ints in memory in canonical form, NReq=1665784.
 FoFCou: FMM=F IPFlag=           0 FMFlag=           0 FMFlg1=           0
         NFxFlg=           0 DoJE=F BraDBF=F KetDBF=F FulRan=T
         wScrn=  0.000000 ICntrl=       600 IOpCl=  0 I1Cent=           0 NGrid=           0
         NMat0=    1 NMatS0=    190 NMatT0=    0 NMatD0=    1 NMtDS0=    0 NMtDT0=    0
 Symmetry not used in FoFCou.
 Two-electron integral symmetry not used.
 Closed shell SCF:
 Using DIIS extrapolation, IDIIS=  1040.
 NGot=  4294967296 LenX=  4294947479 LenY=  4294946597
 Requested convergence on RMS density matrix=1.00D-08 within  48 cycles.
 Requested convergence on MAX density matrix=1.00D-06.
 Requested convergence on             energy=1.00D-06.
 No special actions if energy rises.

 Cycle   1  Pass 1  IDiag  1:
 E= -76.0096451035028    
 DIIS: error= 5.77D-04 at cycle   1 NSaved=   1.
 NSaved= 1 IEnMin= 1 EnMin= -76.0096451035028     IErMin= 1 ErrMin= 5.77D-04
 ErrMax= 5.77D-04  0.00D+00 EMaxC= 1.00D-01 BMatC= 3.50D-06 BMatP= 3.50D-06
 Rises=F IDIUse=3 WtCom= 9.99D-01 WtEn= 1.39D-03
 Coeff-Com:  0.100D+01
 Coeff-En:   0.100D+01
 Coeff:      0.100D+01
 Gap=     1.706 Goal=   None    Shift=    0.000
 RMSDP=1.42D-04 MaxDP=8.59D-04              OVMax= 9.51D-04

 Cycle   2  Pass 1  IDiag  1:
 E= -76.0096526134010     Delta-E=       -0.000007509898 Rises=F Damp=F AM=F Ri=F Fa=F
 DIIS: error= 1.18D-04 at cycle   2 NSaved=   2.
 NSaved= 2 IEnMin= 2 EnMin= -76.0096526134010     IErMin= 2 ErrMin= 1.18D-04
 ErrMax= 1.18D-04  0.00D+00 EMaxC= 1.00D-01 BMatC= 2.00D-07 BMatP= 3.50D-06
 Rises=F IDIUse=3 WtCom= 1.00D+00 WtEn= 1.28D-04
 Coeff-Com: -0.101D+00 0.110D+01
 Coeff-En:   0.000D+00 0.100D+01
 Coeff:     -0.101D+00 0.110D+01
 Gap=     0.706 Goal=   None    Shift=    0.000
 RMSDP=3.69D-05 MaxDP=2.24D-04 DE=-7.51D-06 OVMax= 2.99D-04

 Cycle   3  Pass 1  IDiag  1:
 E= -76.0096531032618     Delta-E=       -0.000000489861 Rises=F Damp=F AM=F Ri=F Fa=F
 DIIS: error= 6.85D-05 at cycle   3 NSaved=   3.
 NSaved= 3 IEnMin= 3 EnMin= -76.0096531032618     IErMin= 3 ErrMin= 6.85D-05
 ErrMax= 6.85D-05  0.00D+00 EMaxC= 1.00D-01 BMatC= 2.83D-08 BMatP= 2.00D-07
 Rises=F IDIUse=1 WtCom= 1.00D+00 WtEn= 0.00D+00
 Coeff-Com: -0.620D-01 0.244D+00 0.818D+00
 Coeff:     -0.620D-01 0.244D+00 0.818D+00
 Gap=     0.706 Goal=   None    Shift=    0.000
 RMSDP=1.23D-05 MaxDP=8.70D-05 DE=-4.90D-07 OVMax= 1.27D-04

 Cycle   4  Pass 1  IDiag  1:
 E= -76.0096531660419     Delta-E=       -0.000000062780 Rises=F Damp=F AM=F Ri=F Fa=F
 DIIS: error= 2.17D-05 at cycle   4 NSaved=   4.
 NSaved= 4 IEnMin= 4 EnMin= -76.0096531660419     IErMin= 4 ErrMin= 2.17D-05
 ErrMax= 2.17D-05  0.00D+00 EMaxC= 1.00D-01 BMatC= 2.75D-09 BMatP= 2.83D-08
 Rises=F IDIUse=1 WtCom= 1.00D+00 WtEn= 0.00D+00
 Coeff-Com:  0.489D-02-0.919D-01 0.809D-01 0.101D+01
 Coeff:      0.489D-02-0.919D-01 0.809D-01 0.101D+01
 Gap=     0.706 Goal=   None    Shift=    0.000
 RMSDP=4.82D-06 MaxDP=2.87D-05 DE=-6.28D-08 OVMax= 4.92D-05

 Cycle   5  Pass 1  IDiag  1:
 E= -76.0096531743446     Delta-E=       -0.000000008303 Rises=F Damp=F AM=F Ri=F Fa=F
 DIIS: error= 4.88D-06 at cycle   5 NSaved=   5.
 NSaved= 5 IEnMin= 5 EnMin= -76.0096531743446     IErMin= 5 ErrMin= 4.88D-06
 ErrMax= 4.88D-06  0.00D+00 EMaxC= 1.00D-01 BMatC= 1.32D-10 BMatP= 2.75D-09
 Rises=F IDIUse=1 WtCom= 1.00D+00 WtEn= 0.00D+00
 Coeff-Com:  0.393D-02 0.165D-02-0.652D-01-0.276D+00 0.134D+01
 Coeff:      0.393D-02 0.165D-02-0.652D-01-0.276D+00 0.134D+01
 Gap=     0.706 Goal=   None    Shift=    0.000
 RMSDP=2.16D-06 MaxDP=1.21D-05 DE=-8.30D-09 OVMax= 2.36D-05

 Cycle   6  Pass 1  IDiag  1:
 E= -76.0096531751785     Delta-E=       -0.000000000834 Rises=F Damp=F AM=F Ri=F Fa=F
 DIIS: error= 8.00D-07 at cycle   6 NSaved=   6.
 NSaved= 6 IEnMin= 6 EnMin= -76.0096531751785     IErMin= 6 ErrMin= 8.00D-07
 ErrMax= 8.00D-07  0.00D+00 EMaxC= 1.00D-01 BMatC= 4.16D-12 BMatP= 1.32D-10
 Rises=F IDIUse=1 WtCom= 1.00D+00 WtEn= 0.00D+00
 Coeff-Com: -0.148D-02 0.215D-02 0.193D-01 0.595D-01-0.459D+00 0.138D+01
 Coeff:     -0.148D-02 0.215D-02 0.193D-01 0.595D-01-0.459D+00 0.138D+01
 Gap=     0.706 Goal=   None    Shift=    0.000
 RMSDP=4.02D-07 MaxDP=2.49D-06 DE=-8.34D-10 OVMax= 3.70D-06

 Cycle   7  Pass 1  IDiag  1:
 E= -76.0096531752015     Delta-E=       -0.000000000023 Rises=F Damp=F AM=F Ri=F Fa=F
 DIIS: error= 1.01D-07 at cycle   7 NSaved=   7.
 NSaved= 7 IEnMin= 7 EnMin= -76.0096531752015     IErMin= 7 ErrMin= 1.01D-07
 ErrMax= 1.01D-07  0.00D+00 EMaxC= 1.00D-01 BMatC= 9.22D-14 BMatP= 4.16D-12
 Rises=F IDIUse=1 WtCom= 1.00D+00 WtEn= 0.00D+00
 Coeff-Com:  0.415D-03-0.579D-03-0.600D-02-0.152D-01 0.138D+00-0.484D+00
 Coeff-Com:  0.137D+01
 Coeff:      0.415D-03-0.579D-03-0.600D-02-0.152D-01 0.138D+00-0.484D+00
 Coeff:      0.137D+01
 Gap=     0.706 Goal=   None    Shift=    0.000
 RMSDP=3.32D-08 MaxDP=2.48D-07 DE=-2.30D-11 OVMax= 3.34D-07

 Cycle   8  Pass 1  IDiag  1:
 E= -76.0096531752018     Delta-E=        0.000000000000 Rises=F Damp=F AM=F Ri=F Fa=F
 DIIS: error= 1.48D-08 at cycle   8 NSaved=   8.
 NSaved= 8 IEnMin= 8 EnMin= -76.0096531752018     IErMin= 8 ErrMin= 1.48D-08
 ErrMax= 1.48D-08  0.00D+00 EMaxC= 1.00D-01 BMatC= 1.40D-15 BMatP= 9.22D-14
 Rises=F IDIUse=1 WtCom= 1.00D+00 WtEn= 0.00D+00
 Coeff-Com: -0.584D-04 0.721D-04 0.921D-03 0.210D-02-0.209D-01 0.798D-01
 Coeff-Com: -0.322D+00 0.126D+01
 Coeff:     -0.584D-04 0.721D-04 0.921D-03 0.210D-02-0.209D-01 0.798D-01
 Coeff:     -0.322D+00 0.126D+01
 Gap=     0.706 Goal=   None    Shift=    0.000
 RMSDP=4.22D-09 MaxDP=3.17D-08 DE=-2.98D-13 OVMax= 4.48D-08

 SCF Done:  E(RHF) =  -76.0096531752     A.U. after    8 cycles
            NFock=  8  Conv=0.42D-08     -V/T= 2.0031
 KE=          75.777877 PE=        -198.630695 EE=          37.758117
 Leave Link  502 at Tue Mar 10 00:06:54 2026, MaxMem=  4294967296 cpu:               0.1 elap:               0.0
 (Enter /Users/vincenzobarone/gdv_j32p/gdv/l508.exe)
 QCSCF skips out because SCF is already converged.
 Leave Link  508 at Tue Mar 10 00:06:54 2026, MaxMem=  4294967296 cpu:               0.0 elap:               0.0
 (Enter /Users/vincenzobarone/gdv_j32p/gdv/l801.exe)
 Range of M.O.s used for correlation:     1    19
 NBasis=    19 NAE=     5 NBE=     5 NFC=     0 NFV=     0
 NROrb=     19 NOA=     5 NOB=     5 NVA=    14 NVB=    14
 Leave Link  801 at Tue Mar 10 00:06:54 2026, MaxMem=  4294967296 cpu:               0.0 elap:               0.0
 (Enter /Users/vincenzobarone/gdv_j32p/gdv/l1101.exe)
 Using compressed storage, NAtomX=     3.
 Will process      4 centers per pass.
 Leave Link 1101 at Tue Mar 10 00:06:54 2026, MaxMem=  4294967296 cpu:               0.1 elap:               0.0
 (Enter /Users/vincenzobarone/gdv_j32p/gdv/l1102.exe)
 Symmetrizing basis deriv contribution to polar:
 IMax=3 JMax=2 DiffMx= 0.00D+00
 Leave Link 1102 at Tue Mar 10 00:06:54 2026, MaxMem=  4294967296 cpu:               0.0 elap:               0.0
 (Enter /Users/vincenzobarone/gdv_j32p/gdv/l1110.exe)
 Forming Gx(P) for the SCF density, NAtomX=     3.
 Integral derivatives from FoFJK, PRISM(SPDF).
 Do as many integral derivatives as possible in FoFJK.
 G2DrvN: MDV=    4294966829.
 G2DrvN: will do     4 centers at a time, making    1 passes.
 Calling FoFCou, ICntrl=  3107 FMM=F I1Cent=   0 AccDes= 0.00D+00.
 FoFJK:  IHMeth= 1 ICntrl=    3107 DoSepK=F KAlg= 0 I1Cent=           0 FoldK=F
 IRaf=         0 NMat=       1 IRICut=       1 DoRegI=T DoRafI=F ISym2E= 0 IDoP0=0 IntGTp=1.
 FoFCou: FMM=F IPFlag=           0 FMFlag=      100000 FMFlg1=           0
         NFxFlg=           0 DoJE=F BraDBF=F KetDBF=F FulRan=T
         wScrn=  0.000000 ICntrl=      3107 IOpCl=  0 I1Cent=           0 NGrid=           0
         NMat0=    1 NMatS0=      1 NMatT0=    0 NMatD0=    1 NMtDS0=    0 NMtDT0=    0
 Symmetry not used in FoFCou.
 End of G2Drv FD prop file    721 does not exist.
 End of G2Drv FD prop file    722 does not exist.
 End of G2Drv FD prop file    788 does not exist.
 End of G2Drv FD prop file    804 does not exist.
 Leave Link 1110 at Tue Mar 10 00:06:55 2026, MaxMem=  4294967296 cpu:               0.2 elap:               0.0
 (Enter /Users/vincenzobarone/gdv_j32p/gdv/l1002.exe)
 Minotr:  Closed shell wavefunction.
          IDoAtm=111
          Direct CPHF calculation.
          Differentiating once with respect to electric field.
                with respect to dipole field.
          Differentiating once with respect to nuclear coordinates.
          Requested convergence is 1.0D-08 RMS, and 1.0D-07 maximum.
          Secondary convergence is 1.0D-12 RMS, and 1.0D-12 maximum.
          NewPWx=T KeepS1=F KeepF1=F KeepIn=T MapXYZ=F SortEE=F KeepMc=T.
 Keep R1 ints in memory in canonical form, NReq=1666339.
 FoFCou: FMM=F IPFlag=           0 FMFlag=           0 FMFlg1=           0
         NFxFlg=           0 DoJE=F BraDBF=F KetDBF=F FulRan=T
         wScrn=  0.000000 ICntrl=       600 IOpCl=  0 I1Cent=           0 NGrid=           0
         NMat0=    1 NMatS0=    190 NMatT0=    0 NMatD0=    1 NMtDS0=    0 NMtDT0=    0
 Symmetry not used in FoFCou.
 Two-electron integral symmetry not used.
          MDV=    4294967296 using Grid=Fine.
          Solving linear equations simultaneously, MaxMat=       0.
          There are    12 degrees of freedom in the 1st order CPHF.  IDoFFX=6 NUNeed=     3.
      9 vectors produced by pass  0 Test12= 5.83D-16 8.33D-09 XBig12= 1.24D+00 7.67D-01.
 AX will form     9 AO Fock derivatives at one time.
      9 vectors produced by pass  1 Test12= 5.83D-16 8.33D-09 XBig12= 5.92D-02 1.30D-01.
      9 vectors produced by pass  2 Test12= 5.83D-16 8.33D-09 XBig12= 9.15D-04 1.36D-02.
      9 vectors produced by pass  3 Test12= 5.83D-16 8.33D-09 XBig12= 3.88D-06 9.67D-04.
      9 vectors produced by pass  4 Test12= 5.83D-16 8.33D-09 XBig12= 1.25D-08 6.21D-05.
      9 vectors produced by pass  5 Test12= 5.83D-16 8.33D-09 XBig12= 2.00D-11 2.02D-06.
      2 vectors produced by pass  6 Test12= 5.83D-16 8.33D-09 XBig12= 9.29D-14 1.66D-07.
 InvSVY:  IOpt=1 It=  1 EMax= 3.33D-16
 Solved reduced A of dimension    56 with     9 vectors.
 FullF1:  Do perturbations      1 to       3.
 Isotropic polarizability for W=    0.000000        5.00 Bohr**3.
 End of Minotr FD prop file    721 does not exist.
 End of Minotr FD prop file    722 does not exist.
 End of Minotr FD prop file    788 does not exist.
 End of Minotr FD prop file    804 does not exist.
 Leave Link 1002 at Tue Mar 10 00:06:55 2026, MaxMem=  4294967296 cpu:               0.1 elap:               0.0
 (Enter /Users/vincenzobarone/gdv_j32p/gdv/l601.exe)
 Copying SCF densities to generalized density rwf, IOpCl= 0 IROHF=0.
 
 **********************************************************************
 
               Population analysis using the SCF Density.
 
 **********************************************************************
 
 Alpha  occ. eigenvalues --      -20.56372      -1.33715      -0.69722      -0.57238      -0.49782
 Alpha virt. eigenvalues --        0.20788       0.30066       1.00978       1.12972       1.16531
 Alpha virt. eigenvalues --        1.16731       1.37549       1.44020       2.01821       2.03797
 Alpha virt. eigenvalues --        2.06783       2.60680       2.92340       3.96103
          Condensed to atoms (all electrons):
               1          2          3
     1  H    0.326078   0.262342  -0.019335
     2  O    0.262342   8.337143   0.262342
     3  H   -0.019335   0.262342   0.326078
 Mulliken charges:
               1
     1  H    0.430914
     2  O   -0.861828
     3  H    0.430914
 Sum of Mulliken charges=   0.00000
 Mulliken charges with hydrogens summed into heavy atoms:
               1
     2  O    0.000000
 APT charges:
               1
     1  H    0.286675
     2  O   -0.573350
     3  H    0.286675
 Sum of APT charges=   0.00000
 APT charges with hydrogens summed into heavy atoms:
               1
     2  O    0.000000
 Electronic spatial extent (au):  <R**2>=             19.0271
 Charge=              0.0000 electrons
 Dipole moment (field-independent basis, Debye):
    X=              0.0000    Y=              0.0000    Z=             -2.2651  Tot=              2.2651
 Quadrupole moment (field-independent basis, Debye-Ang):
   XX=             -7.2516   YY=             -4.1895   ZZ=             -5.6933
   XY=              0.0000   XZ=              0.0000   YZ=              0.0000
 Traceless Quadrupole moment (field-independent basis, Debye-Ang):
   XX=             -1.5401   YY=              1.5220   ZZ=              0.0182
   XY=              0.0000   XZ=              0.0000   YZ=              0.0000
 Octapole moment (field-independent basis, Debye-Ang**2):
  XXX=              0.0000  YYY=              0.0000  ZZZ=             -0.5471  XYY=              0.0000
  XXY=              0.0000  XXZ=              0.0036  XZZ=              0.0000  YZZ=              0.0000
  YYZ=             -1.1852  XYZ=              0.0000
 Hexadecapole moment (field-independent basis, Debye-Ang**3):
 XXXX=             -5.2345 YYYY=             -5.6147 ZZZZ=             -5.9490 XXXY=              0.0000
 XXXZ=              0.0000 YYYX=              0.0000 YYYZ=              0.0000 ZZZX=              0.0000
 ZZZY=              0.0000 XXYY=             -2.0686 XXZZ=             -1.9364 YYZZ=             -1.4545
 XXYZ=              0.0000 YYXZ=              0.0000 ZZXY=              0.0000
 N-N=           9.085048 E-N=        -198.630695  KE=          75.777877
 No NMR shielding tensors so no spin-rotation constants.
 Leave Link  601 at Tue Mar 10 00:06:55 2026, MaxMem=  4294967296 cpu:               0.1 elap:               0.0
 (Enter /Users/vincenzobarone/gdv_j32p/gdv/l701.exe)
 GetPMM: IRwPM=    824 LRwPM=      0 LPMAll=      2
 SCFChk:  SCF convergence  4.22D-09 required  1.00D-08
 AtDip 
                 1             2             3 
      1   0.000000D+00  0.000000D+00  0.000000D+00
      2   0.000000D+00  0.000000D+00  0.000000D+00
      3   0.000000D+00  0.000000D+00  0.000000D+00
 AtQua 
                 1             2             3             4             5 
      1   0.000000D+00  0.000000D+00  0.000000D+00  0.000000D+00  0.000000D+00
      2   0.000000D+00  0.000000D+00  0.000000D+00  0.000000D+00  0.000000D+00
      3   0.000000D+00  0.000000D+00  0.000000D+00  0.000000D+00  0.000000D+00
                 6 
      1   0.000000D+00
      2   0.000000D+00
      3   0.000000D+00
 AtPol 
                 1 
      1   0.000000D+00
      2   0.000000D+00
      3   0.000000D+00
 Pair potential:
 ... and contract with generalized density number  0.
 Compute integral second derivatives.
 FFX after V2NN 
                1             2             3             4             5 
      1  0.000000D+00
      2  0.000000D+00  0.000000D+00
      3  0.000000D+00  0.000000D+00  0.000000D+00
      4  0.000000D+00  0.000000D+00  0.000000D+00 -0.134467D+01
      5  0.000000D+00  0.000000D+00  0.000000D+00  0.000000D+00  0.116854D+01
      6  0.000000D+00  0.000000D+00  0.000000D+00  0.000000D+00 -0.190463D+01
      7  0.000000D+00  0.000000D+00  0.000000D+00  0.130204D+01  0.000000D+00
      8  0.000000D+00  0.000000D+00  0.000000D+00  0.000000D+00 -0.108328D+01
      9  0.000000D+00  0.000000D+00  0.000000D+00  0.000000D+00  0.190463D+01
     10  0.000000D+00  0.000000D+00  0.000000D+00  0.426328D-01  0.000000D+00
     11  0.000000D+00  0.000000D+00  0.000000D+00  0.000000D+00 -0.852657D-01
     12  0.000000D+00  0.000000D+00  0.000000D+00  0.000000D+00  0.000000D+00
                6             7             8             9            10 
      6  0.176132D+00
      7  0.000000D+00 -0.260408D+01
      8  0.190463D+01  0.000000D+00  0.216655D+01
      9 -0.218765D+00  0.000000D+00  0.000000D+00  0.437530D+00
     10  0.000000D+00  0.130204D+01  0.000000D+00  0.000000D+00 -0.134467D+01
     11  0.000000D+00  0.000000D+00 -0.108328D+01 -0.190463D+01  0.000000D+00
     12  0.426328D-01  0.000000D+00 -0.190463D+01 -0.218765D+00  0.000000D+00
               11            12 
     11  0.116854D+01
     12  0.190463D+01  0.176132D+00
 Entering OneElI...
 OneElI was handed  4294965853 working-precision words.
 Calculate overlap and kinetic energy integrals
    NBasis =  19  MinDer = 2  MaxDer = 2
 Requested accuracy = 0.1000D-12
 ShPair: Thresh= 1.00D-13 NBox=     0 BxSize= 0.00D+00 RnKept= 2.86D+00
         NSMCal=                   36 NSMKep=                  36
 PrmmSu-InSpLW:  IPartL=    0 NPrtUS=    8 NPrtUL=    1 DoSpLW=F IThBeg=    0 IThEnd=    7 NThAct=    8.
 PrSmSu:  IncTry=   512 NBBP=             36 NTPThr=   100 NPartT=    8 Incr=           1 LDynOK=F GPUOK=F.
 PrsmSu:  NPrtUS=   8 ThrOK=T IAlg=2 LenDen=           0 ISkipM=0 DoSpLW=F IThBeg=    0 IThEnd=    7.
 PRISM was handed   536866289 working-precision words and    36 shell-pairs
 PRISM was handed   536866289 working-precision words and    36 shell-pairs
 Prism:   IPart=     0 DynPar=F LinDyn=F Incr=           1.
 PRISM was handed   536866289 working-precision words and    36 shell-pairs
 PRISM was handed   536866289 working-precision words and    36 shell-pairs
 PRISM was handed   536866289 working-precision words and    36 shell-pairs
 PRISM was handed   536866289 working-precision words and    36 shell-pairs
 PRISM was handed   536866289 working-precision words and    36 shell-pairs
 PRISM was handed   536866289 working-precision words and    36 shell-pairs
 IPart=  2 NShTot=           3 NBatch=           3 AvBLen=         1.0
 PrsmSu-ThDecC:  IPartSL=    2    0 NPrtUSL=    8    1 IThBeg=    0 IThEnd=    7 CPU=   -1 GPU=   -1 NThAct=    8.
 IPart=  4 NShTot=           0 NBatch=           0 AvBLen=         0.0
 PrsmSu-ThDecC:  IPartSL=    4    0 NPrtUSL=    8    1 IThBeg=    0 IThEnd=    7 CPU=   -1 GPU=   -1 NThAct=    7.
 IPart=  5 NShTot=           0 NBatch=           0 AvBLen=         0.0
 PrsmSu-ThDecC:  IPartSL=    5    0 NPrtUSL=    8    1 IThBeg=    0 IThEnd=    7 CPU=   -1 GPU=   -1 NThAct=    6.
 IPart=  7 NShTot=           0 NBatch=           0 AvBLen=         0.0
 PrsmSu-ThDecC:  IPartSL=    7    0 NPrtUSL=    8    1 IThBeg=    0 IThEnd=    7 CPU=   -1 GPU=   -1 NThAct=    5.
 IPart=  3 NShTot=           2 NBatch=           2 AvBLen=         1.0
 PrsmSu-ThDecC:  IPartSL=    3    0 NPrtUSL=    8    1 IThBeg=    0 IThEnd=    7 CPU=   -1 GPU=   -1 NThAct=    4.
 IPart=  0 NShTot=          21 NBatch=          21 AvBLen=         1.0
 PrsmSu-ThDecC:  IPartSL=    0    0 NPrtUSL=    8    1 IThBeg=    0 IThEnd=    7 CPU=   -1 GPU=   -1 NThAct=    3.
 IPart=  6 NShTot=           0 NBatch=           0 AvBLen=         0.0
 PrsmSu-ThDecC:  IPartSL=    6    0 NPrtUSL=    8    1 IThBeg=    0 IThEnd=    7 CPU=   -1 GPU=   -1 NThAct=    2.
 IPart=  1 NShTot=          10 NBatch=          10 AvBLen=         1.0
 PrsmSu-ThDecC:  IPartSL=    1    0 NPrtUSL=    8    1 IThBeg=    0 IThEnd=    7 CPU=   -1 GPU=   -1 NThAct=    1.
 PrSmSu:  NxtVal=              9.
 FFX after D2ST 
                1             2             3             4             5 
      1  0.000000D+00
      2  0.000000D+00  0.000000D+00
      3  0.000000D+00  0.000000D+00  0.000000D+00
      4  0.000000D+00  0.000000D+00  0.000000D+00 -0.204818D+01
      5  0.000000D+00  0.000000D+00  0.000000D+00  0.000000D+00  0.117715D+01
      6  0.000000D+00  0.000000D+00  0.000000D+00  0.000000D+00 -0.246102D+01
      7  0.000000D+00  0.000000D+00  0.000000D+00  0.201491D+01  0.000000D+00
      8  0.000000D+00  0.000000D+00  0.000000D+00  0.000000D+00 -0.111121D+01
      9  0.000000D+00  0.000000D+00  0.000000D+00  0.000000D+00  0.246102D+01
     10  0.000000D+00  0.000000D+00  0.000000D+00  0.332779D-01  0.000000D+00
     11  0.000000D+00  0.000000D+00  0.000000D+00  0.000000D+00 -0.659444D-01
     12  0.000000D+00  0.000000D+00  0.000000D+00  0.000000D+00  0.000000D+00
                6             7             8             9            10 
      6 -0.113442D+00
      7  0.000000D+00 -0.402981D+01
      8  0.246102D+01  0.000000D+00  0.222242D+01
      9  0.801642D-01  0.000000D+00  0.000000D+00 -0.160328D+00
     10  0.000000D+00  0.201491D+01  0.000000D+00  0.000000D+00 -0.204818D+01
     11  0.000000D+00  0.000000D+00 -0.111121D+01 -0.246102D+01  0.000000D+00
     12  0.332779D-01  0.000000D+00 -0.246102D+01  0.801642D-01  0.000000D+00
               11            12 
     11  0.117715D+01
     12  0.246102D+01 -0.113442D+00
 Entering OneElI...
 OneElI was handed  4294965853 working-precision words.
 Calculate potential energy integrals
    NBasis =  19  MinDer = 2  MaxDer = 2
 Requested accuracy = 0.1000D-12
 ShPair: Thresh= 1.00D-13 NBox=     0 BxSize= 0.00D+00 RnKept= 2.86D+00
         NSMCal=                   36 NSMKep=                  36
 PrmmSu-InSpLW:  IPartL=    0 NPrtUS=    8 NPrtUL=    1 DoSpLW=F IThBeg=    0 IThEnd=    7 NThAct=    8.
 PrSmSu:  IncTry=   512 NBBP=            108 NTPThr=   100 NPartT=    8 Incr=           1 LDynOK=F GPUOK=F.
 PrsmSu:  NPrtUS=   8 ThrOK=T IAlg=2 LenDen=           0 ISkipM=0 DoSpLW=F IThBeg=    0 IThEnd=    7.
 PRISM was handed   536866374 working-precision words and    36 shell-pairs
 PRISM was handed   536866374 working-precision words and    36 shell-pairs
 PRISM was handed   536866374 working-precision words and    36 shell-pairs
 Prism:   IPart=     0 DynPar=F LinDyn=F Incr=           1.
 PRISM was handed   536866374 working-precision words and    36 shell-pairs
 PRISM was handed   536866374 working-precision words and    36 shell-pairs
 PRISM was handed   536866374 working-precision words and    36 shell-pairs
 PRISM was handed   536866374 working-precision words and    36 shell-pairs
 PRISM was handed   536866374 working-precision words and    36 shell-pairs
 IPart=  4 NShTot=           0 NBatch=           0 AvBLen=         0.0
 PrsmSu-ThDecC:  IPartSL=    4    0 NPrtUSL=    8    1 IThBeg=    0 IThEnd=    7 CPU=   -1 GPU=   -1 NThAct=    8.
 IPart=  2 NShTot=           9 NBatch=           3 AvBLen=         3.0
 PrsmSu-ThDecC:  IPartSL=    2    0 NPrtUSL=    8    1 IThBeg=    0 IThEnd=    7 CPU=   -1 GPU=   -1 NThAct=    7.
 IPart=  1 NShTot=          30 NBatch=          10 AvBLen=         3.0
 PrsmSu-ThDecC:  IPartSL=    1    0 NPrtUSL=    8    1 IThBeg=    0 IThEnd=    7 CPU=   -1 GPU=   -1 NThAct=    6.
 IPart=  0 NShTot=          63 NBatch=          21 AvBLen=         3.0
 PrsmSu-ThDecC:  IPartSL=    0    0 NPrtUSL=    8    1 IThBeg=    0 IThEnd=    7 CPU=   -1 GPU=   -1 NThAct=    5.
 IPart=  5 NShTot=           0 NBatch=           0 AvBLen=         0.0
 PrsmSu-ThDecC:  IPartSL=    5    0 NPrtUSL=    8    1 IThBeg=    0 IThEnd=    7 CPU=   -1 GPU=   -1 NThAct=    4.
 IPart=  6 NShTot=           0 NBatch=           0 AvBLen=         0.0
 PrsmSu-ThDecC:  IPartSL=    6    0 NPrtUSL=    8    1 IThBeg=    0 IThEnd=    7 CPU=   -1 GPU=   -1 NThAct=    3.
 IPart=  3 NShTot=           6 NBatch=           2 AvBLen=         3.0
 PrsmSu-ThDecC:  IPartSL=    3    0 NPrtUSL=    8    1 IThBeg=    0 IThEnd=    7 CPU=   -1 GPU=   -1 NThAct=    2.
 IPart=  7 NShTot=           0 NBatch=           0 AvBLen=         0.0
 PrsmSu-ThDecC:  IPartSL=    7    0 NPrtUSL=    8    1 IThBeg=    0 IThEnd=    7 CPU=   -1 GPU=   -1 NThAct=    1.
 PrSmSu:  NxtVal=              9.
 FFX after D2V 
                1             2             3             4             5 
      1  0.000000D+00
      2  0.000000D+00  0.000000D+00
      3  0.000000D+00  0.000000D+00  0.000000D+00
      4  0.000000D+00  0.000000D+00  0.000000D+00  0.217205D+01
      5  0.000000D+00  0.000000D+00  0.000000D+00  0.000000D+00  0.870938D+00
      6  0.000000D+00  0.000000D+00  0.000000D+00  0.000000D+00  0.108214D+01
      7  0.000000D+00  0.000000D+00  0.000000D+00 -0.221022D+01  0.000000D+00
      8  0.000000D+00  0.000000D+00  0.000000D+00  0.000000D+00 -0.822992D+00
      9  0.000000D+00  0.000000D+00  0.000000D+00  0.000000D+00 -0.105953D+01
     10  0.000000D+00  0.000000D+00  0.000000D+00  0.381669D-01  0.000000D+00
     11  0.000000D+00  0.000000D+00  0.000000D+00  0.000000D+00 -0.479462D-01
     12  0.000000D+00  0.000000D+00  0.000000D+00  0.000000D+00 -0.226065D-01
                6             7             8             9            10 
      6  0.143038D+01
      7  0.000000D+00  0.442044D+01
      8 -0.110474D+01  0.000000D+00  0.164598D+01
      9 -0.148985D+01  0.000000D+00  0.000000D+00  0.297970D+01
     10  0.000000D+00 -0.221022D+01  0.000000D+00  0.000000D+00  0.217205D+01
     11  0.226065D-01  0.000000D+00 -0.822992D+00  0.105953D+01  0.000000D+00
     12  0.594717D-01  0.000000D+00  0.110474D+01 -0.148985D+01  0.000000D+00
               11            12 
     11  0.870938D+00
     12 -0.108214D+01  0.143038D+01
 Second derivatives from L701 IAtSt=0:
                1             2             3             4             5 
      1  0.000000D+00
      2  0.000000D+00  0.000000D+00
      3  0.000000D+00  0.000000D+00  0.000000D+00
      4  0.000000D+00  0.000000D+00  0.000000D+00  0.217205D+01
      5  0.000000D+00  0.000000D+00  0.000000D+00  0.000000D+00  0.870938D+00
      6  0.000000D+00  0.000000D+00  0.000000D+00  0.000000D+00  0.108214D+01
      7  0.000000D+00  0.000000D+00  0.000000D+00 -0.221022D+01  0.000000D+00
      8  0.000000D+00  0.000000D+00  0.000000D+00  0.000000D+00 -0.822992D+00
      9  0.000000D+00  0.000000D+00  0.000000D+00  0.000000D+00 -0.105953D+01
     10  0.000000D+00  0.000000D+00  0.000000D+00  0.381669D-01  0.000000D+00
     11  0.000000D+00  0.000000D+00  0.000000D+00  0.000000D+00 -0.479462D-01
     12  0.000000D+00  0.000000D+00  0.000000D+00  0.000000D+00 -0.226065D-01
                6             7             8             9            10 
      6  0.143038D+01
      7  0.000000D+00  0.442044D+01
      8 -0.110474D+01  0.000000D+00  0.164598D+01
      9 -0.148985D+01  0.000000D+00  0.000000D+00  0.297970D+01
     10  0.000000D+00 -0.221022D+01  0.000000D+00  0.000000D+00  0.217205D+01
     11  0.226065D-01  0.000000D+00 -0.822992D+00  0.105953D+01  0.000000D+00
     12  0.594717D-01  0.000000D+00  0.110474D+01 -0.148985D+01  0.000000D+00
               11            12 
     11  0.870938D+00
     12 -0.108214D+01  0.143038D+01
 Polarizability into L701:
                1             2             3 
      1  0.275881D+01
      2  0.000000D+00  0.706866D+01
      3  0.000000D+00  0.000000D+00  0.515786D+01
 Polarizability after L701:
                1             2             3 
      1  0.275881D+01
      2  0.000000D+00  0.706866D+01
      3  0.000000D+00  0.000000D+00  0.515786D+01
 Dipole Derivatives into L701:
                 1             2             3             4             5 
      1   0.389884D+00  0.000000D+00  0.000000D+00 -0.779769D+00  0.000000D+00
      2   0.000000D+00  0.250794D+00  0.111061D+00  0.000000D+00 -0.501588D+00
      3   0.000000D+00  0.647901D-01  0.219346D+00  0.000000D+00  0.000000D+00
                 6             7             8             9 
      1   0.000000D+00  0.389884D+00  0.000000D+00  0.000000D+00
      2   0.000000D+00  0.000000D+00  0.250794D+00 -0.111061D+00
      3  -0.438693D+00  0.000000D+00 -0.647901D-01  0.219346D+00
 Dipole Derivatives after L701:
                 1             2             3             4             5 
      1   0.389884D+00  0.000000D+00  0.000000D+00 -0.779769D+00  0.000000D+00
      2   0.000000D+00  0.250794D+00  0.111061D+00  0.000000D+00 -0.501588D+00
      3   0.000000D+00  0.647901D-01  0.219346D+00  0.000000D+00  0.000000D+00
                 6             7             8             9 
      1   0.000000D+00  0.389884D+00  0.000000D+00  0.000000D+00
      2   0.000000D+00  0.000000D+00  0.250794D+00 -0.111061D+00
      3  -0.438693D+00  0.000000D+00 -0.647901D-01  0.219346D+00
 Hessian into L701:
                1             2             3             4             5 
      1  0.259454D-01
      2  0.000000D+00  0.137871D+00
      3  0.000000D+00 -0.781069D-01  0.828337D-01
      4 -0.133893D-01  0.000000D+00  0.000000D+00  0.267787D-01
      5  0.000000D+00 -0.117078D+00  0.150833D+00  0.000000D+00  0.234156D+00
      6  0.000000D+00  0.538051D-02 -0.727325D-01  0.000000D+00  0.000000D+00
      7 -0.125561D-01  0.000000D+00  0.000000D+00 -0.133893D-01  0.000000D+00
      8  0.000000D+00 -0.207926D-01 -0.727264D-01  0.000000D+00 -0.117078D+00
      9  0.000000D+00  0.727264D-01 -0.101012D-01  0.000000D+00 -0.150833D+00
                6             7             8             9 
      6  0.145465D+00
      7  0.000000D+00  0.259454D-01
      8 -0.538051D-02  0.000000D+00  0.137871D+00
      9 -0.727325D-01  0.000000D+00  0.781069D-01  0.828337D-01
 Hessian after L701:
                1             2             3             4             5 
      1  0.219800D+01
      2  0.000000D+00  0.100881D+01
      3  0.000000D+00  0.100403D+01  0.151321D+01
      4 -0.222361D+01  0.000000D+00  0.000000D+00  0.444721D+01
      5  0.000000D+00 -0.940070D+00 -0.953909D+00  0.000000D+00  0.188014D+01
      6  0.000000D+00 -0.105415D+01 -0.156258D+01  0.000000D+00  0.000000D+00
      7  0.256109D-01  0.000000D+00  0.000000D+00 -0.222361D+01  0.000000D+00
      8  0.000000D+00 -0.687388D-01 -0.501199D-01  0.000000D+00 -0.940070D+00
      9  0.000000D+00  0.501199D-01  0.493705D-01  0.000000D+00  0.953909D+00
                6             7             8             9 
      6  0.312516D+01
      7  0.000000D+00  0.219800D+01
      8  0.105415D+01  0.000000D+00  0.100881D+01
      9 -0.156258D+01  0.000000D+00 -0.100403D+01  0.151321D+01
 Leave Link  701 at Tue Mar 10 00:06:55 2026, MaxMem=  4294967296 cpu:               0.2 elap:               0.0
 (Enter /Users/vincenzobarone/gdv_j32p/gdv/l702.exe)
 L702 exits ... SP integral derivatives will be done elsewhere.
 Leave Link  702 at Tue Mar 10 00:06:55 2026, MaxMem=  4294967296 cpu:               0.0 elap:               0.0
 (Enter /Users/vincenzobarone/gdv_j32p/gdv/l703.exe)
 GetPMM: IRwPM=    824 LRwPM=      0 LPMAll=      2
 Integral derivatives from FoFJK, PRISM(SPDF).
 Compute integral second derivatives, UseDBF=F ICtDFT=           0.
 ICntrl=    100127.
 Calling FoFJK, ICntrl=    100127 FMM=F ISym2X=0 I1Cent= 0 IOpClX= 0 NMat=1 NMatS=1 NMatT=0.
 FoFJK:  IHMeth= 1 ICntrl=  100127 DoSepK=F KAlg= 0 I1Cent=           0 FoldK=F
 IRaf=         0 NMat=       1 IRICut=       1 DoRegI=T DoRafI=F ISym2E= 0 IDoP0=0 IntGTp=1.
 FoFCou: FMM=F IPFlag=           0 FMFlag=      100000 FMFlg1=         800
         NFxFlg=           0 DoJE=F BraDBF=F KetDBF=F FulRan=T
         wScrn=  0.000000 ICntrl=    100127 IOpCl=  0 I1Cent=           0 NGrid=           0
         NMat0=    1 NMatS0=      1 NMatT0=    0 NMatD0=    1 NMtDS0=    0 NMtDT0=    0
 Symmetry not used in FoFCou.
 FoFCou:  KetSym=F NOpSet=  1 NOpAb=1 NOp=  1.
 FoFCou:  CnvScl= 1.00D+00 Thresh= 1.00D-12 IAcrcy=      10.
 ShPair: Thresh= 1.00D-12 NBox=     0 BxSize= 0.00D+00 RnKept= 2.86D+00
         NSMCal=                   36 NSMKep=                  36
 PrismS was handed  4294959801 working-precision words and    36 shell-pairs
 LenC2 before Schwartz=          37 after=          37 DMx= 1.04D+00.
 FoFCou: LinMIO=F DoNuc=F BraDBF=F KetDBF=F HaveP=T PDBF=F HaveZ=T HaveW=F
         NIJTC =       6 NIJTAt=       0 NIJTCD=       0 NIJTT =       6
         IJTBeg=       1 IJTEnd=       6 KLTBeg=       1 KLTEnd=       6
         IPTBeg=       1 IPTEnd=       6 IPTBCv=       1 IPTECv=       6
         IZTBeg=       1 IZTEnd=       6 IZTBCv=       1 IZTECv=       6
         IWTBeg=       7 IWTEnd=       6 IWTBCv=       7 IWTECv=       6
         INTBeg=       1 INTEnd=       0 IFTBCv=       1 IFTECv=       6
 NCel replicated for PrismC:     1
 CoulSu-InSpLW:  IPartL=    0 NPrtUS=    8 NPrtUL=    1 DoSpLW=F IThBeg=    0 IThEnd=    7 NThAct=    8.
 CoulSu:  IncTry=  1024 NBBP=            666 NTPThr=   100 NPartT=    8 Incr=           1 LDynOK=F GPUOK=F.
 CoulSu:  NPrtUS=   8 ThrOK=T IAlg=2 LenDen=           0 LWGrdD=           0 DoCopy=F ISkipM=0
          DoSpLW=F IThBeg=    0 IThEnd=    7.
 CoulSu:  IPart=    4 IPartR=    4 CPU=   -1 GPU=   -1.
 CoulSu:  IPart=    7 IPartR=    7 CPU=   -1 GPU=   -1.
 Enter PrismC:  IPart=  4 JobTyp=22 DoJE=F Cont=F.
 CoulSu:  IPart=    2 IPartR=    2 CPU=   -1 GPU=   -1.
 PrismC:  IPart=     4 DynPar=F LinDyn=F Incr=           1 UseFst=F UseS4=T ISplat=2.
 Enter PrismC:  IPart=  7 JobTyp=22 DoJE=F Cont=F.
 Enter PrismC:  IPart=  2 JobTyp=22 DoJE=F Cont=F.
 PrismC was handed   536866518 working-precision words and    36 shell-pairs
 CoulSu:  IPart=    6 IPartR=    6 CPU=   -1 GPU=   -1.
 CoulSu:  IPart=    1 IPartR=    1 CPU=   -1 GPU=   -1.
 CoulSu:  IPart=    0 IPartR=    0 CPU=   -1 GPU=   -1.
 CoulSu:  IPart=    3 IPartR=    3 CPU=   -1 GPU=   -1.
 CoulSu:  IPart=    5 IPartR=    5 CPU=   -1 GPU=   -1.
 Enter PrismC:  IPart=  6 JobTyp=22 DoJE=F Cont=F.
 PrismC:  IPart=     7 DynPar=F LinDyn=F Incr=           1 UseFst=F UseS4=T ISplat=2.
 PrismC was handed   536866518 working-precision words and    36 shell-pairs
 PrismC:  IPart=     2 DynPar=F LinDyn=F Incr=           1 UseFst=F UseS4=T ISplat=2.
 PrismC was handed   536866518 working-precision words and    36 shell-pairs
 Enter PrismC:  IPart=  1 JobTyp=22 DoJE=F Cont=F.
 PrismC:  IPart=     6 DynPar=F LinDyn=F Incr=           1 UseFst=F UseS4=T ISplat=2.
 Enter PrismC:  IPart=  0 JobTyp=22 DoJE=F Cont=F.
 PrismC:  IPart=     0 DynPar=F LinDyn=F Incr=           1 UseFst=F UseS4=T ISplat=2.
 PrismC was handed   536866518 working-precision words and    36 shell-pairs
 PrismC:  IPart=     1 DynPar=F LinDyn=F Incr=           1 UseFst=F UseS4=T ISplat=2.
 Enter PrismC:  IPart=  3 JobTyp=22 DoJE=F Cont=F.
 Enter PrismC:  IPart=  5 JobTyp=22 DoJE=F Cont=F.
 PrismC:  IPart=     3 DynPar=F LinDyn=F Incr=           1 UseFst=F UseS4=T ISplat=2.
 PrismC was handed   536866518 working-precision words and    36 shell-pairs
 PrismC:  IPart=     5 DynPar=F LinDyn=F Incr=           1 UseFst=F UseS4=T ISplat=2.
 PrismC was handed   536866518 working-precision words and    36 shell-pairs
 PrismC was handed   536866518 working-precision words and    36 shell-pairs
 PrismC was handed   536866518 working-precision words and    36 shell-pairs
 IPart=  1 NShTot=         160 NShNF=         160 NShFF=           0 MinMC=       7
           NShCPU=         160 NBCPU=         157 AvBCPU=         1.0
           NShGPU=           0 NBGPU=           0 AvBGPU=         0.0
 CoulSu-ThDecC:  IPartSL=    1    0 NPrtUSL=    8    1 IThBeg=    0 IThEnd=    7 CPU=   -1 GPU=   -1 NThAct=    8.
 IPart=  4 NShTot=          30 NShNF=          30 NShFF=           0 MinMC=       7
           NShCPU=          30 NBCPU=          27 AvBCPU=         1.1
           NShGPU=           0 NBGPU=           0 AvBGPU=         0.0
 CoulSu-ThDecC:  IPartSL=    4    0 NPrtUSL=    8    1 IThBeg=    0 IThEnd=    7 CPU=   -1 GPU=   -1 NThAct=    7.
 IPart=  6 NShTot=          21 NShNF=          21 NShFF=           0 MinMC=       7
           NShCPU=          21 NBCPU=          20 AvBCPU=         1.1
           NShGPU=           0 NBGPU=           0 AvBGPU=         0.0
 CoulSu-ThDecC:  IPartSL=    6    0 NPrtUSL=    8    1 IThBeg=    0 IThEnd=    7 CPU=   -1 GPU=   -1 NThAct=    6.
 IPart=  2 NShTot=          90 NShNF=          90 NShFF=           0 MinMC=       7
           NShCPU=          90 NBCPU=          87 AvBCPU=         1.0
           NShGPU=           0 NBGPU=           0 AvBGPU=         0.0
 CoulSu-ThDecC:  IPartSL=    2    0 NPrtUSL=    8    1 IThBeg=    0 IThEnd=    7 CPU=   -1 GPU=   -1 NThAct=    5.
 IPart=  7 NShTot=          21 NShNF=          21 NShFF=           0 MinMC=       7
           NShCPU=          21 NBCPU=          20 AvBCPU=         1.1
           NShGPU=           0 NBGPU=           0 AvBGPU=         0.0
 CoulSu-ThDecC:  IPartSL=    7    0 NPrtUSL=    8    1 IThBeg=    0 IThEnd=    7 CPU=   -1 GPU=   -1 NThAct=    4.
 IPart=  5 NShTot=          29 NShNF=          29 NShFF=           0 MinMC=       7
           NShCPU=          29 NBCPU=          26 AvBCPU=         1.1
           NShGPU=           0 NBGPU=           0 AvBGPU=         0.0
 CoulSu-ThDecC:  IPartSL=    5    0 NPrtUSL=    8    1 IThBeg=    0 IThEnd=    7 CPU=   -1 GPU=   -1 NThAct=    3.
 IPart=  3 NShTot=          78 NShNF=          78 NShFF=           0 MinMC=       7
           NShCPU=          78 NBCPU=          75 AvBCPU=         1.0
           NShGPU=           0 NBGPU=           0 AvBGPU=         0.0
 CoulSu-ThDecC:  IPartSL=    3    0 NPrtUSL=    8    1 IThBeg=    0 IThEnd=    7 CPU=   -1 GPU=   -1 NThAct=    2.
 IPart=  0 NShTot=         237 NShNF=         237 NShFF=           0 MinMC=       7
           NShCPU=         237 NBCPU=         231 AvBCPU=         1.0
           NShGPU=           0 NBGPU=           0 AvBGPU=         0.0
 CoulSu-ThDecC:  IPartSL=    0    0 NPrtUSL=    8    1 IThBeg=    0 IThEnd=    7 CPU=   -1 GPU=   -1 NThAct=    1.
 CoulSu:  NxtVal=              9 LenVP=      536866519 MinMC=       7.
 Hessian from J: 
                1             2             3             4             5 
      1  0.000000D+00
      2  0.000000D+00  0.000000D+00
      3  0.000000D+00  0.000000D+00  0.000000D+00
      4  0.000000D+00  0.000000D+00  0.000000D+00 -0.218555D+01
      5  0.000000D+00  0.000000D+00  0.000000D+00  0.000000D+00 -0.642327D+00
      6  0.000000D+00  0.000000D+00  0.000000D+00  0.000000D+00 -0.122239D+01
      7  0.000000D+00  0.000000D+00  0.000000D+00  0.220907D+01  0.000000D+00
      8  0.000000D+00  0.000000D+00  0.000000D+00  0.000000D+00  0.608911D+00
      9  0.000000D+00  0.000000D+00  0.000000D+00  0.000000D+00  0.123804D+01
     10  0.000000D+00  0.000000D+00  0.000000D+00 -0.235208D-01  0.000000D+00
     11  0.000000D+00  0.000000D+00  0.000000D+00  0.000000D+00  0.334164D-01
     12  0.000000D+00  0.000000D+00  0.000000D+00  0.000000D+00 -0.156570D-01
                6             7             8             9            10 
      6 -0.128229D+01
      7  0.000000D+00 -0.441815D+01
      8  0.120673D+01  0.000000D+00 -0.121782D+01
      9  0.131296D+01  0.000000D+00  0.000000D+00 -0.262593D+01
     10  0.000000D+00  0.220907D+01  0.000000D+00  0.000000D+00 -0.218555D+01
     11  0.156570D-01  0.000000D+00  0.608911D+00 -0.123804D+01  0.000000D+00
     12 -0.306730D-01  0.000000D+00 -0.120673D+01  0.131296D+01  0.000000D+00
               11            12 
     11 -0.642327D+00
     12  0.122239D+01 -0.128229D+01
 Force constants from FoF: 
                1             2             3             4             5 
      1  0.000000D+00
      2  0.000000D+00  0.000000D+00
      3  0.000000D+00  0.000000D+00  0.000000D+00
      4  0.000000D+00  0.000000D+00  0.000000D+00 -0.218555D+01
      5  0.000000D+00  0.000000D+00  0.000000D+00  0.000000D+00 -0.642327D+00
      6  0.000000D+00  0.000000D+00  0.000000D+00  0.000000D+00 -0.122239D+01
      7  0.000000D+00  0.000000D+00  0.000000D+00  0.220907D+01  0.000000D+00
      8  0.000000D+00  0.000000D+00  0.000000D+00  0.000000D+00  0.608911D+00
      9  0.000000D+00  0.000000D+00  0.000000D+00  0.000000D+00  0.123804D+01
     10  0.000000D+00  0.000000D+00  0.000000D+00 -0.235208D-01  0.000000D+00
     11  0.000000D+00  0.000000D+00  0.000000D+00  0.000000D+00  0.334164D-01
     12  0.000000D+00  0.000000D+00  0.000000D+00  0.000000D+00 -0.156570D-01
                6             7             8             9            10 
      6 -0.128229D+01
      7  0.000000D+00 -0.441815D+01
      8  0.120673D+01  0.000000D+00 -0.121782D+01
      9  0.131296D+01  0.000000D+00  0.000000D+00 -0.262593D+01
     10  0.000000D+00  0.220907D+01  0.000000D+00  0.000000D+00 -0.218555D+01
     11  0.156570D-01  0.000000D+00  0.608911D+00 -0.123804D+01  0.000000D+00
     12 -0.306730D-01  0.000000D+00 -0.120673D+01  0.131296D+01  0.000000D+00
               11            12 
     11 -0.642327D+00
     12  0.122239D+01 -0.128229D+01
 Second derivatives from L703 IAtSt=0:
                1             2             3             4             5 
      1  0.000000D+00
      2  0.000000D+00  0.000000D+00
      3  0.000000D+00  0.000000D+00  0.000000D+00
      4  0.000000D+00  0.000000D+00  0.000000D+00 -0.218555D+01
      5  0.000000D+00  0.000000D+00  0.000000D+00  0.000000D+00 -0.642327D+00
      6  0.000000D+00  0.000000D+00  0.000000D+00  0.000000D+00 -0.122239D+01
      7  0.000000D+00  0.000000D+00  0.000000D+00  0.220907D+01  0.000000D+00
      8  0.000000D+00  0.000000D+00  0.000000D+00  0.000000D+00  0.608911D+00
      9  0.000000D+00  0.000000D+00  0.000000D+00  0.000000D+00  0.123804D+01
     10  0.000000D+00  0.000000D+00  0.000000D+00 -0.235208D-01  0.000000D+00
     11  0.000000D+00  0.000000D+00  0.000000D+00  0.000000D+00  0.334164D-01
     12  0.000000D+00  0.000000D+00  0.000000D+00  0.000000D+00 -0.156570D-01
                6             7             8             9            10 
      6 -0.128229D+01
      7  0.000000D+00 -0.441815D+01
      8  0.120673D+01  0.000000D+00 -0.121782D+01
      9  0.131296D+01  0.000000D+00  0.000000D+00 -0.262593D+01
     10  0.000000D+00  0.220907D+01  0.000000D+00  0.000000D+00 -0.218555D+01
     11  0.156570D-01  0.000000D+00  0.608911D+00 -0.123804D+01  0.000000D+00
     12 -0.306730D-01  0.000000D+00 -0.120673D+01  0.131296D+01  0.000000D+00
               11            12 
     11 -0.642327D+00
     12  0.122239D+01 -0.128229D+01
 Polarizability into L703:
                1             2             3 
      1  0.275881D+01
      2  0.000000D+00  0.706866D+01
      3  0.000000D+00  0.000000D+00  0.515786D+01
 Polarizability after L703:
                1             2             3 
      1  0.275881D+01
      2  0.000000D+00  0.706866D+01
      3  0.000000D+00  0.000000D+00  0.515786D+01
 Dipole Derivatives into L703:
                 1             2             3             4             5 
      1   0.389884D+00  0.000000D+00  0.000000D+00 -0.779769D+00  0.000000D+00
      2   0.000000D+00  0.250794D+00  0.111061D+00  0.000000D+00 -0.501588D+00
      3   0.000000D+00  0.647901D-01  0.219346D+00  0.000000D+00  0.000000D+00
                 6             7             8             9 
      1   0.000000D+00  0.389884D+00  0.000000D+00  0.000000D+00
      2   0.000000D+00  0.000000D+00  0.250794D+00 -0.111061D+00
      3  -0.438693D+00  0.000000D+00 -0.647901D-01  0.219346D+00
 Dipole Derivatives after L703:
                 1             2             3             4             5 
      1   0.389884D+00  0.000000D+00  0.000000D+00 -0.779769D+00  0.000000D+00
      2   0.000000D+00  0.250794D+00  0.111061D+00  0.000000D+00 -0.501588D+00
      3   0.000000D+00  0.647901D-01  0.219346D+00  0.000000D+00  0.000000D+00
                 6             7             8             9 
      1   0.000000D+00  0.389884D+00  0.000000D+00  0.000000D+00
      2   0.000000D+00  0.000000D+00  0.250794D+00 -0.111061D+00
      3  -0.438693D+00  0.000000D+00 -0.647901D-01  0.219346D+00
 Hessian into L703:
                1             2             3             4             5 
      1  0.219800D+01
      2  0.000000D+00  0.100881D+01
      3  0.000000D+00  0.100403D+01  0.151321D+01
      4 -0.222361D+01  0.000000D+00  0.000000D+00  0.444721D+01
      5  0.000000D+00 -0.940070D+00 -0.953909D+00  0.000000D+00  0.188014D+01
      6  0.000000D+00 -0.105415D+01 -0.156258D+01  0.000000D+00  0.000000D+00
      7  0.256109D-01  0.000000D+00  0.000000D+00 -0.222361D+01  0.000000D+00
      8  0.000000D+00 -0.687388D-01 -0.501199D-01  0.000000D+00 -0.940070D+00
      9  0.000000D+00  0.501199D-01  0.493705D-01  0.000000D+00  0.953909D+00
                6             7             8             9 
      6  0.312516D+01
      7  0.000000D+00  0.219800D+01
      8  0.105415D+01  0.000000D+00  0.100881D+01
      9 -0.156258D+01  0.000000D+00 -0.100403D+01  0.151321D+01
 Hessian after L703:
                1             2             3             4             5 
      1  0.124439D-01
      2  0.000000D+00  0.366482D+00
      3  0.000000D+00 -0.218356D+00  0.230922D+00
      4 -0.145339D-01  0.000000D+00  0.000000D+00  0.290679D-01
      5  0.000000D+00 -0.331159D+00  0.252819D+00  0.000000D+00  0.662318D+00
      6  0.000000D+00  0.183893D+00 -0.249619D+00  0.000000D+00  0.000000D+00
      7  0.209008D-02  0.000000D+00  0.000000D+00 -0.145339D-01  0.000000D+00
      8  0.000000D+00 -0.353224D-01 -0.344629D-01  0.000000D+00 -0.331159D+00
      9  0.000000D+00  0.344629D-01  0.186975D-01  0.000000D+00 -0.252819D+00
                6             7             8             9 
      6  0.499239D+00
      7  0.000000D+00  0.124439D-01
      8 -0.183893D+00  0.000000D+00  0.366482D+00
      9 -0.249619D+00  0.000000D+00  0.218356D+00  0.230922D+00
 Leave Link  703 at Tue Mar 10 00:06:55 2026, MaxMem=  4294967296 cpu:               0.5 elap:               0.1
 (Enter /Users/vincenzobarone/gdv_j32p/gdv/l716.exe)
 GetPMM: IRwPM=    824 LRwPM=      0 LPMAll=      2
 FrcOut:
 IF    =        40 IFX   =        49 IFXYZ =        58
 IFFX  =        67 IFFFX =       112 IFLen =         9
 IFFLen=        45 IFFFLn=         0 IEDerv=       112
 LEDerv=       485 IFroze=       760 ICStrt=      1562
 Dipole        = 9.03392500D-16 4.46251448D-13-8.91151650D-01
 DipoleDeriv   = 3.89884341D-01 3.00107426D-16 3.20807832D-16
                 1.55111812D-16 2.50794035D-01 6.47901292D-02
                -9.60579525D-17 1.11060776D-01 2.19346253D-01
                -7.79768681D-01-1.16457808D-15-1.03888197D-15
                 1.95205402D-16-5.01588069D-01-1.16186406D-13
                 5.06611530D-16-1.07818098D-12-4.38692505D-01
                 3.89884341D-01 8.64470657D-16 7.18074136D-16
                -3.50317214D-16 2.50794035D-01-6.47901292D-02
                -4.10553578D-16-1.11060776D-01 2.19346253D-01
 Polarizability= 2.75880726D+00-4.52602321D-15 7.06865835D+00
                -3.72851633D-15-1.13146742D-11 5.15786422D+00
 HyperPolar    =-1.85952921D-14-8.33422994D-12 4.11923971D-14
                 6.80254022D-11-1.37197623D-01 2.64274884D-14
                -2.09573055D+01 1.74227195D-14 4.25124743D-11
                -1.04875407D+01
 Quadrupole    =-1.14505663D+00 1.13154009D+00 1.35165453D-02
                 7.61137072D-16 5.06571551D-16-1.73811870D-12
 After rot to inp orien Dipole Moment
                 1 
      1   0.000000D+00
      2   0.000000D+00
      3  -0.891152D+00
 After rot to inp orien Dipole Derivatives
                 1             2             3             4             5 
      1   0.389884D+00  0.000000D+00  0.000000D+00 -0.779769D+00  0.000000D+00
      2   0.000000D+00  0.250794D+00  0.111061D+00  0.000000D+00 -0.501588D+00
      3   0.000000D+00  0.647901D-01  0.219346D+00  0.000000D+00  0.000000D+00
                 6             7             8             9 
      1   0.000000D+00  0.389884D+00  0.000000D+00  0.000000D+00
      2   0.000000D+00  0.000000D+00  0.250794D+00 -0.111061D+00
      3  -0.438693D+00  0.000000D+00 -0.647901D-01  0.219346D+00
 After rot to inp orien Polarizability
                 1 
      1   0.275881D+01
      2   0.000000D+00
      3   0.706866D+01
      4   0.000000D+00
      5   0.000000D+00
      6   0.515786D+01
 After rot to inp orien HyperPolarizability
                 1 
      1   0.000000D+00
      2   0.000000D+00
      3   0.000000D+00
      4   0.000000D+00
      5  -0.137198D+00
      6   0.000000D+00
      7  -0.209573D+02
      8   0.000000D+00
      9   0.000000D+00
     10  -0.104875D+02
 After rot to inp orien Quadrupole Moment
                 1 
      1  -0.114506D+01
      2   0.113154D+01
      3   0.135165D-01
      4   0.000000D+00
      5   0.000000D+00
      6   0.000000D+00
 After rot to inp orien QEq coupling tensors
                 1             2             3 
      1   0.261533D+00  0.195883D+01  0.261533D+00
      2   0.000000D+00  0.000000D+00  0.000000D+00
      3  -0.208572D+00 -0.165534D+01 -0.208572D+00
      4   0.000000D+00  0.000000D+00  0.000000D+00
      5   0.316541D+00  0.000000D+00 -0.316541D+00
      6  -0.529603D-01 -0.303493D+00 -0.529603D-01
 After rot to inp orien force vector number 1
 I=    1 X=   0.000000000000D+00 Y=   1.481906926241D-02 Z=  -1.660997428303D-02
 I=    2 X=   0.000000000000D+00 Y=   0.000000000000D+00 Z=   3.321994856502D-02
 I=    3 X=   0.000000000000D+00 Y=  -1.481906926110D-02 Z=  -1.660997428199D-02
 After rot to inp orien force vector number 2
 I=    1 X=   0.000000000000D+00 Y=   1.481906926241D-02 Z=  -1.660997428303D-02
 I=    2 X=   0.000000000000D+00 Y=   0.000000000000D+00 Z=   3.321994856502D-02
 I=    3 X=   0.000000000000D+00 Y=  -1.481906926110D-02 Z=  -1.660997428199D-02
 After rot to inp orien cartesian force constants 
                1             2             3             4             5 
      1  0.124439D-01
      2  0.000000D+00  0.366482D+00
      3  0.000000D+00 -0.218356D+00  0.230922D+00
      4 -0.145339D-01  0.000000D+00  0.000000D+00  0.290679D-01
      5  0.000000D+00 -0.331159D+00  0.252819D+00  0.000000D+00  0.662318D+00
      6  0.000000D+00  0.183893D+00 -0.249619D+00  0.000000D+00  0.000000D+00
      7  0.209008D-02  0.000000D+00  0.000000D+00 -0.145339D-01  0.000000D+00
      8  0.000000D+00 -0.353224D-01 -0.344629D-01  0.000000D+00 -0.331159D+00
      9  0.000000D+00  0.344629D-01  0.186975D-01  0.000000D+00 -0.252819D+00
                6             7             8             9 
      6  0.499239D+00
      7  0.000000D+00  0.124439D-01
      8 -0.183893D+00  0.000000D+00  0.366482D+00
      9 -0.249619D+00  0.000000D+00  0.218356D+00  0.230922D+00
 -------------------------------------------------------------------
 Center     Atomic                   Forces (Hartrees/Bohr)
 Number     Number              X              Y              Z
 -------------------------------------------------------------------
      1        1           0.000000000   -0.014819069    0.016609974
      2        8           0.000000000    0.000000000   -0.033219949
      3        1           0.000000000    0.014819069    0.016609974
 -------------------------------------------------------------------
 Cartesian Forces:  Max     0.033219949 RMS     0.015255444
 Force constants in Cartesian coordinates: 
                1             2             3             4             5 
      1  0.124439D-01
      2  0.000000D+00  0.366482D+00
      3  0.000000D+00 -0.218356D+00  0.230922D+00
      4 -0.145339D-01  0.000000D+00  0.000000D+00  0.290679D-01
      5  0.000000D+00 -0.331159D+00  0.252819D+00  0.000000D+00  0.662318D+00
      6  0.000000D+00  0.183893D+00 -0.249619D+00  0.000000D+00  0.000000D+00
      7  0.209008D-02  0.000000D+00  0.000000D+00 -0.145339D-01  0.000000D+00
      8  0.000000D+00 -0.353224D-01 -0.344629D-01  0.000000D+00 -0.331159D+00
      9  0.000000D+00  0.344629D-01  0.186975D-01  0.000000D+00 -0.252819D+00
                6             7             8             9 
      6  0.499239D+00
      7  0.000000D+00  0.124439D-01
      8 -0.183893D+00  0.000000D+00  0.366482D+00
      9 -0.249619D+00  0.000000D+00  0.218356D+00  0.230922D+00
 Final forces over variables, Energy=-7.60096532D+01:
 -2.18939551D-02-2.18939551D-02 3.93350217D-03
 Leave Link  716 at Tue Mar 10 00:06:55 2026, MaxMem=  4294967296 cpu:               0.0 elap:               0.0
 (Enter /Users/vincenzobarone/gdv_j32p/gdv/l106.exe)
 NDeriv=      3 NFrqRd=  0 NDerD0=      0 MskFDP=       0 MskDFD=       0 MskDF0=       0
 Re-enter D2Numr:  normal mode      1 step-up   number 1
 Leave Link  106 at Tue Mar 10 00:06:55 2026, MaxMem=  4294967296 cpu:               0.0 elap:               0.0
 (Enter /Users/vincenzobarone/gdv_j32p/gdv/l301.exe)
 Basis read from rwf:  (6D, 7F)
 No pseudopotential information found on rwf file.
    19 basis functions,    36 primitive gaussians,    19 cartesian basis functions
     5 alpha electrons        5 beta electrons
       nuclear repulsion energy         9.0895575817 Hartrees.
 IExCor=         0 DFT=F Ex=HF Corr=None N6=None ScaHFX=  1.000000
 ScaDFX=  1.000000  1.000000  1.000000  1.000000  1.000000  0.000000
 ScaDFX=  0.000000  0.000000  0.000000  0.000000  0.000000  0.000000
 Grid=UltraFine IRanWt=     -1 IRanGd=            0 ICorTp=0 IEDCtl=  2004
 NAtoms=    3 NActive=    3 NUniq=    3 SFac= 1.00D+00 NAtFMM=   60 NAOKFM=F Big=F
 Integral buffers will be    131072 words long.
 Raffenetti 1 integral format.
 Two-electron integral symmetry is turned off.
 No density basis found on file    724.
 Leave Link  301 at Tue Mar 10 00:06:55 2026, MaxMem=  4294967296 cpu:               0.0 elap:               0.0
 (Enter /Users/vincenzobarone/gdv_j32p/gdv/l302.exe)
 NPDir=0 NMtPBC=     1 NCelOv=     1 NCel=       1 NClECP=     1 NCelD=      1
         NCelK=      1 NCelE2=     1 NClLst=     1 CellRange=     0.0.
 One-electron integrals computed using PRISM.
 NBasis=    19 RedAO= T EigKep=  2.27D-02  NBF=    19
 NBsUse=    19 1.00D-06 EigRej= -1.00D+00 NBFU=    19
 Leave Link  302 at Tue Mar 10 00:06:55 2026, MaxMem=  4294967296 cpu:               0.1 elap:               0.0
 (Enter /Users/vincenzobarone/gdv_j32p/gdv/l303.exe)
 DipDrv:  MaxL=1.
 Leave Link  303 at Tue Mar 10 00:06:55 2026, MaxMem=  4294967296 cpu:               0.0 elap:               0.0
 (Enter /Users/vincenzobarone/gdv_j32p/gdv/l401.exe)
 Initial guess from the checkpoint file:  "h2o.chk"
 B after Tr=     0.000000    0.000000    0.001004
         Rot=    1.000000    0.000000    0.000000    0.000000 Ang=   0.00 deg.
 AO Guess basis will be translated and rotated to current coordinates.
 JPrj=2 DoOrth=T DoCkMO=T.
 Leave Link  401 at Tue Mar 10 00:06:55 2026, MaxMem=  4294967296 cpu:               0.0 elap:               0.0
 (Enter /Users/vincenzobarone/gdv_j32p/gdv/l502.exe)
 Keep R1 ints in memory in canonical form, NReq=1665784.
 FoFCou: FMM=F IPFlag=           0 FMFlag=           0 FMFlg1=           0
         NFxFlg=           0 DoJE=F BraDBF=F KetDBF=F FulRan=T
         wScrn=  0.000000 ICntrl=       600 IOpCl=  0 I1Cent=           0 NGrid=           0
         NMat0=    1 NMatS0=    190 NMatT0=    0 NMatD0=    1 NMtDS0=    0 NMtDT0=    0
 Symmetry not used in FoFCou.
 Two-electron integral symmetry not used.
 Closed shell SCF:
 Using DIIS extrapolation, IDIIS=  1040.
 NGot=  4294967296 LenX=  4294947479 LenY=  4294946597
 Requested convergence on RMS density matrix=1.00D-08 within  48 cycles.
 Requested convergence on MAX density matrix=1.00D-06.
 Requested convergence on             energy=1.00D-06.
 No special actions if energy rises.

 Cycle   1  Pass 1  IDiag  1:
 E= -76.0098402777433    
 DIIS: error= 5.72D-04 at cycle   1 NSaved=   1.
 NSaved= 1 IEnMin= 1 EnMin= -76.0098402777433     IErMin= 1 ErrMin= 5.72D-04
 ErrMax= 5.72D-04  0.00D+00 EMaxC= 1.00D-01 BMatC= 3.48D-06 BMatP= 3.48D-06
 Rises=F IDIUse=3 WtCom= 9.99D-01 WtEn= 1.37D-03
 Coeff-Com:  0.100D+01
 Coeff-En:   0.100D+01
 Coeff:      0.100D+01
 Gap=     1.713 Goal=   None    Shift=    0.000
 RMSDP=1.40D-04 MaxDP=8.36D-04              OVMax= 9.45D-04

 Cycle   2  Pass 1  IDiag  1:
 E= -76.0098477042943     Delta-E=       -0.000007426551 Rises=F Damp=F AM=F Ri=F Fa=F
 DIIS: error= 1.16D-04 at cycle   2 NSaved=   2.
 NSaved= 2 IEnMin= 2 EnMin= -76.0098477042943     IErMin= 2 ErrMin= 1.16D-04
 ErrMax= 1.16D-04  0.00D+00 EMaxC= 1.00D-01 BMatC= 1.88D-07 BMatP= 3.48D-06
 Rises=F IDIUse=3 WtCom= 1.00D+00 WtEn= 1.25D-04
 Coeff-Com: -0.108D+00 0.111D+01
 Coeff-En:   0.000D+00 0.100D+01
 Coeff:     -0.108D+00 0.111D+01
 Gap=     0.705 Goal=   None    Shift=    0.000
 RMSDP=3.66D-05 MaxDP=2.24D-04 DE=-7.43D-06 OVMax= 3.04D-04

 Cycle   3  Pass 1  IDiag  1:
 E= -76.0098481837804     Delta-E=       -0.000000479486 Rises=F Damp=F AM=F Ri=F Fa=F
 DIIS: error= 6.48D-05 at cycle   3 NSaved=   3.
 NSaved= 3 IEnMin= 3 EnMin= -76.0098481837804     IErMin= 3 ErrMin= 6.48D-05
 ErrMax= 6.48D-05  0.00D+00 EMaxC= 1.00D-01 BMatC= 2.41D-08 BMatP= 1.88D-07
 Rises=F IDIUse=1 WtCom= 1.00D+00 WtEn= 0.00D+00
 Coeff-Com: -0.579D-01 0.225D+00 0.833D+00
 Coeff:     -0.579D-01 0.225D+00 0.833D+00
 Gap=     0.706 Goal=   None    Shift=    0.000
 RMSDP=1.19D-05 MaxDP=8.25D-05 DE=-4.79D-07 OVMax= 1.23D-04

 Cycle   4  Pass 1  IDiag  1:
 E= -76.0098482396531     Delta-E=       -0.000000055873 Rises=F Damp=F AM=F Ri=F Fa=F
 DIIS: error= 2.19D-05 at cycle   4 NSaved=   4.
 NSaved= 4 IEnMin= 4 EnMin= -76.0098482396531     IErMin= 4 ErrMin= 2.19D-05
 ErrMax= 2.19D-05  0.00D+00 EMaxC= 1.00D-01 BMatC= 2.80D-09 BMatP= 2.41D-08
 Rises=F IDIUse=1 WtCom= 1.00D+00 WtEn= 0.00D+00
 Coeff-Com:  0.431D-02-0.917D-01 0.107D+00 0.980D+00
 Coeff:      0.431D-02-0.917D-01 0.107D+00 0.980D+00
 Gap=     0.706 Goal=   None    Shift=    0.000
 RMSDP=4.74D-06 MaxDP=2.84D-05 DE=-5.59D-08 OVMax= 4.76D-05

 Cycle   5  Pass 1  IDiag  1:
 E= -76.0098482477737     Delta-E=       -0.000000008121 Rises=F Damp=F AM=F Ri=F Fa=F
 DIIS: error= 4.90D-06 at cycle   5 NSaved=   5.
 NSaved= 5 IEnMin= 5 EnMin= -76.0098482477737     IErMin= 5 ErrMin= 4.90D-06
 ErrMax= 4.90D-06  0.00D+00 EMaxC= 1.00D-01 BMatC= 1.31D-10 BMatP= 2.80D-09
 Rises=F IDIUse=1 WtCom= 1.00D+00 WtEn= 0.00D+00
 Coeff-Com:  0.393D-02 0.222D-02-0.737D-01-0.271D+00 0.134D+01
 Coeff:      0.393D-02 0.222D-02-0.737D-01-0.271D+00 0.134D+01
 Gap=     0.705 Goal=   None    Shift=    0.000
 RMSDP=2.19D-06 MaxDP=1.20D-05 DE=-8.12D-09 OVMax= 2.39D-05

 Cycle   6  Pass 1  IDiag  1:
 E= -76.0098482486122     Delta-E=       -0.000000000838 Rises=F Damp=F AM=F Ri=F Fa=F
 DIIS: error= 7.97D-07 at cycle   6 NSaved=   6.
 NSaved= 6 IEnMin= 6 EnMin= -76.0098482486122     IErMin= 6 ErrMin= 7.97D-07
 ErrMax= 7.97D-07  0.00D+00 EMaxC= 1.00D-01 BMatC= 4.14D-12 BMatP= 1.31D-10
 Rises=F IDIUse=1 WtCom= 1.00D+00 WtEn= 0.00D+00
 Coeff-Com: -0.147D-02 0.193D-02 0.216D-01 0.589D-01-0.462D+00 0.138D+01
 Coeff:     -0.147D-02 0.193D-02 0.216D-01 0.589D-01-0.462D+00 0.138D+01
 Gap=     0.705 Goal=   None    Shift=    0.000
 RMSDP=4.03D-07 MaxDP=2.48D-06 DE=-8.38D-10 OVMax= 3.72D-06

 Cycle   7  Pass 1  IDiag  1:
 E= -76.0098482486351     Delta-E=       -0.000000000023 Rises=F Damp=F AM=F Ri=F Fa=F
 DIIS: error= 1.03D-07 at cycle   7 NSaved=   7.
 NSaved= 7 IEnMin= 7 EnMin= -76.0098482486351     IErMin= 7 ErrMin= 1.03D-07
 ErrMax= 1.03D-07  0.00D+00 EMaxC= 1.00D-01 BMatC= 9.18D-14 BMatP= 4.14D-12
 Rises=F IDIUse=1 WtCom= 1.00D+00 WtEn= 0.00D+00
 Coeff-Com:  0.405D-03-0.513D-03-0.658D-02-0.147D-01 0.136D+00-0.481D+00
 Coeff-Com:  0.137D+01
 Coeff:      0.405D-03-0.513D-03-0.658D-02-0.147D-01 0.136D+00-0.481D+00
 Coeff:      0.137D+01
 Gap=     0.705 Goal=   None    Shift=    0.000
 RMSDP=3.31D-08 MaxDP=2.44D-07 DE=-2.29D-11 OVMax= 3.31D-07

 Cycle   8  Pass 1  IDiag  1:
 E= -76.0098482486353     Delta-E=        0.000000000000 Rises=F Damp=F AM=F Ri=F Fa=F
 DIIS: error= 1.44D-08 at cycle   8 NSaved=   8.
 NSaved= 8 IEnMin= 8 EnMin= -76.0098482486353     IErMin= 8 ErrMin= 1.44D-08
 ErrMax= 1.44D-08  0.00D+00 EMaxC= 1.00D-01 BMatC= 1.36D-15 BMatP= 9.18D-14
 Rises=F IDIUse=1 WtCom= 1.00D+00 WtEn= 0.00D+00
 Coeff-Com: -0.573D-04 0.620D-04 0.102D-02 0.204D-02-0.208D-01 0.797D-01
 Coeff-Com: -0.321D+00 0.126D+01
 Coeff:     -0.573D-04 0.620D-04 0.102D-02 0.204D-02-0.208D-01 0.797D-01
 Coeff:     -0.321D+00 0.126D+01
 Gap=     0.705 Goal=   None    Shift=    0.000
 RMSDP=4.10D-09 MaxDP=3.13D-08 DE=-2.56D-13 OVMax= 4.38D-08

 SCF Done:  E(RHF) =  -76.0098482486     A.U. after    8 cycles
            NFock=  8  Conv=0.41D-08     -V/T= 2.0031
 KE=          75.778253 PE=        -198.645690 EE=          37.768031
 Leave Link  502 at Tue Mar 10 00:06:55 2026, MaxMem=  4294967296 cpu:               0.1 elap:               0.0
 (Enter /Users/vincenzobarone/gdv_j32p/gdv/l508.exe)
 QCSCF skips out because SCF is already converged.
 Leave Link  508 at Tue Mar 10 00:06:55 2026, MaxMem=  4294967296 cpu:               0.0 elap:               0.0
 (Enter /Users/vincenzobarone/gdv_j32p/gdv/l801.exe)
 Range of M.O.s used for correlation:     1    19
 NBasis=    19 NAE=     5 NBE=     5 NFC=     0 NFV=     0
 NROrb=     19 NOA=     5 NOB=     5 NVA=    14 NVB=    14
 Leave Link  801 at Tue Mar 10 00:06:55 2026, MaxMem=  4294967296 cpu:               0.0 elap:               0.0
 (Enter /Users/vincenzobarone/gdv_j32p/gdv/l1101.exe)
 Using compressed storage, NAtomX=     3.
 Will process      4 centers per pass.
 Leave Link 1101 at Tue Mar 10 00:06:55 2026, MaxMem=  4294967296 cpu:               0.1 elap:               0.0
 (Enter /Users/vincenzobarone/gdv_j32p/gdv/l1102.exe)
 Symmetrizing basis deriv contribution to polar:
 IMax=3 JMax=2 DiffMx= 0.00D+00
 Leave Link 1102 at Tue Mar 10 00:06:55 2026, MaxMem=  4294967296 cpu:               0.0 elap:               0.0
 (Enter /Users/vincenzobarone/gdv_j32p/gdv/l1110.exe)
 Forming Gx(P) for the SCF density, NAtomX=     3.
 Integral derivatives from FoFJK, PRISM(SPDF).
 Do as many integral derivatives as possible in FoFJK.
 G2DrvN: MDV=    4294966829.
 G2DrvN: will do     4 centers at a time, making    1 passes.
 Calling FoFCou, ICntrl=  3107 FMM=F I1Cent=   0 AccDes= 0.00D+00.
 FoFJK:  IHMeth= 1 ICntrl=    3107 DoSepK=F KAlg= 0 I1Cent=           0 FoldK=F
 IRaf=         0 NMat=       1 IRICut=       1 DoRegI=T DoRafI=F ISym2E= 0 IDoP0=0 IntGTp=1.
 FoFCou: FMM=F IPFlag=           0 FMFlag=      100000 FMFlg1=           0
         NFxFlg=           0 DoJE=F BraDBF=F KetDBF=F FulRan=T
         wScrn=  0.000000 ICntrl=      3107 IOpCl=  0 I1Cent=           0 NGrid=           0
         NMat0=    1 NMatS0=      1 NMatT0=    0 NMatD0=    1 NMtDS0=    0 NMtDT0=    0
 Symmetry not used in FoFCou.
 End of G2Drv FD prop file    721 does not exist.
 End of G2Drv FD prop file    722 does not exist.
 End of G2Drv FD prop file    788 does not exist.
 End of G2Drv FD prop file    804 does not exist.
 Leave Link 1110 at Tue Mar 10 00:06:55 2026, MaxMem=  4294967296 cpu:               0.2 elap:               0.0
 (Enter /Users/vincenzobarone/gdv_j32p/gdv/l1002.exe)
 Minotr:  Closed shell wavefunction.
          IDoAtm=111
          Direct CPHF calculation.
          Differentiating once with respect to electric field.
                with respect to dipole field.
          Differentiating once with respect to nuclear coordinates.
          Requested convergence is 1.0D-08 RMS, and 1.0D-07 maximum.
          Secondary convergence is 1.0D-12 RMS, and 1.0D-12 maximum.
          NewPWx=T KeepS1=F KeepF1=F KeepIn=T MapXYZ=F SortEE=F KeepMc=T.
 Keep R1 ints in memory in canonical form, NReq=1666339.
 FoFCou: FMM=F IPFlag=           0 FMFlag=           0 FMFlg1=           0
         NFxFlg=           0 DoJE=F BraDBF=F KetDBF=F FulRan=T
         wScrn=  0.000000 ICntrl=       600 IOpCl=  0 I1Cent=           0 NGrid=           0
         NMat0=    1 NMatS0=    190 NMatT0=    0 NMatD0=    1 NMtDS0=    0 NMtDT0=    0
 Symmetry not used in FoFCou.
 Two-electron integral symmetry not used.
          MDV=    4294967296 using Grid=Fine.
          Solving linear equations simultaneously, MaxMat=       0.
          There are    12 degrees of freedom in the 1st order CPHF.  IDoFFX=6 NUNeed=     3.
      9 vectors produced by pass  0 Test12= 5.83D-16 8.33D-09 XBig12= 1.25D+00 7.72D-01.
 AX will form     9 AO Fock derivatives at one time.
      9 vectors produced by pass  1 Test12= 5.83D-16 8.33D-09 XBig12= 5.71D-02 1.26D-01.
      9 vectors produced by pass  2 Test12= 5.83D-16 8.33D-09 XBig12= 8.77D-04 1.36D-02.
      9 vectors produced by pass  3 Test12= 5.83D-16 8.33D-09 XBig12= 3.62D-06 1.00D-03.
      9 vectors produced by pass  4 Test12= 5.83D-16 8.33D-09 XBig12= 1.43D-08 5.96D-05.
      8 vectors produced by pass  5 Test12= 5.83D-16 8.33D-09 XBig12= 2.65D-11 2.28D-06.
      2 vectors produced by pass  6 Test12= 5.83D-16 8.33D-09 XBig12= 1.90D-13 1.93D-07.
      1 vectors produced by pass  7 Test12= 5.83D-16 8.33D-09 XBig12= 3.23D-16 1.10D-08.
 InvSVY:  IOpt=1 It=  1 EMax= 5.55D-16
 Solved reduced A of dimension    56 with     9 vectors.
 FullF1:  Do perturbations      1 to       3.
 Isotropic polarizability for W=    0.000000        4.97 Bohr**3.
 End of Minotr FD prop file    721 does not exist.
 End of Minotr FD prop file    722 does not exist.
 End of Minotr FD prop file    788 does not exist.
 End of Minotr FD prop file    804 does not exist.
 Leave Link 1002 at Tue Mar 10 00:06:55 2026, MaxMem=  4294967296 cpu:               0.1 elap:               0.0
 (Enter /Users/vincenzobarone/gdv_j32p/gdv/l601.exe)
 Copying SCF densities to generalized density rwf, IOpCl= 0 IROHF=0.
 
 **********************************************************************
 
               Population analysis using the SCF Density.
 
 **********************************************************************
 
 Alpha  occ. eigenvalues --      -20.56254      -1.33613      -0.70089      -0.56897      -0.49716
 Alpha virt. eigenvalues --        0.20833       0.30114       1.01778       1.12732       1.16193
 Alpha virt. eigenvalues --        1.16782       1.37735       1.43338       2.02292       2.03643
 Alpha virt. eigenvalues --        2.06971       2.60855       2.92783       3.96478
          Condensed to atoms (all electrons):
               1          2          3
     1  H    0.323065   0.262690  -0.018386
     2  O    0.262690   8.339882   0.262690
     3  H   -0.018386   0.262690   0.323065
 Mulliken charges:
               1
     1  H    0.432631
     2  O   -0.865263
     3  H    0.432631
 Sum of Mulliken charges=   0.00000
 Mulliken charges with hydrogens summed into heavy atoms:
               1
     2  O    0.000000
 APT charges:
               1
     1  H    0.290394
     2  O   -0.580788
     3  H    0.290394
 Sum of APT charges=   0.00000
 APT charges with hydrogens summed into heavy atoms:
               1
     2  O    0.000000
 Electronic spatial extent (au):  <R**2>=             19.0110
 Charge=              0.0000 electrons
 Dipole moment (field-independent basis, Debye):
    X=              0.0000    Y=              0.0000    Z=             -2.2343  Tot=              2.2343
 Quadrupole moment (field-independent basis, Debye-Ang):
   XX=             -7.2495   YY=             -4.1092   ZZ=             -5.7488
   XY=              0.0000   XZ=              0.0000   YZ=              0.0000
 Traceless Quadrupole moment (field-independent basis, Debye-Ang):
   XX=             -1.5470   YY=              1.5933   ZZ=             -0.0463
   XY=              0.0000   XZ=              0.0000   YZ=              0.0000
 Octapole moment (field-independent basis, Debye-Ang**2):
  XXX=              0.0000  YYY=              0.0000  ZZZ=             -0.5212  XYY=              0.0000
  XXY=              0.0000  XXZ=              0.0006  XZZ=              0.0000  YZZ=              0.0000
  YYZ=             -1.1996  XYZ=              0.0000
 Hexadecapole moment (field-independent basis, Debye-Ang**3):
 XXXX=             -5.2325 YYYY=             -5.5448 ZZZZ=             -5.9292 XXXY=              0.0000
 XXXZ=              0.0000 YYYX=              0.0000 YYYZ=              0.0000 ZZZX=              0.0000
 ZZZY=              0.0000 XXYY=             -2.0704 XXZZ=             -1.9272 YYZZ=             -1.4594
 XXYZ=              0.0000 YYXZ=              0.0000 ZZXY=              0.0000
 N-N=           9.089558 E-N=        -198.645690  KE=          75.778253
 No NMR shielding tensors so no spin-rotation constants.
 Leave Link  601 at Tue Mar 10 00:06:55 2026, MaxMem=  4294967296 cpu:               0.1 elap:               0.0
 (Enter /Users/vincenzobarone/gdv_j32p/gdv/l701.exe)
 GetPMM: IRwPM=    824 LRwPM=      0 LPMAll=      2
 SCFChk:  SCF convergence  4.10D-09 required  1.00D-08
 AtDip 
                 1             2             3 
      1   0.000000D+00  0.000000D+00  0.000000D+00
      2   0.000000D+00  0.000000D+00  0.000000D+00
      3   0.000000D+00  0.000000D+00  0.000000D+00
 AtQua 
                 1             2             3             4             5 
      1   0.000000D+00  0.000000D+00  0.000000D+00  0.000000D+00  0.000000D+00
      2   0.000000D+00  0.000000D+00  0.000000D+00  0.000000D+00  0.000000D+00
      3   0.000000D+00  0.000000D+00  0.000000D+00  0.000000D+00  0.000000D+00
                 6 
      1   0.000000D+00
      2   0.000000D+00
      3   0.000000D+00
 AtPol 
                 1 
      1   0.000000D+00
      2   0.000000D+00
      3   0.000000D+00
 Pair potential:
 ... and contract with generalized density number  0.
 Compute integral second derivatives.
 FFX after V2NN 
                1             2             3             4             5 
      1  0.000000D+00
      2  0.000000D+00  0.000000D+00
      3  0.000000D+00  0.000000D+00  0.000000D+00
      4  0.000000D+00  0.000000D+00  0.000000D+00 -0.134702D+01
      5  0.000000D+00  0.000000D+00  0.000000D+00  0.000000D+00  0.122635D+01
      6  0.000000D+00  0.000000D+00  0.000000D+00  0.000000D+00 -0.189610D+01
      7  0.000000D+00  0.000000D+00  0.000000D+00  0.130576D+01  0.000000D+00
      8  0.000000D+00  0.000000D+00  0.000000D+00  0.000000D+00 -0.114383D+01
      9  0.000000D+00  0.000000D+00  0.000000D+00  0.000000D+00  0.189610D+01
     10  0.000000D+00  0.000000D+00  0.000000D+00  0.412589D-01  0.000000D+00
     11  0.000000D+00  0.000000D+00  0.000000D+00  0.000000D+00 -0.825178D-01
     12  0.000000D+00  0.000000D+00  0.000000D+00  0.000000D+00  0.000000D+00
                6             7             8             9            10 
      6  0.120665D+00
      7  0.000000D+00 -0.261151D+01
      8  0.189610D+01  0.000000D+00  0.228767D+01
      9 -0.161924D+00  0.000000D+00  0.000000D+00  0.323848D+00
     10  0.000000D+00  0.130576D+01  0.000000D+00  0.000000D+00 -0.134702D+01
     11  0.000000D+00  0.000000D+00 -0.114383D+01 -0.189610D+01  0.000000D+00
     12  0.412589D-01  0.000000D+00 -0.189610D+01 -0.161924D+00  0.000000D+00
               11            12 
     11  0.122635D+01
     12  0.189610D+01  0.120665D+00
 Entering OneElI...
 OneElI was handed  4294965853 working-precision words.
 Calculate overlap and kinetic energy integrals
    NBasis =  19  MinDer = 2  MaxDer = 2
 Requested accuracy = 0.1000D-12
 ShPair: Thresh= 1.00D-13 NBox=     0 BxSize= 0.00D+00 RnKept= 2.89D+00
         NSMCal=                   36 NSMKep=                  36
 PrmmSu-InSpLW:  IPartL=    0 NPrtUS=    8 NPrtUL=    1 DoSpLW=F IThBeg=    0 IThEnd=    7 NThAct=    8.
 PrSmSu:  IncTry=   512 NBBP=             36 NTPThr=   100 NPartT=    8 Incr=           1 LDynOK=F GPUOK=F.
 PrsmSu:  NPrtUS=   8 ThrOK=T IAlg=2 LenDen=           0 ISkipM=0 DoSpLW=F IThBeg=    0 IThEnd=    7.
 PRISM was handed   536866289 working-precision words and    36 shell-pairs
 PRISM was handed   536866289 working-precision words and    36 shell-pairs
 PRISM was handed   536866289 working-precision words and    36 shell-pairs
 Prism:   IPart=     0 DynPar=F LinDyn=F Incr=           1.
 PRISM was handed   536866289 working-precision words and    36 shell-pairs
 PRISM was handed   536866289 working-precision words and    36 shell-pairs
 PRISM was handed   536866289 working-precision words and    36 shell-pairs
 PRISM was handed   536866289 working-precision words and    36 shell-pairs
 PRISM was handed   536866289 working-precision words and    36 shell-pairs
 IPart=  3 NShTot=           2 NBatch=           2 AvBLen=         1.0
 PrsmSu-ThDecC:  IPartSL=    3    0 NPrtUSL=    8    1 IThBeg=    0 IThEnd=    7 CPU=   -1 GPU=   -1 NThAct=    8.
 IPart=  4 NShTot=           0 NBatch=           0 AvBLen=         0.0
 PrsmSu-ThDecC:  IPartSL=    4    0 NPrtUSL=    8    1 IThBeg=    0 IThEnd=    7 CPU=   -1 GPU=   -1 NThAct=    7.
 IPart=  5 NShTot=           0 NBatch=           0 AvBLen=         0.0
 PrsmSu-ThDecC:  IPartSL=    5    0 NPrtUSL=    8    1 IThBeg=    0 IThEnd=    7 CPU=   -1 GPU=   -1 NThAct=    6.
 IPart=  7 NShTot=           0 NBatch=           0 AvBLen=         0.0
 PrsmSu-ThDecC:  IPartSL=    7    0 NPrtUSL=    8    1 IThBeg=    0 IThEnd=    7 CPU=   -1 GPU=   -1 NThAct=    5.
 IPart=  1 NShTot=          10 NBatch=          10 AvBLen=         1.0
 PrsmSu-ThDecC:  IPartSL=    1    0 NPrtUSL=    8    1 IThBeg=    0 IThEnd=    7 CPU=   -1 GPU=   -1 NThAct=    4.
 IPart=  0 NShTot=          21 NBatch=          21 AvBLen=         1.0
 PrsmSu-ThDecC:  IPartSL=    0    0 NPrtUSL=    8    1 IThBeg=    0 IThEnd=    7 CPU=   -1 GPU=   -1 NThAct=    3.
 IPart=  6 NShTot=           0 NBatch=           0 AvBLen=         0.0
 PrsmSu-ThDecC:  IPartSL=    6    0 NPrtUSL=    8    1 IThBeg=    0 IThEnd=    7 CPU=   -1 GPU=   -1 NThAct=    2.
 IPart=  2 NShTot=           3 NBatch=           3 AvBLen=         1.0
 PrsmSu-ThDecC:  IPartSL=    2    0 NPrtUSL=    8    1 IThBeg=    0 IThEnd=    7 CPU=   -1 GPU=   -1 NThAct=    1.
 PrSmSu:  NxtVal=              9.
 FFX after D2ST 
                1             2             3             4             5 
      1  0.000000D+00
      2  0.000000D+00  0.000000D+00
      3  0.000000D+00  0.000000D+00  0.000000D+00
      4  0.000000D+00  0.000000D+00  0.000000D+00 -0.205188D+01
      5  0.000000D+00  0.000000D+00  0.000000D+00  0.000000D+00  0.125874D+01
      6  0.000000D+00  0.000000D+00  0.000000D+00  0.000000D+00 -0.244741D+01
      7  0.000000D+00  0.000000D+00  0.000000D+00  0.201959D+01  0.000000D+00
      8  0.000000D+00  0.000000D+00  0.000000D+00  0.000000D+00 -0.119561D+01
      9  0.000000D+00  0.000000D+00  0.000000D+00  0.000000D+00  0.244741D+01
     10  0.000000D+00  0.000000D+00  0.000000D+00  0.322910D-01  0.000000D+00
     11  0.000000D+00  0.000000D+00  0.000000D+00  0.000000D+00 -0.631256D-01
     12  0.000000D+00  0.000000D+00  0.000000D+00  0.000000D+00  0.000000D+00
                6             7             8             9            10 
      6 -0.191518D+00
      7  0.000000D+00 -0.403918D+01
      8  0.244741D+01  0.000000D+00  0.239122D+01
      9  0.159227D+00  0.000000D+00  0.000000D+00 -0.318454D+00
     10  0.000000D+00  0.201959D+01  0.000000D+00  0.000000D+00 -0.205188D+01
     11  0.000000D+00  0.000000D+00 -0.119561D+01 -0.244741D+01  0.000000D+00
     12  0.322910D-01  0.000000D+00 -0.244741D+01  0.159227D+00  0.000000D+00
               11            12 
     11  0.125874D+01
     12  0.244741D+01 -0.191518D+00
 Entering OneElI...
 OneElI was handed  4294965853 working-precision words.
 Calculate potential energy integrals
    NBasis =  19  MinDer = 2  MaxDer = 2
 Requested accuracy = 0.1000D-12
 ShPair: Thresh= 1.00D-13 NBox=     0 BxSize= 0.00D+00 RnKept= 2.89D+00
         NSMCal=                   36 NSMKep=                  36
 PrmmSu-InSpLW:  IPartL=    0 NPrtUS=    8 NPrtUL=    1 DoSpLW=F IThBeg=    0 IThEnd=    7 NThAct=    8.
 PrSmSu:  IncTry=   512 NBBP=            108 NTPThr=   100 NPartT=    8 Incr=           1 LDynOK=F GPUOK=F.
 PrsmSu:  NPrtUS=   8 ThrOK=T IAlg=2 LenDen=           0 ISkipM=0 DoSpLW=F IThBeg=    0 IThEnd=    7.
 PRISM was handed   536866374 working-precision words and    36 shell-pairs
 PRISM was handed   536866374 working-precision words and    36 shell-pairs
 PRISM was handed   536866374 working-precision words and    36 shell-pairs
 Prism:   IPart=     0 DynPar=F LinDyn=F Incr=           1.
 PRISM was handed   536866374 working-precision words and    36 shell-pairs
 PRISM was handed   536866374 working-precision words and    36 shell-pairs
 PRISM was handed   536866374 working-precision words and    36 shell-pairs
 PRISM was handed   536866374 working-precision words and    36 shell-pairs
 PRISM was handed   536866374 working-precision words and    36 shell-pairs
 IPart=  2 NShTot=           9 NBatch=           3 AvBLen=         3.0
 PrsmSu-ThDecC:  IPartSL=    2    0 NPrtUSL=    8    1 IThBeg=    0 IThEnd=    7 CPU=   -1 GPU=   -1 NThAct=    8.
 IPart=  7 NShTot=           0 NBatch=           0 AvBLen=         0.0
 PrsmSu-ThDecC:  IPartSL=    7    0 NPrtUSL=    8    1 IThBeg=    0 IThEnd=    7 CPU=   -1 GPU=   -1 NThAct=    7.
 IPart=  1 NShTot=          30 NBatch=          10 AvBLen=         3.0
 PrsmSu-ThDecC:  IPartSL=    1    0 NPrtUSL=    8    1 IThBeg=    0 IThEnd=    7 CPU=   -1 GPU=   -1 NThAct=    6.
 IPart=  0 NShTot=          63 NBatch=          21 AvBLen=         3.0
 PrsmSu-ThDecC:  IPartSL=    0    0 NPrtUSL=    8    1 IThBeg=    0 IThEnd=    7 CPU=   -1 GPU=   -1 NThAct=    5.
 IPart=  4 NShTot=           0 NBatch=           0 AvBLen=         0.0
 PrsmSu-ThDecC:  IPartSL=    4    0 NPrtUSL=    8    1 IThBeg=    0 IThEnd=    7 CPU=   -1 GPU=   -1 NThAct=    4.
 IPart=  5 NShTot=           0 NBatch=           0 AvBLen=         0.0
 PrsmSu-ThDecC:  IPartSL=    5    0 NPrtUSL=    8    1 IThBeg=    0 IThEnd=    7 CPU=   -1 GPU=   -1 NThAct=    3.
 IPart=  6 NShTot=           0 NBatch=           0 AvBLen=         0.0
 PrsmSu-ThDecC:  IPartSL=    6    0 NPrtUSL=    8    1 IThBeg=    0 IThEnd=    7 CPU=   -1 GPU=   -1 NThAct=    2.
 IPart=  3 NShTot=           6 NBatch=           2 AvBLen=         3.0
 PrsmSu-ThDecC:  IPartSL=    3    0 NPrtUSL=    8    1 IThBeg=    0 IThEnd=    7 CPU=   -1 GPU=   -1 NThAct=    1.
 PrSmSu:  NxtVal=              9.
 FFX after D2V 
                1             2             3             4             5 
      1  0.000000D+00
      2  0.000000D+00  0.000000D+00
      3  0.000000D+00  0.000000D+00  0.000000D+00
      4  0.000000D+00  0.000000D+00  0.000000D+00  0.217604D+01
      5  0.000000D+00  0.000000D+00  0.000000D+00  0.000000D+00  0.810713D+00
      6  0.000000D+00  0.000000D+00  0.000000D+00  0.000000D+00  0.106931D+01
      7  0.000000D+00  0.000000D+00  0.000000D+00 -0.221286D+01  0.000000D+00
      8  0.000000D+00  0.000000D+00  0.000000D+00  0.000000D+00 -0.760516D+00
      9  0.000000D+00  0.000000D+00  0.000000D+00  0.000000D+00 -0.104590D+01
     10  0.000000D+00  0.000000D+00  0.000000D+00  0.368247D-01  0.000000D+00
     11  0.000000D+00  0.000000D+00  0.000000D+00  0.000000D+00 -0.501975D-01
     12  0.000000D+00  0.000000D+00  0.000000D+00  0.000000D+00 -0.234041D-01
                6             7             8             9            10 
      6  0.148755D+01
      7  0.000000D+00  0.442573D+01
      8 -0.109271D+01  0.000000D+00  0.152103D+01
      9 -0.154530D+01  0.000000D+00  0.000000D+00  0.309061D+01
     10  0.000000D+00 -0.221286D+01  0.000000D+00  0.000000D+00  0.217604D+01
     11  0.234041D-01  0.000000D+00 -0.760516D+00  0.104590D+01  0.000000D+00
     12  0.577534D-01  0.000000D+00  0.109271D+01 -0.154530D+01  0.000000D+00
               11            12 
     11  0.810713D+00
     12 -0.106931D+01  0.148755D+01
 Second derivatives from L701 IAtSt=0:
                1             2             3             4             5 
      1  0.000000D+00
      2  0.000000D+00  0.000000D+00
      3  0.000000D+00  0.000000D+00  0.000000D+00
      4  0.000000D+00  0.000000D+00  0.000000D+00  0.217604D+01
      5  0.000000D+00  0.000000D+00  0.000000D+00  0.000000D+00  0.810713D+00
      6  0.000000D+00  0.000000D+00  0.000000D+00  0.000000D+00  0.106931D+01
      7  0.000000D+00  0.000000D+00  0.000000D+00 -0.221286D+01  0.000000D+00
      8  0.000000D+00  0.000000D+00  0.000000D+00  0.000000D+00 -0.760516D+00
      9  0.000000D+00  0.000000D+00  0.000000D+00  0.000000D+00 -0.104590D+01
     10  0.000000D+00  0.000000D+00  0.000000D+00  0.368247D-01  0.000000D+00
     11  0.000000D+00  0.000000D+00  0.000000D+00  0.000000D+00 -0.501975D-01
     12  0.000000D+00  0.000000D+00  0.000000D+00  0.000000D+00 -0.234041D-01
                6             7             8             9            10 
      6  0.148755D+01
      7  0.000000D+00  0.442573D+01
      8 -0.109271D+01  0.000000D+00  0.152103D+01
      9 -0.154530D+01  0.000000D+00  0.000000D+00  0.309061D+01
     10  0.000000D+00 -0.221286D+01  0.000000D+00  0.000000D+00  0.217604D+01
     11  0.234041D-01  0.000000D+00 -0.760516D+00  0.104590D+01  0.000000D+00
     12  0.577534D-01  0.000000D+00  0.109271D+01 -0.154530D+01  0.000000D+00
               11            12 
     11  0.810713D+00
     12 -0.106931D+01  0.148755D+01
 Polarizability into L701:
                1             2             3 
      1  0.276167D+01
      2  0.000000D+00  0.709858D+01
      3  0.000000D+00  0.000000D+00  0.505657D+01
 Polarizability after L701:
                1             2             3 
      1  0.276167D+01
      2  0.000000D+00  0.709858D+01
      3  0.000000D+00  0.000000D+00  0.505657D+01
 Dipole Derivatives into L701:
                 1             2             3             4             5 
      1   0.392416D+00  0.000000D+00  0.000000D+00 -0.784833D+00  0.000000D+00
      2   0.000000D+00  0.255590D+00  0.105910D+00  0.000000D+00 -0.511180D+00
      3   0.000000D+00  0.636531D-01  0.223177D+00  0.000000D+00  0.000000D+00
                 6             7             8             9 
      1   0.000000D+00  0.392416D+00  0.000000D+00  0.000000D+00
      2   0.000000D+00  0.000000D+00  0.255590D+00 -0.105910D+00
      3  -0.446353D+00  0.000000D+00 -0.636531D-01  0.223177D+00
 Dipole Derivatives after L701:
                 1             2             3             4             5 
      1   0.392416D+00  0.000000D+00  0.000000D+00 -0.784833D+00  0.000000D+00
      2   0.000000D+00  0.255590D+00  0.105910D+00  0.000000D+00 -0.511180D+00
      3   0.000000D+00  0.636531D-01  0.223177D+00  0.000000D+00  0.000000D+00
                 6             7             8             9 
      1   0.000000D+00  0.392416D+00  0.000000D+00  0.000000D+00
      2   0.000000D+00  0.000000D+00  0.255590D+00 -0.105910D+00
      3  -0.446353D+00  0.000000D+00 -0.636531D-01  0.223177D+00
 Hessian into L701:
                1             2             3             4             5 
      1  0.258050D-01
      2  0.000000D+00  0.140171D+00
      3  0.000000D+00 -0.771819D-01  0.791803D-01
      4 -0.116253D-01  0.000000D+00  0.000000D+00  0.232506D-01
      5  0.000000D+00 -0.125409D+00  0.149809D+00  0.000000D+00  0.250819D+00
      6  0.000000D+00  0.455461D-02 -0.706476D-01  0.000000D+00  0.000000D+00
      7 -0.141797D-01  0.000000D+00  0.000000D+00 -0.116253D-01  0.000000D+00
      8  0.000000D+00 -0.147621D-01 -0.726273D-01  0.000000D+00 -0.125409D+00
      9  0.000000D+00  0.726273D-01 -0.853277D-02  0.000000D+00 -0.149809D+00
                6             7             8             9 
      6  0.141295D+00
      7  0.000000D+00  0.258050D-01
      8 -0.455461D-02  0.000000D+00  0.140171D+00
      9 -0.706476D-01  0.000000D+00  0.771819D-01  0.791803D-01
 Hessian after L701:
                1             2             3             4             5 
      1  0.220184D+01
      2  0.000000D+00  0.950885D+00
      3  0.000000D+00  0.992124D+00  0.156673D+01
      4 -0.222449D+01  0.000000D+00  0.000000D+00  0.444898D+01
      5  0.000000D+00 -0.885925D+00 -0.942901D+00  0.000000D+00  0.177185D+01
      6  0.000000D+00 -0.104135D+01 -0.161595D+01  0.000000D+00  0.000000D+00
      7  0.226449D-01  0.000000D+00  0.000000D+00 -0.222449D+01  0.000000D+00
      8  0.000000D+00 -0.649596D-01 -0.492232D-01  0.000000D+00 -0.885925D+00
      9  0.000000D+00  0.492232D-01  0.492206D-01  0.000000D+00  0.942901D+00
                6             7             8             9 
      6  0.323190D+01
      7  0.000000D+00  0.220184D+01
      8  0.104135D+01  0.000000D+00  0.950885D+00
      9 -0.161595D+01  0.000000D+00 -0.992124D+00  0.156673D+01
 Leave Link  701 at Tue Mar 10 00:06:55 2026, MaxMem=  4294967296 cpu:               0.2 elap:               0.0
 (Enter /Users/vincenzobarone/gdv_j32p/gdv/l702.exe)
 L702 exits ... SP integral derivatives will be done elsewhere.
 Leave Link  702 at Tue Mar 10 00:06:55 2026, MaxMem=  4294967296 cpu:               0.0 elap:               0.0
 (Enter /Users/vincenzobarone/gdv_j32p/gdv/l703.exe)
 GetPMM: IRwPM=    824 LRwPM=      0 LPMAll=      2
 Integral derivatives from FoFJK, PRISM(SPDF).
 Compute integral second derivatives, UseDBF=F ICtDFT=           0.
 ICntrl=    100127.
 Calling FoFJK, ICntrl=    100127 FMM=F ISym2X=0 I1Cent= 0 IOpClX= 0 NMat=1 NMatS=1 NMatT=0.
 FoFJK:  IHMeth= 1 ICntrl=  100127 DoSepK=F KAlg= 0 I1Cent=           0 FoldK=F
 IRaf=         0 NMat=       1 IRICut=       1 DoRegI=T DoRafI=F ISym2E= 0 IDoP0=0 IntGTp=1.
 FoFCou: FMM=F IPFlag=           0 FMFlag=      100000 FMFlg1=         800
         NFxFlg=           0 DoJE=F BraDBF=F KetDBF=F FulRan=T
         wScrn=  0.000000 ICntrl=    100127 IOpCl=  0 I1Cent=           0 NGrid=           0
         NMat0=    1 NMatS0=      1 NMatT0=    0 NMatD0=    1 NMtDS0=    0 NMtDT0=    0
 Symmetry not used in FoFCou.
 FoFCou:  KetSym=F NOpSet=  1 NOpAb=1 NOp=  1.
 FoFCou:  CnvScl= 1.00D+00 Thresh= 1.00D-12 IAcrcy=      10.
 ShPair: Thresh= 1.00D-12 NBox=     0 BxSize= 0.00D+00 RnKept= 2.89D+00
         NSMCal=                   36 NSMKep=                  36
 PrismS was handed  4294959801 working-precision words and    36 shell-pairs
 LenC2 before Schwartz=          37 after=          37 DMx= 1.04D+00.
 FoFCou: LinMIO=F DoNuc=F BraDBF=F KetDBF=F HaveP=T PDBF=F HaveZ=T HaveW=F
         NIJTC =       6 NIJTAt=       0 NIJTCD=       0 NIJTT =       6
         IJTBeg=       1 IJTEnd=       6 KLTBeg=       1 KLTEnd=       6
         IPTBeg=       1 IPTEnd=       6 IPTBCv=       1 IPTECv=       6
         IZTBeg=       1 IZTEnd=       6 IZTBCv=       1 IZTECv=       6
         IWTBeg=       7 IWTEnd=       6 IWTBCv=       7 IWTECv=       6
         INTBeg=       1 INTEnd=       0 IFTBCv=       1 IFTECv=       6
 NCel replicated for PrismC:     1
 CoulSu-InSpLW:  IPartL=    0 NPrtUS=    8 NPrtUL=    1 DoSpLW=F IThBeg=    0 IThEnd=    7 NThAct=    8.
 CoulSu:  IncTry=  1024 NBBP=            666 NTPThr=   100 NPartT=    8 Incr=           1 LDynOK=F GPUOK=F.
 CoulSu:  NPrtUS=   8 ThrOK=T IAlg=2 LenDen=           0 LWGrdD=           0 DoCopy=F ISkipM=0
          DoSpLW=F IThBeg=    0 IThEnd=    7.
 CoulSu:  IPart=    4 IPartR=    4 CPU=   -1 GPU=   -1.
 CoulSu:  IPart=    5 IPartR=    5 CPU=   -1 GPU=   -1.
 CoulSu:  IPart=    6 IPartR=    6 CPU=   -1 GPU=   -1.
 Enter PrismC:  IPart=  4 JobTyp=22 DoJE=F Cont=F.
 CoulSu:  IPart=    2 IPartR=    2 CPU=   -1 GPU=   -1.
 CoulSu:  IPart=    0 IPartR=    0 CPU=   -1 GPU=   -1.
 CoulSu:  IPart=    1 IPartR=    1 CPU=   -1 GPU=   -1.
 Enter PrismC:  IPart=  5 JobTyp=22 DoJE=F Cont=F.
 CoulSu:  IPart=    3 IPartR=    3 CPU=   -1 GPU=   -1.
 PrismC:  IPart=     4 DynPar=F LinDyn=F Incr=           1 UseFst=F UseS4=T ISplat=2.
 PrismC was handed   536866518 working-precision words and    36 shell-pairs
 Enter PrismC:  IPart=  6 JobTyp=22 DoJE=F Cont=F.
 CoulSu:  IPart=    7 IPartR=    7 CPU=   -1 GPU=   -1.
 PrismC:  IPart=     5 DynPar=F LinDyn=F Incr=           1 UseFst=F UseS4=T ISplat=2.
 PrismC was handed   536866518 working-precision words and    36 shell-pairs
 Enter PrismC:  IPart=  7 JobTyp=22 DoJE=F Cont=F.
 Enter PrismC:  IPart=  0 JobTyp=22 DoJE=F Cont=F.
 PrismC:  IPart=     6 DynPar=F LinDyn=F Incr=           1 UseFst=F UseS4=T ISplat=2.
 PrismC was handed   536866518 working-precision words and    36 shell-pairs
 Enter PrismC:  IPart=  1 JobTyp=22 DoJE=F Cont=F.
 PrismC:  IPart=     7 DynPar=F LinDyn=F Incr=           1 UseFst=F UseS4=T ISplat=2.
 PrismC was handed   536866518 working-precision words and    36 shell-pairs
 Enter PrismC:  IPart=  3 JobTyp=22 DoJE=F Cont=F.
 PrismC:  IPart=     0 DynPar=F LinDyn=F Incr=           1 UseFst=F UseS4=T ISplat=2.
 PrismC was handed   536866518 working-precision words and    36 shell-pairs
 Enter PrismC:  IPart=  2 JobTyp=22 DoJE=F Cont=F.
 PrismC:  IPart=     1 DynPar=F LinDyn=F Incr=           1 UseFst=F UseS4=T ISplat=2.
 PrismC was handed   536866518 working-precision words and    36 shell-pairs
 PrismC:  IPart=     3 DynPar=F LinDyn=F Incr=           1 UseFst=F UseS4=T ISplat=2.
 PrismC was handed   536866518 working-precision words and    36 shell-pairs
 PrismC:  IPart=     2 DynPar=F LinDyn=F Incr=           1 UseFst=F UseS4=T ISplat=2.
 PrismC was handed   536866518 working-precision words and    36 shell-pairs
 IPart=  5 NShTot=          29 NShNF=          29 NShFF=           0 MinMC=       7
           NShCPU=          29 NBCPU=          26 AvBCPU=         1.1
           NShGPU=           0 NBGPU=           0 AvBGPU=         0.0
 CoulSu-ThDecC:  IPartSL=    5    0 NPrtUSL=    8    1 IThBeg=    0 IThEnd=    7 CPU=   -1 GPU=   -1 NThAct=    8.
 IPart=  7 NShTot=          21 NShNF=          21 NShFF=           0 MinMC=       7
           NShCPU=          21 NBCPU=          20 AvBCPU=         1.1
           NShGPU=           0 NBGPU=           0 AvBGPU=         0.0
 CoulSu-ThDecC:  IPartSL=    7    0 NPrtUSL=    8    1 IThBeg=    0 IThEnd=    7 CPU=   -1 GPU=   -1 NThAct=    7.
 IPart=  4 NShTot=          30 NShNF=          30 NShFF=           0 MinMC=       7
           NShCPU=          30 NBCPU=          27 AvBCPU=         1.1
           NShGPU=           0 NBGPU=           0 AvBGPU=         0.0
 CoulSu-ThDecC:  IPartSL=    4    0 NPrtUSL=    8    1 IThBeg=    0 IThEnd=    7 CPU=   -1 GPU=   -1 NThAct=    6.
 IPart=  1 NShTot=         160 NShNF=         160 NShFF=           0 MinMC=       7
           NShCPU=         160 NBCPU=         157 AvBCPU=         1.0
           NShGPU=           0 NBGPU=           0 AvBGPU=         0.0
 CoulSu-ThDecC:  IPartSL=    1    0 NPrtUSL=    8    1 IThBeg=    0 IThEnd=    7 CPU=   -1 GPU=   -1 NThAct=    5.
 IPart=  6 NShTot=          21 NShNF=          21 NShFF=           0 MinMC=       7
           NShCPU=          21 NBCPU=          20 AvBCPU=         1.1
           NShGPU=           0 NBGPU=           0 AvBGPU=         0.0
 CoulSu-ThDecC:  IPartSL=    6    0 NPrtUSL=    8    1 IThBeg=    0 IThEnd=    7 CPU=   -1 GPU=   -1 NThAct=    4.
 IPart=  2 NShTot=          90 NShNF=          90 NShFF=           0 MinMC=       7
           NShCPU=          90 NBCPU=          87 AvBCPU=         1.0
           NShGPU=           0 NBGPU=           0 AvBGPU=         0.0
 CoulSu-ThDecC:  IPartSL=    2    0 NPrtUSL=    8    1 IThBeg=    0 IThEnd=    7 CPU=   -1 GPU=   -1 NThAct=    3.
 IPart=  3 NShTot=          78 NShNF=          78 NShFF=           0 MinMC=       7
           NShCPU=          78 NBCPU=          75 AvBCPU=         1.0
           NShGPU=           0 NBGPU=           0 AvBGPU=         0.0
 CoulSu-ThDecC:  IPartSL=    3    0 NPrtUSL=    8    1 IThBeg=    0 IThEnd=    7 CPU=   -1 GPU=   -1 NThAct=    2.
 IPart=  0 NShTot=         237 NShNF=         237 NShFF=           0 MinMC=       7
           NShCPU=         237 NBCPU=         231 AvBCPU=         1.0
           NShGPU=           0 NBGPU=           0 AvBGPU=         0.0
 CoulSu-ThDecC:  IPartSL=    0    0 NPrtUSL=    8    1 IThBeg=    0 IThEnd=    7 CPU=   -1 GPU=   -1 NThAct=    1.
 CoulSu:  NxtVal=              9 LenVP=      536866519 MinMC=       7.
 Hessian from J: 
                1             2             3             4             5 
      1  0.000000D+00
      2  0.000000D+00  0.000000D+00
      3  0.000000D+00  0.000000D+00  0.000000D+00
      4  0.000000D+00  0.000000D+00  0.000000D+00 -0.218980D+01
      5  0.000000D+00  0.000000D+00  0.000000D+00  0.000000D+00 -0.578369D+00
      6  0.000000D+00  0.000000D+00  0.000000D+00  0.000000D+00 -0.121124D+01
      7  0.000000D+00  0.000000D+00  0.000000D+00  0.221212D+01  0.000000D+00
      8  0.000000D+00  0.000000D+00  0.000000D+00  0.000000D+00  0.546080D+00
      9  0.000000D+00  0.000000D+00  0.000000D+00  0.000000D+00  0.122610D+01
     10  0.000000D+00  0.000000D+00  0.000000D+00 -0.223185D-01  0.000000D+00
     11  0.000000D+00  0.000000D+00  0.000000D+00  0.000000D+00  0.322891D-01
     12  0.000000D+00  0.000000D+00  0.000000D+00  0.000000D+00 -0.148593D-01
                6             7             8             9            10 
      6 -0.133981D+01
      7  0.000000D+00 -0.442424D+01
      8  0.119638D+01  0.000000D+00 -0.109216D+01
      9  0.137003D+01  0.000000D+00  0.000000D+00 -0.274006D+01
     10  0.000000D+00  0.221212D+01  0.000000D+00  0.000000D+00 -0.218980D+01
     11  0.148593D-01  0.000000D+00  0.546080D+00 -0.122610D+01  0.000000D+00
     12 -0.302235D-01  0.000000D+00 -0.119638D+01  0.137003D+01  0.000000D+00
               11            12 
     11 -0.578369D+00
     12  0.121124D+01 -0.133981D+01
 Force constants from FoF: 
                1             2             3             4             5 
      1  0.000000D+00
      2  0.000000D+00  0.000000D+00
      3  0.000000D+00  0.000000D+00  0.000000D+00
      4  0.000000D+00  0.000000D+00  0.000000D+00 -0.218980D+01
      5  0.000000D+00  0.000000D+00  0.000000D+00  0.000000D+00 -0.578369D+00
      6  0.000000D+00  0.000000D+00  0.000000D+00  0.000000D+00 -0.121124D+01
      7  0.000000D+00  0.000000D+00  0.000000D+00  0.221212D+01  0.000000D+00
      8  0.000000D+00  0.000000D+00  0.000000D+00  0.000000D+00  0.546080D+00
      9  0.000000D+00  0.000000D+00  0.000000D+00  0.000000D+00  0.122610D+01
     10  0.000000D+00  0.000000D+00  0.000000D+00 -0.223185D-01  0.000000D+00
     11  0.000000D+00  0.000000D+00  0.000000D+00  0.000000D+00  0.322891D-01
     12  0.000000D+00  0.000000D+00  0.000000D+00  0.000000D+00 -0.148593D-01
                6             7             8             9            10 
      6 -0.133981D+01
      7  0.000000D+00 -0.442424D+01
      8  0.119638D+01  0.000000D+00 -0.109216D+01
      9  0.137003D+01  0.000000D+00  0.000000D+00 -0.274006D+01
     10  0.000000D+00  0.221212D+01  0.000000D+00  0.000000D+00 -0.218980D+01
     11  0.148593D-01  0.000000D+00  0.546080D+00 -0.122610D+01  0.000000D+00
     12 -0.302235D-01  0.000000D+00 -0.119638D+01  0.137003D+01  0.000000D+00
               11            12 
     11 -0.578369D+00
     12  0.121124D+01 -0.133981D+01
 Second derivatives from L703 IAtSt=0:
                1             2             3             4             5 
      1  0.000000D+00
      2  0.000000D+00  0.000000D+00
      3  0.000000D+00  0.000000D+00  0.000000D+00
      4  0.000000D+00  0.000000D+00  0.000000D+00 -0.218980D+01
      5  0.000000D+00  0.000000D+00  0.000000D+00  0.000000D+00 -0.578369D+00
      6  0.000000D+00  0.000000D+00  0.000000D+00  0.000000D+00 -0.121124D+01
      7  0.000000D+00  0.000000D+00  0.000000D+00  0.221212D+01  0.000000D+00
      8  0.000000D+00  0.000000D+00  0.000000D+00  0.000000D+00  0.546080D+00
      9  0.000000D+00  0.000000D+00  0.000000D+00  0.000000D+00  0.122610D+01
     10  0.000000D+00  0.000000D+00  0.000000D+00 -0.223185D-01  0.000000D+00
     11  0.000000D+00  0.000000D+00  0.000000D+00  0.000000D+00  0.322891D-01
     12  0.000000D+00  0.000000D+00  0.000000D+00  0.000000D+00 -0.148593D-01
                6             7             8             9            10 
      6 -0.133981D+01
      7  0.000000D+00 -0.442424D+01
      8  0.119638D+01  0.000000D+00 -0.109216D+01
      9  0.137003D+01  0.000000D+00  0.000000D+00 -0.274006D+01
     10  0.000000D+00  0.221212D+01  0.000000D+00  0.000000D+00 -0.218980D+01
     11  0.148593D-01  0.000000D+00  0.546080D+00 -0.122610D+01  0.000000D+00
     12 -0.302235D-01  0.000000D+00 -0.119638D+01  0.137003D+01  0.000000D+00
               11            12 
     11 -0.578369D+00
     12  0.121124D+01 -0.133981D+01
 Polarizability into L703:
                1             2             3 
      1  0.276167D+01
      2  0.000000D+00  0.709858D+01
      3  0.000000D+00  0.000000D+00  0.505657D+01
 Polarizability after L703:
                1             2             3 
      1  0.276167D+01
      2  0.000000D+00  0.709858D+01
      3  0.000000D+00  0.000000D+00  0.505657D+01
 Dipole Derivatives into L703:
                 1             2             3             4             5 
      1   0.392416D+00  0.000000D+00  0.000000D+00 -0.784833D+00  0.000000D+00
      2   0.000000D+00  0.255590D+00  0.105910D+00  0.000000D+00 -0.511180D+00
      3   0.000000D+00  0.636531D-01  0.223177D+00  0.000000D+00  0.000000D+00
                 6             7             8             9 
      1   0.000000D+00  0.392416D+00  0.000000D+00  0.000000D+00
      2   0.000000D+00  0.000000D+00  0.255590D+00 -0.105910D+00
      3  -0.446353D+00  0.000000D+00 -0.636531D-01  0.223177D+00
 Dipole Derivatives after L703:
                 1             2             3             4             5 
      1   0.392416D+00  0.000000D+00  0.000000D+00 -0.784833D+00  0.000000D+00
      2   0.000000D+00  0.255590D+00  0.105910D+00  0.000000D+00 -0.511180D+00
      3   0.000000D+00  0.636531D-01  0.223177D+00  0.000000D+00  0.000000D+00
                 6             7             8             9 
      1   0.000000D+00  0.392416D+00  0.000000D+00  0.000000D+00
      2   0.000000D+00  0.000000D+00  0.255590D+00 -0.105910D+00
      3  -0.446353D+00  0.000000D+00 -0.636531D-01  0.223177D+00
 Hessian into L703:
                1             2             3             4             5 
      1  0.220184D+01
      2  0.000000D+00  0.950885D+00
      3  0.000000D+00  0.992124D+00  0.156673D+01
      4 -0.222449D+01  0.000000D+00  0.000000D+00  0.444898D+01
      5  0.000000D+00 -0.885925D+00 -0.942901D+00  0.000000D+00  0.177185D+01
      6  0.000000D+00 -0.104135D+01 -0.161595D+01  0.000000D+00  0.000000D+00
      7  0.226449D-01  0.000000D+00  0.000000D+00 -0.222449D+01  0.000000D+00
      8  0.000000D+00 -0.649596D-01 -0.492232D-01  0.000000D+00 -0.885925D+00
      9  0.000000D+00  0.492232D-01  0.492206D-01  0.000000D+00  0.942901D+00
                6             7             8             9 
      6  0.323190D+01
      7  0.000000D+00  0.220184D+01
      8  0.104135D+01  0.000000D+00  0.950885D+00
      9 -0.161595D+01  0.000000D+00 -0.992124D+00  0.156673D+01
 Hessian after L703:
                1             2             3             4             5 
      1  0.120448D-01
      2  0.000000D+00  0.372516D+00
      3  0.000000D+00 -0.219117D+00  0.226923D+00
      4 -0.123712D-01  0.000000D+00  0.000000D+00  0.247424D-01
      5  0.000000D+00 -0.339845D+00  0.253481D+00  0.000000D+00  0.679690D+00
      6  0.000000D+00  0.184754D+00 -0.245920D+00  0.000000D+00  0.000000D+00
      7  0.326387D-03  0.000000D+00  0.000000D+00 -0.123712D-01  0.000000D+00
      8  0.000000D+00 -0.326705D-01 -0.343639D-01  0.000000D+00 -0.339845D+00
      9  0.000000D+00  0.343639D-01  0.189972D-01  0.000000D+00 -0.253481D+00
                6             7             8             9 
      6  0.491840D+00
      7  0.000000D+00  0.120448D-01
      8 -0.184754D+00  0.000000D+00  0.372516D+00
      9 -0.245920D+00  0.000000D+00  0.219117D+00  0.226923D+00
 Leave Link  703 at Tue Mar 10 00:06:55 2026, MaxMem=  4294967296 cpu:               0.5 elap:               0.1
 (Enter /Users/vincenzobarone/gdv_j32p/gdv/l716.exe)
 GetPMM: IRwPM=    824 LRwPM=      0 LPMAll=      2
 FrcOut:
 IF    =        40 IFX   =        49 IFXYZ =        58
 IFFX  =        67 IFFFX =       112 IFLen =         9
 IFFLen=        45 IFFFLn=         0 IEDerv=       112
 LEDerv=       485 IFroze=       760 ICStrt=      1562
 Dipole        =-4.54569550D-16-4.65431311D-13-8.79043246D-01
 DipoleDeriv   = 3.92416258D-01 1.10134804D-15-5.14895573D-16
                -2.21017425D-16 2.55589901D-01 6.36531130D-02
                 1.67116226D-16 1.05910467D-01 2.23176588D-01
                -7.84832517D-01-1.12319495D-15 5.53057851D-16
                 5.10981849D-16-5.11179798D-01-4.59898794D-10
                 1.08858610D-16 1.11766696D-09-4.46353176D-01
                 3.92416258D-01 2.18469165D-17-3.81622783D-17
                -2.89964425D-16 2.55589897D-01-6.36531126D-02
                -2.75974836D-16-1.05910468D-01 2.23176588D-01
 Polarizability= 2.76166687D+00-4.50214550D-15 7.09858320D+00
                -2.28101987D-16-2.86464799D-09 5.05656502D+00
 HyperPolar    = 8.76339338D-16 4.94874944D-09 6.93509612D-15
                 2.12747432D-08-1.47340076D-01 2.91358853D-14
                -2.07906028D+01 4.29080881D-15-8.19686677D-07
                -1.00348859D+01
 Quadrupole    =-1.15015287D+00 1.18458229D+00-3.44294126D-02
                 4.17171269D-16-8.57401473D-17 1.76292884D-12
 After rot to inp orien Dipole Moment
                 1 
      1   0.000000D+00
      2   0.000000D+00
      3  -0.879043D+00
 After rot to inp orien Dipole Derivatives
                 1             2             3             4             5 
      1   0.392416D+00  0.000000D+00  0.000000D+00 -0.784833D+00  0.000000D+00
      2   0.000000D+00  0.255590D+00  0.105910D+00  0.000000D+00 -0.511180D+00
      3   0.000000D+00  0.636531D-01  0.223177D+00  0.000000D+00  0.000000D+00
                 6             7             8             9 
      1   0.000000D+00  0.392416D+00  0.000000D+00  0.000000D+00
      2   0.000000D+00  0.000000D+00  0.255590D+00 -0.105910D+00
      3  -0.446353D+00  0.000000D+00 -0.636531D-01  0.223177D+00
 After rot to inp orien Polarizability
                 1 
      1   0.276167D+01
      2   0.000000D+00
      3   0.709858D+01
      4   0.000000D+00
      5   0.000000D+00
      6   0.505657D+01
 After rot to inp orien HyperPolarizability
                 1 
      1   0.000000D+00
      2   0.000000D+00
      3   0.000000D+00
      4   0.000000D+00
      5  -0.147340D+00
      6   0.000000D+00
      7  -0.207906D+02
      8   0.000000D+00
      9   0.000000D+00
     10  -0.100349D+02
 After rot to inp orien Quadrupole Moment
                 1 
      1  -0.115015D+01
      2   0.118458D+01
      3  -0.344294D-01
      4   0.000000D+00
      5   0.000000D+00
      6   0.000000D+00
 After rot to inp orien QEq coupling tensors
                 1             2             3 
      1   0.262331D+00  0.194320D+01  0.262331D+00
      2   0.000000D+00  0.000000D+00  0.000000D+00
      3  -0.216547D+00 -0.168413D+01 -0.216547D+00
      4   0.000000D+00  0.000000D+00  0.000000D+00
      5   0.317301D+00  0.000000D+00 -0.317301D+00
      6  -0.457843D-01 -0.259077D+00 -0.457843D-01
 After rot to inp orien force vector number 1
 I=    1 X=   0.000000000000D+00 Y=   1.695641594289D-02 Z=  -1.385624607871D-02
 I=    2 X=   0.000000000000D+00 Y=   0.000000000000D+00 Z=   2.771249215844D-02
 I=    3 X=   0.000000000000D+00 Y=  -1.695641594422D-02 Z=  -1.385624607973D-02
 After rot to inp orien force vector number 2
 I=    1 X=   0.000000000000D+00 Y=   1.695641594289D-02 Z=  -1.385624607871D-02
 I=    2 X=   0.000000000000D+00 Y=   0.000000000000D+00 Z=   2.771249215844D-02
 I=    3 X=   0.000000000000D+00 Y=  -1.695641594422D-02 Z=  -1.385624607973D-02
 After rot to inp orien cartesian force constants 
                1             2             3             4             5 
      1  0.120448D-01
      2  0.000000D+00  0.372516D+00
      3  0.000000D+00 -0.219117D+00  0.226923D+00
      4 -0.123712D-01  0.000000D+00  0.000000D+00  0.247424D-01
      5  0.000000D+00 -0.339845D+00  0.253481D+00  0.000000D+00  0.679690D+00
      6  0.000000D+00  0.184754D+00 -0.245920D+00  0.000000D+00  0.000000D+00
      7  0.326387D-03  0.000000D+00  0.000000D+00 -0.123712D-01  0.000000D+00
      8  0.000000D+00 -0.326705D-01 -0.343639D-01  0.000000D+00 -0.339845D+00
      9  0.000000D+00  0.343639D-01  0.189972D-01  0.000000D+00 -0.253481D+00
                6             7             8             9 
      6  0.491840D+00
      7  0.000000D+00  0.120448D-01
      8 -0.184754D+00  0.000000D+00  0.372516D+00
      9 -0.245920D+00  0.000000D+00  0.219117D+00  0.226923D+00
 -------------------------------------------------------------------
 Center     Atomic                   Forces (Hartrees/Bohr)
 Number     Number              X              Y              Z
 -------------------------------------------------------------------
      1        1           0.000000000   -0.016956416    0.013856246
      2        8           0.000000000    0.000000000   -0.027712492
      3        1           0.000000000    0.016956416    0.013856246
 -------------------------------------------------------------------
 Cartesian Forces:  Max     0.027712492 RMS     0.013852450
 Force constants in Cartesian coordinates: 
                1             2             3             4             5 
      1  0.120448D-01
      2  0.000000D+00  0.372516D+00
      3  0.000000D+00 -0.219117D+00  0.226923D+00
      4 -0.123712D-01  0.000000D+00  0.000000D+00  0.247424D-01
      5  0.000000D+00 -0.339845D+00  0.253481D+00  0.000000D+00  0.679690D+00
      6  0.000000D+00  0.184754D+00 -0.245920D+00  0.000000D+00  0.000000D+00
      7  0.326387D-03  0.000000D+00  0.000000D+00 -0.123712D-01  0.000000D+00
      8  0.000000D+00 -0.326705D-01 -0.343639D-01  0.000000D+00 -0.339845D+00
      9  0.000000D+00  0.343639D-01  0.189972D-01  0.000000D+00 -0.253481D+00
                6             7             8             9 
      6  0.491840D+00
      7  0.000000D+00  0.120448D-01
      8 -0.184754D+00  0.000000D+00  0.372516D+00
      9 -0.245920D+00  0.000000D+00  0.219117D+00  0.226923D+00
 Final forces over variables, Energy=-7.60098482D+01:
 -2.18939551D-02-2.18939551D-02 3.93350217D-03
 Leave Link  716 at Tue Mar 10 00:06:55 2026, MaxMem=  4294967296 cpu:               0.0 elap:               0.0
 (Enter /Users/vincenzobarone/gdv_j32p/gdv/l106.exe)
 NDeriv=      3 NFrqRd=  0 NDerD0=      0 MskFDP=       0 MskDFD=       0 MskDF0=       0
 Re-enter D2Numr:  normal mode      1 step-down number 1
 Leave Link  106 at Tue Mar 10 00:06:55 2026, MaxMem=  4294967296 cpu:               0.0 elap:               0.0
 (Enter /Users/vincenzobarone/gdv_j32p/gdv/l301.exe)
 Basis read from rwf:  (6D, 7F)
 No pseudopotential information found on rwf file.
    19 basis functions,    36 primitive gaussians,    19 cartesian basis functions
     5 alpha electrons        5 beta electrons
       nuclear repulsion energy         9.1555660193 Hartrees.
 IExCor=         0 DFT=F Ex=HF Corr=None N6=None ScaHFX=  1.000000
 ScaDFX=  1.000000  1.000000  1.000000  1.000000  1.000000  0.000000
 ScaDFX=  0.000000  0.000000  0.000000  0.000000  0.000000  0.000000
 Grid=UltraFine IRanWt=     -1 IRanGd=            0 ICorTp=0 IEDCtl=  2004
 NAtoms=    3 NActive=    3 NUniq=    3 SFac= 1.00D+00 NAtFMM=   60 NAOKFM=F Big=F
 Integral buffers will be    131072 words long.
 Raffenetti 1 integral format.
 Two-electron integral symmetry is turned off.
 No density basis found on file    724.
 Leave Link  301 at Tue Mar 10 00:06:55 2026, MaxMem=  4294967296 cpu:               0.0 elap:               0.0
 (Enter /Users/vincenzobarone/gdv_j32p/gdv/l302.exe)
 NPDir=0 NMtPBC=     1 NCelOv=     1 NCel=       1 NClECP=     1 NCelD=      1
         NCelK=      1 NCelE2=     1 NClLst=     1 CellRange=     0.0.
 One-electron integrals computed using PRISM.
 NBasis=    19 RedAO= T EigKep=  2.24D-02  NBF=    19
 NBsUse=    19 1.00D-06 EigRej= -1.00D+00 NBFU=    19
 Leave Link  302 at Tue Mar 10 00:06:55 2026, MaxMem=  4294967296 cpu:               0.1 elap:               0.0
 (Enter /Users/vincenzobarone/gdv_j32p/gdv/l303.exe)
 DipDrv:  MaxL=1.
 Leave Link  303 at Tue Mar 10 00:06:55 2026, MaxMem=  4294967296 cpu:               0.0 elap:               0.0
 (Enter /Users/vincenzobarone/gdv_j32p/gdv/l401.exe)
 Initial guess from the checkpoint file:  "h2o.chk"
 B after Tr=     0.000000    0.000000    0.000734
         Rot=    1.000000    0.000000    0.000000    0.000000 Ang=   0.00 deg.
 AO Guess basis will be translated and rotated to current coordinates.
 JPrj=2 DoOrth=T DoCkMO=T.
 Leave Link  401 at Tue Mar 10 00:06:55 2026, MaxMem=  4294967296 cpu:               0.0 elap:               0.0
 (Enter /Users/vincenzobarone/gdv_j32p/gdv/l502.exe)
 Keep R1 ints in memory in canonical form, NReq=1665784.
 FoFCou: FMM=F IPFlag=           0 FMFlag=           0 FMFlg1=           0
         NFxFlg=           0 DoJE=F BraDBF=F KetDBF=F FulRan=T
         wScrn=  0.000000 ICntrl=       600 IOpCl=  0 I1Cent=           0 NGrid=           0
         NMat0=    1 NMatS0=    190 NMatT0=    0 NMatD0=    1 NMtDS0=    0 NMtDT0=    0
 Symmetry not used in FoFCou.
 Two-electron integral symmetry not used.
 Closed shell SCF:
 Using DIIS extrapolation, IDIIS=  1040.
 NGot=  4294967296 LenX=  4294947479 LenY=  4294946597
 Requested convergence on RMS density matrix=1.00D-08 within  48 cycles.
 Requested convergence on MAX density matrix=1.00D-06.
 Requested convergence on             energy=1.00D-06.
 No special actions if energy rises.

 Cycle   1  Pass 1  IDiag  1:
 E= -76.0102348374843    
 DIIS: error= 1.48D-03 at cycle   1 NSaved=   1.
 NSaved= 1 IEnMin= 1 EnMin= -76.0102348374843     IErMin= 1 ErrMin= 1.48D-03
 ErrMax= 1.48D-03  0.00D+00 EMaxC= 1.00D-01 BMatC= 1.66D-05 BMatP= 1.66D-05
 Rises=F IDIUse=3 WtCom= 9.94D-01 WtEn= 5.70D-03
 Coeff-Com:  0.100D+01
 Coeff-En:   0.100D+01
 Coeff:      0.100D+01
 Gap=     1.709 Goal=   None    Shift=    0.000
 GapD=    1.709 DampG=2.000 DampE=1.000 DampFc=2.0000 IDamp=-1.
 RMSDP=2.86D-04 MaxDP=1.87D-03              OVMax= 2.15D-03

 Cycle   2  Pass 1  IDiag  1:
 E= -76.0102661403090     Delta-E=       -0.000031302825 Rises=F Damp=F AM=F Ri=F Fa=F
 DIIS: error= 7.35D-04 at cycle   2 NSaved=   2.
 NSaved= 2 IEnMin= 2 EnMin= -76.0102661403090     IErMin= 2 ErrMin= 7.35D-04
 ErrMax= 7.35D-04  0.00D+00 EMaxC= 1.00D-01 BMatC= 3.24D-06 BMatP= 1.66D-05
 Rises=F IDIUse=3 WtCom= 9.98D-01 WtEn= 1.99D-03
 Coeff-Com:  0.217D+00 0.783D+00
 Coeff-En:   0.000D+00 0.100D+01
 Coeff:      0.217D+00 0.783D+00
 Gap=     0.708 Goal=   None    Shift=    0.000
 RMSDP=9.23D-05 MaxDP=8.52D-04 DE=-3.13D-05 OVMax= 6.92D-04

 Cycle   3  Pass 1  IDiag  1:
 E= -76.0102707095053     Delta-E=       -0.000004569196 Rises=F Damp=F AM=F Ri=F Fa=F
 DIIS: error= 1.92D-04 at cycle   3 NSaved=   3.
 NSaved= 3 IEnMin= 3 EnMin= -76.0102707095053     IErMin= 3 ErrMin= 1.92D-04
 ErrMax= 1.92D-04  0.00D+00 EMaxC= 1.00D-01 BMatC= 2.24D-07 BMatP= 3.24D-06
 Rises=F IDIUse=3 WtCom= 1.00D+00 WtEn= 2.67D-04
 Coeff-Com: -0.811D-01 0.682D-01 0.101D+01
 Coeff-En:   0.000D+00 0.000D+00 0.100D+01
 Coeff:     -0.810D-01 0.682D-01 0.101D+01
 Gap=     0.708 Goal=   None    Shift=    0.000
 RMSDP=4.12D-05 MaxDP=2.36D-04 DE=-4.57D-06 OVMax= 4.42D-04

 Cycle   4  Pass 1  IDiag  1:
 E= -76.0102713868866     Delta-E=       -0.000000677381 Rises=F Damp=F AM=F Ri=F Fa=F
 DIIS: error= 5.01D-05 at cycle   4 NSaved=   4.
 NSaved= 4 IEnMin= 4 EnMin= -76.0102713868866     IErMin= 4 ErrMin= 5.01D-05
 ErrMax= 5.01D-05  0.00D+00 EMaxC= 1.00D-01 BMatC= 1.14D-08 BMatP= 2.24D-07
 Rises=F IDIUse=1 WtCom= 1.00D+00 WtEn= 0.00D+00
 Coeff-Com:  0.277D-02-0.539D-01-0.111D+00 0.116D+01
 Coeff:      0.277D-02-0.539D-01-0.111D+00 0.116D+01
 Gap=     0.708 Goal=   None    Shift=    0.000
 RMSDP=1.33D-05 MaxDP=8.34D-05 DE=-6.77D-07 OVMax= 1.38D-04

 Cycle   5  Pass 1  IDiag  1:
 E= -76.0102714367930     Delta-E=       -0.000000049906 Rises=F Damp=F AM=F Ri=F Fa=F
 DIIS: error= 1.06D-05 at cycle   5 NSaved=   5.
 NSaved= 5 IEnMin= 5 EnMin= -76.0102714367930     IErMin= 5 ErrMin= 1.06D-05
 ErrMax= 1.06D-05  0.00D+00 EMaxC= 1.00D-01 BMatC= 5.86D-10 BMatP= 1.14D-08
 Rises=F IDIUse=1 WtCom= 1.00D+00 WtEn= 0.00D+00
 Coeff-Com:  0.379D-02 0.543D-02-0.276D-01-0.283D+00 0.130D+01
 Coeff:      0.379D-02 0.543D-02-0.276D-01-0.283D+00 0.130D+01
 Gap=     0.708 Goal=   None    Shift=    0.000
 RMSDP=4.58D-06 MaxDP=2.33D-05 DE=-4.99D-08 OVMax= 4.67D-05

 Cycle   6  Pass 1  IDiag  1:
 E= -76.0102714402165     Delta-E=       -0.000000003423 Rises=F Damp=F AM=F Ri=F Fa=F
 DIIS: error= 1.83D-06 at cycle   6 NSaved=   6.
 NSaved= 6 IEnMin= 6 EnMin= -76.0102714402165     IErMin= 6 ErrMin= 1.83D-06
 ErrMax= 1.83D-06  0.00D+00 EMaxC= 1.00D-01 BMatC= 1.75D-11 BMatP= 5.86D-10
 Rises=F IDIUse=1 WtCom= 1.00D+00 WtEn= 0.00D+00
 Coeff-Com: -0.176D-02-0.138D-02 0.154D-01 0.103D+00-0.590D+00 0.147D+01
 Coeff:     -0.176D-02-0.138D-02 0.154D-01 0.103D+00-0.590D+00 0.147D+01
 Gap=     0.708 Goal=   None    Shift=    0.000
 RMSDP=7.23D-07 MaxDP=5.01D-06 DE=-3.42D-09 OVMax= 6.05D-06

 Cycle   7  Pass 1  IDiag  1:
 E= -76.0102714403039     Delta-E=       -0.000000000087 Rises=F Damp=F AM=F Ri=F Fa=F
 DIIS: error= 1.69D-07 at cycle   7 NSaved=   7.
 NSaved= 7 IEnMin= 7 EnMin= -76.0102714403039     IErMin= 7 ErrMin= 1.69D-07
 ErrMax= 1.69D-07  0.00D+00 EMaxC= 1.00D-01 BMatC= 3.09D-13 BMatP= 1.75D-11
 Rises=F IDIUse=1 WtCom= 1.00D+00 WtEn= 0.00D+00
 Coeff-Com:  0.394D-03 0.306D-03-0.381D-02-0.211D-01 0.132D+00-0.404D+00
 Coeff-Com:  0.130D+01
 Coeff:      0.394D-03 0.306D-03-0.381D-02-0.211D-01 0.132D+00-0.404D+00
 Coeff:      0.130D+01
 Gap=     0.708 Goal=   None    Shift=    0.000
 RMSDP=6.71D-08 MaxDP=4.69D-07 DE=-8.75D-11 OVMax= 6.10D-07

 Cycle   8  Pass 1  IDiag  1:
 E= -76.0102714403051     Delta-E=       -0.000000000001 Rises=F Damp=F AM=F Ri=F Fa=F
 DIIS: error= 3.03D-08 at cycle   8 NSaved=   8.
 NSaved= 8 IEnMin= 8 EnMin= -76.0102714403051     IErMin= 8 ErrMin= 3.03D-08
 ErrMax= 3.03D-08  0.00D+00 EMaxC= 1.00D-01 BMatC= 8.34D-15 BMatP= 3.09D-13
 Rises=F IDIUse=1 WtCom= 1.00D+00 WtEn= 0.00D+00
 Coeff-Com: -0.540D-04-0.677D-04 0.573D-03 0.313D-02-0.199D-01 0.678D-01
 Coeff-Com: -0.361D+00 0.131D+01
 Coeff:     -0.540D-04-0.677D-04 0.573D-03 0.313D-02-0.199D-01 0.678D-01
 Coeff:     -0.361D+00 0.131D+01
 Gap=     0.708 Goal=   None    Shift=    0.000
 RMSDP=1.23D-08 MaxDP=6.97D-08 DE=-1.22D-12 OVMax= 1.04D-07

 Cycle   9  Pass 1  IDiag  1:
 E= -76.0102714403052     Delta-E=        0.000000000000 Rises=F Damp=F AM=F Ri=F Fa=F
 DIIS: error= 3.80D-09 at cycle   9 NSaved=   9.
 NSaved= 9 IEnMin= 9 EnMin= -76.0102714403052     IErMin= 9 ErrMin= 3.80D-09
 ErrMax= 3.80D-09  0.00D+00 EMaxC= 1.00D-01 BMatC= 7.31D-17 BMatP= 8.34D-15
 Rises=F IDIUse=1 WtCom= 1.00D+00 WtEn= 0.00D+00
 Coeff-Com:  0.129D-04 0.161D-04-0.140D-03-0.751D-03 0.483D-02-0.173D-01
 Coeff-Com:  0.100D+00-0.413D+00 0.133D+01
 Coeff:      0.129D-04 0.161D-04-0.140D-03-0.751D-03 0.483D-02-0.173D-01
 Coeff:      0.100D+00-0.413D+00 0.133D+01
 Gap=     0.708 Goal=   None    Shift=    0.000
 RMSDP=1.70D-09 MaxDP=8.45D-09 DE=-1.14D-13 OVMax= 1.38D-08

 SCF Done:  E(RHF) =  -76.0102714403     A.U. after    9 cycles
            NFock=  9  Conv=0.17D-08     -V/T= 2.0027
 KE=          75.806020 PE=        -198.787716 EE=          37.815859
 Leave Link  502 at Tue Mar 10 00:06:55 2026, MaxMem=  4294967296 cpu:               0.1 elap:               0.0
 (Enter /Users/vincenzobarone/gdv_j32p/gdv/l508.exe)
 QCSCF skips out because SCF is already converged.
 Leave Link  508 at Tue Mar 10 00:06:55 2026, MaxMem=  4294967296 cpu:               0.0 elap:               0.0
 (Enter /Users/vincenzobarone/gdv_j32p/gdv/l801.exe)
 Range of M.O.s used for correlation:     1    19
 NBasis=    19 NAE=     5 NBE=     5 NFC=     0 NFV=     0
 NROrb=     19 NOA=     5 NOB=     5 NVA=    14 NVB=    14
 Leave Link  801 at Tue Mar 10 00:06:55 2026, MaxMem=  4294967296 cpu:               0.0 elap:               0.0
 (Enter /Users/vincenzobarone/gdv_j32p/gdv/l1101.exe)
 Using compressed storage, NAtomX=     3.
 Will process      4 centers per pass.
 Leave Link 1101 at Tue Mar 10 00:06:55 2026, MaxMem=  4294967296 cpu:               0.1 elap:               0.0
 (Enter /Users/vincenzobarone/gdv_j32p/gdv/l1102.exe)
 Symmetrizing basis deriv contribution to polar:
 IMax=3 JMax=2 DiffMx= 0.00D+00
 Leave Link 1102 at Tue Mar 10 00:06:55 2026, MaxMem=  4294967296 cpu:               0.0 elap:               0.0
 (Enter /Users/vincenzobarone/gdv_j32p/gdv/l1110.exe)
 Forming Gx(P) for the SCF density, NAtomX=     3.
 Integral derivatives from FoFJK, PRISM(SPDF).
 Do as many integral derivatives as possible in FoFJK.
 G2DrvN: MDV=    4294966829.
 G2DrvN: will do     4 centers at a time, making    1 passes.
 Calling FoFCou, ICntrl=  3107 FMM=F I1Cent=   0 AccDes= 0.00D+00.
 FoFJK:  IHMeth= 1 ICntrl=    3107 DoSepK=F KAlg= 0 I1Cent=           0 FoldK=F
 IRaf=         0 NMat=       1 IRICut=       1 DoRegI=T DoRafI=F ISym2E= 0 IDoP0=0 IntGTp=1.
 FoFCou: FMM=F IPFlag=           0 FMFlag=      100000 FMFlg1=           0
         NFxFlg=           0 DoJE=F BraDBF=F KetDBF=F FulRan=T
         wScrn=  0.000000 ICntrl=      3107 IOpCl=  0 I1Cent=           0 NGrid=           0
         NMat0=    1 NMatS0=      1 NMatT0=    0 NMatD0=    1 NMtDS0=    0 NMtDT0=    0
 Symmetry not used in FoFCou.
 End of G2Drv FD prop file    721 does not exist.
 End of G2Drv FD prop file    722 does not exist.
 End of G2Drv FD prop file    788 does not exist.
 End of G2Drv FD prop file    804 does not exist.
 Leave Link 1110 at Tue Mar 10 00:06:55 2026, MaxMem=  4294967296 cpu:               0.2 elap:               0.0
 (Enter /Users/vincenzobarone/gdv_j32p/gdv/l1002.exe)
 Minotr:  Closed shell wavefunction.
          IDoAtm=111
          Direct CPHF calculation.
          Differentiating once with respect to electric field.
                with respect to dipole field.
          Differentiating once with respect to nuclear coordinates.
          Requested convergence is 1.0D-08 RMS, and 1.0D-07 maximum.
          Secondary convergence is 1.0D-12 RMS, and 1.0D-12 maximum.
          NewPWx=T KeepS1=F KeepF1=F KeepIn=T MapXYZ=F SortEE=F KeepMc=T.
 Keep R1 ints in memory in canonical form, NReq=1666339.
 FoFCou: FMM=F IPFlag=           0 FMFlag=           0 FMFlg1=           0
         NFxFlg=           0 DoJE=F BraDBF=F KetDBF=F FulRan=T
         wScrn=  0.000000 ICntrl=       600 IOpCl=  0 I1Cent=           0 NGrid=           0
         NMat0=    1 NMatS0=    190 NMatT0=    0 NMatD0=    1 NMtDS0=    0 NMtDT0=    0
 Symmetry not used in FoFCou.
 Two-electron integral symmetry not used.
          MDV=    4294967296 using Grid=Fine.
          Solving linear equations simultaneously, MaxMat=       0.
          There are    12 degrees of freedom in the 1st order CPHF.  IDoFFX=6 NUNeed=     3.
      9 vectors produced by pass  0 Test12= 5.83D-16 8.33D-09 XBig12= 1.21D+00 7.56D-01.
 AX will form     9 AO Fock derivatives at one time.
      9 vectors produced by pass  1 Test12= 5.83D-16 8.33D-09 XBig12= 5.62D-02 1.25D-01.
      9 vectors produced by pass  2 Test12= 5.83D-16 8.33D-09 XBig12= 8.69D-04 1.38D-02.
      9 vectors produced by pass  3 Test12= 5.83D-16 8.33D-09 XBig12= 3.79D-06 1.01D-03.
      9 vectors produced by pass  4 Test12= 5.83D-16 8.33D-09 XBig12= 1.45D-08 5.95D-05.
      8 vectors produced by pass  5 Test12= 5.83D-16 8.33D-09 XBig12= 2.66D-11 2.27D-06.
      2 vectors produced by pass  6 Test12= 5.83D-16 8.33D-09 XBig12= 1.70D-13 1.73D-07.
      1 vectors produced by pass  7 Test12= 5.83D-16 8.33D-09 XBig12= 2.66D-16 1.05D-08.
 InvSVY:  IOpt=1 It=  1 EMax= 4.44D-16
 Solved reduced A of dimension    56 with     9 vectors.
 FullF1:  Do perturbations      1 to       3.
 Isotropic polarizability for W=    0.000000        4.91 Bohr**3.
 End of Minotr FD prop file    721 does not exist.
 End of Minotr FD prop file    722 does not exist.
 End of Minotr FD prop file    788 does not exist.
 End of Minotr FD prop file    804 does not exist.
 Leave Link 1002 at Tue Mar 10 00:06:55 2026, MaxMem=  4294967296 cpu:               0.1 elap:               0.0
 (Enter /Users/vincenzobarone/gdv_j32p/gdv/l601.exe)
 Copying SCF densities to generalized density rwf, IOpCl= 0 IROHF=0.
 
 **********************************************************************
 
               Population analysis using the SCF Density.
 
 **********************************************************************
 
 Alpha  occ. eigenvalues --      -20.56172      -1.34032      -0.70295      -0.57202      -0.49797
 Alpha virt. eigenvalues --        0.20968       0.30290       1.01682       1.13137       1.16755
 Alpha virt. eigenvalues --        1.17017       1.37868       1.43712       2.01869       2.03549
 Alpha virt. eigenvalues --        2.06752       2.61647       2.93842       3.96666
          Condensed to atoms (all electrons):
               1          2          3
     1  H    0.322656   0.264261  -0.019072
     2  O    0.264261   8.335789   0.264261
     3  H   -0.019072   0.264261   0.322656
 Mulliken charges:
               1
     1  H    0.432155
     2  O   -0.864311
     3  H    0.432155
 Sum of Mulliken charges=   0.00000
 Mulliken charges with hydrogens summed into heavy atoms:
               1
     2  O    0.000000
 APT charges:
               1
     1  H    0.291221
     2  O   -0.582443
     3  H    0.291221
 Sum of APT charges=   0.00000
 APT charges with hydrogens summed into heavy atoms:
               1
     2  O    0.000000
 Electronic spatial extent (au):  <R**2>=             18.9249
 Charge=              0.0000 electrons
 Dipole moment (field-independent basis, Debye):
    X=              0.0000    Y=              0.0000    Z=             -2.2438  Tot=              2.2438
 Quadrupole moment (field-independent basis, Debye-Ang):
   XX=             -7.2356   YY=             -4.1632   ZZ=             -5.7212
   XY=              0.0000   XZ=              0.0000   YZ=              0.0000
 Traceless Quadrupole moment (field-independent basis, Debye-Ang):
   XX=             -1.5289   YY=              1.5434   ZZ=             -0.0145
   XY=              0.0000   XZ=              0.0000   YZ=              0.0000
 Octapole moment (field-independent basis, Debye-Ang**2):
  XXX=              0.0000  YYY=              0.0000  ZZZ=             -0.5449  XYY=              0.0000
  XXY=              0.0000  XXZ=             -0.0060  XZZ=              0.0000  YZZ=              0.0000
  YYZ=             -1.1719  XYZ=              0.0000
 Hexadecapole moment (field-independent basis, Debye-Ang**3):
 XXXX=             -5.2168 YYYY=             -5.5283 ZZZZ=             -5.8934 XXXY=              0.0000
 XXXZ=              0.0000 YYYX=              0.0000 YYYZ=              0.0000 ZZZX=              0.0000
 ZZZY=              0.0000 XXYY=             -2.0502 XXZZ=             -1.9194 YYZZ=             -1.4541
 XXYZ=              0.0000 YYXZ=              0.0000 ZZXY=              0.0000
 N-N=           9.155566 E-N=        -198.787716  KE=          75.806020
 No NMR shielding tensors so no spin-rotation constants.
 Leave Link  601 at Tue Mar 10 00:06:55 2026, MaxMem=  4294967296 cpu:               0.1 elap:               0.0
 (Enter /Users/vincenzobarone/gdv_j32p/gdv/l701.exe)
 GetPMM: IRwPM=    824 LRwPM=      0 LPMAll=      2
 SCFChk:  SCF convergence  1.70D-09 required  1.00D-08
 AtDip 
                 1             2             3 
      1   0.000000D+00  0.000000D+00  0.000000D+00
      2   0.000000D+00  0.000000D+00  0.000000D+00
      3   0.000000D+00  0.000000D+00  0.000000D+00
 AtQua 
                 1             2             3             4             5 
      1   0.000000D+00  0.000000D+00  0.000000D+00  0.000000D+00  0.000000D+00
      2   0.000000D+00  0.000000D+00  0.000000D+00  0.000000D+00  0.000000D+00
      3   0.000000D+00  0.000000D+00  0.000000D+00  0.000000D+00  0.000000D+00
                 6 
      1   0.000000D+00
      2   0.000000D+00
      3   0.000000D+00
 AtPol 
                 1 
      1   0.000000D+00
      2   0.000000D+00
      3   0.000000D+00
 Pair potential:
 ... and contract with generalized density number  0.
 Compute integral second derivatives.
 FFX after V2NN 
                1             2             3             4             5 
      1  0.000000D+00
      2  0.000000D+00  0.000000D+00
      3  0.000000D+00  0.000000D+00  0.000000D+00
      4  0.000000D+00  0.000000D+00  0.000000D+00 -0.137640D+01
      5  0.000000D+00  0.000000D+00  0.000000D+00  0.000000D+00  0.122444D+01
      6  0.000000D+00  0.000000D+00  0.000000D+00  0.000000D+00 -0.194380D+01
      7  0.000000D+00  0.000000D+00  0.000000D+00  0.133351D+01  0.000000D+00
      8  0.000000D+00  0.000000D+00  0.000000D+00  0.000000D+00 -0.113865D+01
      9  0.000000D+00  0.000000D+00  0.000000D+00  0.000000D+00  0.194380D+01
     10  0.000000D+00  0.000000D+00  0.000000D+00  0.428918D-01  0.000000D+00
     11  0.000000D+00  0.000000D+00  0.000000D+00  0.000000D+00 -0.857837D-01
     12  0.000000D+00  0.000000D+00  0.000000D+00  0.000000D+00  0.000000D+00
                6             7             8             9            10 
      6  0.151961D+00
      7  0.000000D+00 -0.266701D+01
      8  0.194380D+01  0.000000D+00  0.227731D+01
      9 -0.194853D+00  0.000000D+00  0.000000D+00  0.389705D+00
     10  0.000000D+00  0.133351D+01  0.000000D+00  0.000000D+00 -0.137640D+01
     11  0.000000D+00  0.000000D+00 -0.113865D+01 -0.194380D+01  0.000000D+00
     12  0.428918D-01  0.000000D+00 -0.194380D+01 -0.194853D+00  0.000000D+00
               11            12 
     11  0.122444D+01
     12  0.194380D+01  0.151961D+00
 Entering OneElI...
 OneElI was handed  4294965853 working-precision words.
 Calculate overlap and kinetic energy integrals
    NBasis =  19  MinDer = 2  MaxDer = 2
 Requested accuracy = 0.1000D-12
 ShPair: Thresh= 1.00D-13 NBox=     0 BxSize= 0.00D+00 RnKept= 2.86D+00
         NSMCal=                   36 NSMKep=                  36
 PrmmSu-InSpLW:  IPartL=    0 NPrtUS=    8 NPrtUL=    1 DoSpLW=F IThBeg=    0 IThEnd=    7 NThAct=    8.
 PrSmSu:  IncTry=   512 NBBP=             36 NTPThr=   100 NPartT=    8 Incr=           1 LDynOK=F GPUOK=F.
 PrsmSu:  NPrtUS=   8 ThrOK=T IAlg=2 LenDen=           0 ISkipM=0 DoSpLW=F IThBeg=    0 IThEnd=    7.
 PRISM was handed   536866289 working-precision words and    36 shell-pairs
 PRISM was handed   536866289 working-precision words and    36 shell-pairs
 PRISM was handed   536866289 working-precision words and    36 shell-pairs
 PRISM was handed   536866289 working-precision words and    36 shell-pairs
 PRISM was handed   536866289 working-precision words and    36 shell-pairs
 PRISM was handed   536866289 working-precision words and    36 shell-pairs
 Prism:   IPart=     0 DynPar=F LinDyn=F Incr=           1.
 PRISM was handed   536866289 working-precision words and    36 shell-pairs
 PRISM was handed   536866289 working-precision words and    36 shell-pairs
 IPart=  3 NShTot=           2 NBatch=           2 AvBLen=         1.0
 PrsmSu-ThDecC:  IPartSL=    3    0 NPrtUSL=    8    1 IThBeg=    0 IThEnd=    7 CPU=   -1 GPU=   -1 NThAct=    8.
 IPart=  6 NShTot=           0 NBatch=           0 AvBLen=         0.0
 PrsmSu-ThDecC:  IPartSL=    6    0 NPrtUSL=    8    1 IThBeg=    0 IThEnd=    7 CPU=   -1 GPU=   -1 NThAct=    7.
 IPart=  4 NShTot=           0 NBatch=           0 AvBLen=         0.0
 PrsmSu-ThDecC:  IPartSL=    4    0 NPrtUSL=    8    1 IThBeg=    0 IThEnd=    7 CPU=   -1 GPU=   -1 NThAct=    6.
 IPart=  7 NShTot=           0 NBatch=           0 AvBLen=         0.0
 PrsmSu-ThDecC:  IPartSL=    7    0 NPrtUSL=    8    1 IThBeg=    0 IThEnd=    7 CPU=   -1 GPU=   -1 NThAct=    5.
 IPart=  5 NShTot=           0 NBatch=           0 AvBLen=         0.0
 PrsmSu-ThDecC:  IPartSL=    5    0 NPrtUSL=    8    1 IThBeg=    0 IThEnd=    7 CPU=   -1 GPU=   -1 NThAct=    4.
 IPart=  1 NShTot=          10 NBatch=          10 AvBLen=         1.0
 PrsmSu-ThDecC:  IPartSL=    1    0 NPrtUSL=    8    1 IThBeg=    0 IThEnd=    7 CPU=   -1 GPU=   -1 NThAct=    3.
 IPart=  2 NShTot=           3 NBatch=           3 AvBLen=         1.0
 PrsmSu-ThDecC:  IPartSL=    2    0 NPrtUSL=    8    1 IThBeg=    0 IThEnd=    7 CPU=   -1 GPU=   -1 NThAct=    2.
 IPart=  0 NShTot=          21 NBatch=          21 AvBLen=         1.0
 PrsmSu-ThDecC:  IPartSL=    0    0 NPrtUSL=    8    1 IThBeg=    0 IThEnd=    7 CPU=   -1 GPU=   -1 NThAct=    1.
 PrSmSu:  NxtVal=              9.
 FFX after D2ST 
                1             2             3             4             5 
      1  0.000000D+00
      2  0.000000D+00  0.000000D+00
      3  0.000000D+00  0.000000D+00  0.000000D+00
      4  0.000000D+00  0.000000D+00  0.000000D+00 -0.209814D+01
      5  0.000000D+00  0.000000D+00  0.000000D+00  0.000000D+00  0.123605D+01
      6  0.000000D+00  0.000000D+00  0.000000D+00  0.000000D+00 -0.250501D+01
      7  0.000000D+00  0.000000D+00  0.000000D+00  0.206460D+01  0.000000D+00
      8  0.000000D+00  0.000000D+00  0.000000D+00  0.000000D+00 -0.116992D+01
      9  0.000000D+00  0.000000D+00  0.000000D+00  0.000000D+00  0.250501D+01
     10  0.000000D+00  0.000000D+00  0.000000D+00  0.335424D-01  0.000000D+00
     11  0.000000D+00  0.000000D+00  0.000000D+00  0.000000D+00 -0.661250D-01
     12  0.000000D+00  0.000000D+00  0.000000D+00  0.000000D+00  0.000000D+00
                6             7             8             9            10 
      6 -0.160803D+00
      7  0.000000D+00 -0.412920D+01
      8  0.250501D+01  0.000000D+00  0.233985D+01
      9  0.127261D+00  0.000000D+00  0.000000D+00 -0.254522D+00
     10  0.000000D+00  0.206460D+01  0.000000D+00  0.000000D+00 -0.209814D+01
     11  0.000000D+00  0.000000D+00 -0.116992D+01 -0.250501D+01  0.000000D+00
     12  0.335424D-01  0.000000D+00 -0.250501D+01  0.127261D+00  0.000000D+00
               11            12 
     11  0.123605D+01
     12  0.250501D+01 -0.160803D+00
 Entering OneElI...
 OneElI was handed  4294965853 working-precision words.
 Calculate potential energy integrals
    NBasis =  19  MinDer = 2  MaxDer = 2
 Requested accuracy = 0.1000D-12
 ShPair: Thresh= 1.00D-13 NBox=     0 BxSize= 0.00D+00 RnKept= 2.86D+00
         NSMCal=                   36 NSMKep=                  36
 PrmmSu-InSpLW:  IPartL=    0 NPrtUS=    8 NPrtUL=    1 DoSpLW=F IThBeg=    0 IThEnd=    7 NThAct=    8.
 PrSmSu:  IncTry=   512 NBBP=            108 NTPThr=   100 NPartT=    8 Incr=           1 LDynOK=F GPUOK=F.
 PrsmSu:  NPrtUS=   8 ThrOK=T IAlg=2 LenDen=           0 ISkipM=0 DoSpLW=F IThBeg=    0 IThEnd=    7.
 PRISM was handed   536866374 working-precision words and    36 shell-pairs
 PRISM was handed   536866374 working-precision words and    36 shell-pairs
 PRISM was handed   536866374 working-precision words and    36 shell-pairs
 PRISM was handed   536866374 working-precision words and    36 shell-pairs
 PRISM was handed   536866374 working-precision words and    36 shell-pairs
 PRISM was handed   536866374 working-precision words and    36 shell-pairs
 PRISM was handed   536866374 working-precision words and    36 shell-pairs
 Prism:   IPart=     0 DynPar=F LinDyn=F Incr=           1.
 PRISM was handed   536866374 working-precision words and    36 shell-pairs
 IPart=  6 NShTot=           0 NBatch=           0 AvBLen=         0.0
 IPart=  7 NShTot=           0 NBatch=           0 AvBLen=         0.0
 PrsmSu-ThDecC:  IPartSL=    6    0 NPrtUSL=    8    1 IThBeg=    0 IThEnd=    7 CPU=   -1 GPU=   -1 NThAct=    8.
 IPart=  2 NShTot=           9 NBatch=           3 AvBLen=         3.0
 PrsmSu-ThDecC:  IPartSL=    2    0 NPrtUSL=    8    1 IThBeg=    0 IThEnd=    7 CPU=   -1 GPU=   -1 NThAct=    7.
 IPart=  4 NShTot=           0 NBatch=           0 AvBLen=         0.0
 PrsmSu-ThDecC:  IPartSL=    7    0 NPrtUSL=    8    1 IThBeg=    0 IThEnd=    7 CPU=   -1 GPU=   -1 NThAct=    6.
 IPart=  3 NShTot=           6 NBatch=           2 AvBLen=         3.0
 PrsmSu-ThDecC:  IPartSL=    3    0 NPrtUSL=    8    1 IThBeg=    0 IThEnd=    7 CPU=   -1 GPU=   -1 NThAct=    5.
 PrsmSu-ThDecC:  IPartSL=    4    0 NPrtUSL=    8    1 IThBeg=    0 IThEnd=    7 CPU=   -1 GPU=   -1 NThAct=    4.
 IPart=  1 NShTot=          30 NBatch=          10 AvBLen=         3.0
 PrsmSu-ThDecC:  IPartSL=    1    0 NPrtUSL=    8    1 IThBeg=    0 IThEnd=    7 CPU=   -1 GPU=   -1 NThAct=    3.
 IPart=  0 NShTot=          63 NBatch=          21 AvBLen=         3.0
 PrsmSu-ThDecC:  IPartSL=    0    0 NPrtUSL=    8    1 IThBeg=    0 IThEnd=    7 CPU=   -1 GPU=   -1 NThAct=    2.
 IPart=  5 NShTot=           0 NBatch=           0 AvBLen=         0.0
 PrsmSu-ThDecC:  IPartSL=    5    0 NPrtUSL=    8    1 IThBeg=    0 IThEnd=    7 CPU=   -1 GPU=   -1 NThAct=    1.
 PrSmSu:  NxtVal=              9.
 FFX after D2V 
                1             2             3             4             5 
      1  0.000000D+00
      2  0.000000D+00  0.000000D+00
      3  0.000000D+00  0.000000D+00  0.000000D+00
      4  0.000000D+00  0.000000D+00  0.000000D+00  0.220925D+01
      5  0.000000D+00  0.000000D+00  0.000000D+00  0.000000D+00  0.887696D+00
      6  0.000000D+00  0.000000D+00  0.000000D+00  0.000000D+00  0.107127D+01
      7  0.000000D+00  0.000000D+00  0.000000D+00 -0.224764D+01  0.000000D+00
      8  0.000000D+00  0.000000D+00  0.000000D+00  0.000000D+00 -0.837887D+00
      9  0.000000D+00  0.000000D+00  0.000000D+00  0.000000D+00 -0.104775D+01
     10  0.000000D+00  0.000000D+00  0.000000D+00  0.383925D-01  0.000000D+00
     11  0.000000D+00  0.000000D+00  0.000000D+00  0.000000D+00 -0.498092D-01
     12  0.000000D+00  0.000000D+00  0.000000D+00  0.000000D+00 -0.235187D-01
                6             7             8             9            10 
      6  0.149809D+01
      7  0.000000D+00  0.449528D+01
      8 -0.109479D+01  0.000000D+00  0.167577D+01
      9 -0.155804D+01  0.000000D+00  0.000000D+00  0.311608D+01
     10  0.000000D+00 -0.224764D+01  0.000000D+00  0.000000D+00  0.220925D+01
     11  0.235187D-01  0.000000D+00 -0.837887D+00  0.104775D+01  0.000000D+00
     12  0.599449D-01  0.000000D+00  0.109479D+01 -0.155804D+01  0.000000D+00
               11            12 
     11  0.887696D+00
     12 -0.107127D+01  0.149809D+01
 Second derivatives from L701 IAtSt=0:
                1             2             3             4             5 
      1  0.000000D+00
      2  0.000000D+00  0.000000D+00
      3  0.000000D+00  0.000000D+00  0.000000D+00
      4  0.000000D+00  0.000000D+00  0.000000D+00  0.220925D+01
      5  0.000000D+00  0.000000D+00  0.000000D+00  0.000000D+00  0.887696D+00
      6  0.000000D+00  0.000000D+00  0.000000D+00  0.000000D+00  0.107127D+01
      7  0.000000D+00  0.000000D+00  0.000000D+00 -0.224764D+01  0.000000D+00
      8  0.000000D+00  0.000000D+00  0.000000D+00  0.000000D+00 -0.837887D+00
      9  0.000000D+00  0.000000D+00  0.000000D+00  0.000000D+00 -0.104775D+01
     10  0.000000D+00  0.000000D+00  0.000000D+00  0.383925D-01  0.000000D+00
     11  0.000000D+00  0.000000D+00  0.000000D+00  0.000000D+00 -0.498092D-01
     12  0.000000D+00  0.000000D+00  0.000000D+00  0.000000D+00 -0.235187D-01
                6             7             8             9            10 
      6  0.149809D+01
      7  0.000000D+00  0.449528D+01
      8 -0.109479D+01  0.000000D+00  0.167577D+01
      9 -0.155804D+01  0.000000D+00  0.000000D+00  0.311608D+01
     10  0.000000D+00 -0.224764D+01  0.000000D+00  0.000000D+00  0.220925D+01
     11  0.235187D-01  0.000000D+00 -0.837887D+00  0.104775D+01  0.000000D+00
     12  0.599449D-01  0.000000D+00  0.109479D+01 -0.155804D+01  0.000000D+00
               11            12 
     11  0.887696D+00
     12 -0.107127D+01  0.149809D+01
 Polarizability into L701:
                1             2             3 
      1  0.276556D+01
      2  0.000000D+00  0.692863D+01
      3  0.000000D+00  0.000000D+00  0.503594D+01
 Polarizability after L701:
                1             2             3 
      1  0.276556D+01
      2  0.000000D+00  0.692863D+01
      3  0.000000D+00  0.000000D+00  0.503594D+01
 Dipole Derivatives into L701:
                 1             2             3             4             5 
      1   0.393004D+00  0.000000D+00  0.000000D+00 -0.786009D+00  0.000000D+00
      2   0.000000D+00  0.256608D+00  0.107245D+00  0.000000D+00 -0.513215D+00
      3   0.000000D+00  0.629785D-01  0.224052D+00  0.000000D+00  0.000000D+00
                 6             7             8             9 
      1   0.000000D+00  0.393004D+00  0.000000D+00  0.000000D+00
      2   0.000000D+00  0.000000D+00  0.256608D+00 -0.107245D+00
      3  -0.448104D+00  0.000000D+00 -0.629785D-01  0.224052D+00
 Dipole Derivatives after L701:
                 1             2             3             4             5 
      1   0.393004D+00  0.000000D+00  0.000000D+00 -0.786009D+00  0.000000D+00
      2   0.000000D+00  0.256608D+00  0.107245D+00  0.000000D+00 -0.513215D+00
      3   0.000000D+00  0.629785D-01  0.224052D+00  0.000000D+00  0.000000D+00
                 6             7             8             9 
      1   0.000000D+00  0.393004D+00  0.000000D+00  0.000000D+00
      2   0.000000D+00  0.000000D+00  0.256608D+00 -0.107245D+00
      3  -0.448104D+00  0.000000D+00 -0.629785D-01  0.224052D+00
 Hessian into L701:
                1             2             3             4             5 
      1  0.276367D-01
      2  0.000000D+00  0.141529D+00
      3  0.000000D+00 -0.786406D-01  0.830768D-01
      4 -0.141539D-01  0.000000D+00  0.000000D+00  0.283077D-01
      5  0.000000D+00 -0.123122D+00  0.152855D+00  0.000000D+00  0.246244D+00
      6  0.000000D+00  0.442564D-02 -0.733615D-01  0.000000D+00  0.000000D+00
      7 -0.134829D-01  0.000000D+00  0.000000D+00 -0.141539D-01  0.000000D+00
      8  0.000000D+00 -0.184067D-01 -0.742149D-01  0.000000D+00 -0.123122D+00
      9  0.000000D+00  0.742149D-01 -0.971527D-02  0.000000D+00 -0.152855D+00
                6             7             8             9 
      6  0.146723D+00
      7  0.000000D+00  0.276367D-01
      8 -0.442564D-02  0.000000D+00  0.141529D+00
      9 -0.733615D-01  0.000000D+00  0.786406D-01  0.830768D-01
 Hessian after L701:
                1             2             3             4             5 
      1  0.223688D+01
      2  0.000000D+00  0.102922D+01
      3  0.000000D+00  0.992628D+00  0.158117D+01
      4 -0.226179D+01  0.000000D+00  0.000000D+00  0.452358D+01
      5  0.000000D+00 -0.961009D+00 -0.941932D+00  0.000000D+00  0.192202D+01
      6  0.000000D+00 -0.104332D+01 -0.163140D+01  0.000000D+00  0.000000D+00
      7  0.249096D-01  0.000000D+00  0.000000D+00 -0.226179D+01  0.000000D+00
      8  0.000000D+00 -0.682159D-01 -0.506962D-01  0.000000D+00 -0.961009D+00
      9  0.000000D+00  0.506962D-01  0.502296D-01  0.000000D+00  0.941932D+00
                6             7             8             9 
      6  0.326280D+01
      7  0.000000D+00  0.223688D+01
      8  0.104332D+01  0.000000D+00  0.102922D+01
      9 -0.163140D+01  0.000000D+00 -0.992628D+00  0.158117D+01
 Leave Link  701 at Tue Mar 10 00:06:56 2026, MaxMem=  4294967296 cpu:               0.2 elap:               0.0
 (Enter /Users/vincenzobarone/gdv_j32p/gdv/l702.exe)
 L702 exits ... SP integral derivatives will be done elsewhere.
 Leave Link  702 at Tue Mar 10 00:06:56 2026, MaxMem=  4294967296 cpu:               0.0 elap:               0.0
 (Enter /Users/vincenzobarone/gdv_j32p/gdv/l703.exe)
 GetPMM: IRwPM=    824 LRwPM=      0 LPMAll=      2
 Integral derivatives from FoFJK, PRISM(SPDF).
 Compute integral second derivatives, UseDBF=F ICtDFT=           0.
 ICntrl=    100127.
 Calling FoFJK, ICntrl=    100127 FMM=F ISym2X=0 I1Cent= 0 IOpClX= 0 NMat=1 NMatS=1 NMatT=0.
 FoFJK:  IHMeth= 1 ICntrl=  100127 DoSepK=F KAlg= 0 I1Cent=           0 FoldK=F
 IRaf=         0 NMat=       1 IRICut=       1 DoRegI=T DoRafI=F ISym2E= 0 IDoP0=0 IntGTp=1.
 FoFCou: FMM=F IPFlag=           0 FMFlag=      100000 FMFlg1=         800
         NFxFlg=           0 DoJE=F BraDBF=F KetDBF=F FulRan=T
         wScrn=  0.000000 ICntrl=    100127 IOpCl=  0 I1Cent=           0 NGrid=           0
         NMat0=    1 NMatS0=      1 NMatT0=    0 NMatD0=    1 NMtDS0=    0 NMtDT0=    0
 Symmetry not used in FoFCou.
 FoFCou:  KetSym=F NOpSet=  1 NOpAb=1 NOp=  1.
 FoFCou:  CnvScl= 1.00D+00 Thresh= 1.00D-12 IAcrcy=      10.
 ShPair: Thresh= 1.00D-12 NBox=     0 BxSize= 0.00D+00 RnKept= 2.86D+00
         NSMCal=                   36 NSMKep=                  36
 PrismS was handed  4294959801 working-precision words and    36 shell-pairs
 LenC2 before Schwartz=          37 after=          37 DMx= 1.04D+00.
 FoFCou: LinMIO=F DoNuc=F BraDBF=F KetDBF=F HaveP=T PDBF=F HaveZ=T HaveW=F
         NIJTC =       6 NIJTAt=       0 NIJTCD=       0 NIJTT =       6
         IJTBeg=       1 IJTEnd=       6 KLTBeg=       1 KLTEnd=       6
         IPTBeg=       1 IPTEnd=       6 IPTBCv=       1 IPTECv=       6
         IZTBeg=       1 IZTEnd=       6 IZTBCv=       1 IZTECv=       6
         IWTBeg=       7 IWTEnd=       6 IWTBCv=       7 IWTECv=       6
         INTBeg=       1 INTEnd=       0 IFTBCv=       1 IFTECv=       6
 NCel replicated for PrismC:     1
 CoulSu-InSpLW:  IPartL=    0 NPrtUS=    8 NPrtUL=    1 DoSpLW=F IThBeg=    0 IThEnd=    7 NThAct=    8.
 CoulSu:  IncTry=  1024 NBBP=            666 NTPThr=   100 NPartT=    8 Incr=           1 LDynOK=F GPUOK=F.
 CoulSu:  NPrtUS=   8 ThrOK=T IAlg=2 LenDen=           0 LWGrdD=           0 DoCopy=F ISkipM=0
          DoSpLW=F IThBeg=    0 IThEnd=    7.
 CoulSu:  IPart=    7 IPartR=    7 CPU=   -1 GPU=   -1.
 CoulSu:  IPart=    4 IPartR=    4 CPU=   -1 GPU=   -1.
 CoulSu:  IPart=    2 IPartR=    2 CPU=   -1 GPU=   -1.
 CoulSu:  IPart=    0 IPartR=    0 CPU=   -1 GPU=   -1.
 CoulSu:  IPart=    3 IPartR=    3 CPU=   -1 GPU=   -1.
 Enter PrismC:  IPart=  7 JobTyp=22 DoJE=F Cont=F.
 PrismC:  IPart=     7 DynPar=F LinDyn=F Incr=           1 UseFst=F UseS4=T ISplat=2.
 PrismC was handed   536866518 working-precision words and    36 shell-pairs
 Enter PrismC:  IPart=  4 JobTyp=22 DoJE=F Cont=F.
 PrismC:  IPart=     4 DynPar=F LinDyn=F Incr=           1 UseFst=F UseS4=T ISplat=2.
 PrismC was handed   536866518 working-precision words and    36 shell-pairs
 CoulSu:  IPart=    5 IPartR=    5 CPU=   -1 GPU=   -1.
 Enter PrismC:  IPart=  2 JobTyp=22 DoJE=F Cont=F.
 CoulSu:  IPart=    1 IPartR=    1 CPU=   -1 GPU=   -1.
 PrismC:  IPart=     2 DynPar=F LinDyn=F Incr=           1 UseFst=F UseS4=T ISplat=2.
 Enter PrismC:  IPart=  1 JobTyp=22 DoJE=F Cont=F.
 PrismC:  IPart=     1 DynPar=F LinDyn=F Incr=           1 UseFst=F UseS4=T ISplat=2.
 CoulSu:  IPart=    6 IPartR=    6 CPU=   -1 GPU=   -1.
 Enter PrismC:  IPart=  0 JobTyp=22 DoJE=F Cont=F.
 PrismC:  IPart=     0 DynPar=F LinDyn=F Incr=           1 UseFst=F UseS4=T ISplat=2.
 Enter PrismC:  IPart=  5 JobTyp=22 DoJE=F Cont=F.
 PrismC was handed   536866518 working-precision words and    36 shell-pairs
 PrismC:  IPart=     5 DynPar=F LinDyn=F Incr=           1 UseFst=F UseS4=T ISplat=2.
 Enter PrismC:  IPart=  3 JobTyp=22 DoJE=F Cont=F.
 PrismC was handed   536866518 working-precision words and    36 shell-pairs
 PrismC:  IPart=     3 DynPar=F LinDyn=F Incr=           1 UseFst=F UseS4=T ISplat=2.
 PrismC was handed   536866518 working-precision words and    36 shell-pairs
 Enter PrismC:  IPart=  6 JobTyp=22 DoJE=F Cont=F.
 PrismC:  IPart=     6 DynPar=F LinDyn=F Incr=           1 UseFst=F UseS4=T ISplat=2.
 PrismC was handed   536866518 working-precision words and    36 shell-pairs
 PrismC was handed   536866518 working-precision words and    36 shell-pairs
 PrismC was handed   536866518 working-precision words and    36 shell-pairs
 IPart=  6 NShTot=          21 NShNF=          21 NShFF=           0 MinMC=       7
           NShCPU=          21 NBCPU=          20 AvBCPU=         1.1
           NShGPU=           0 NBGPU=           0 AvBGPU=         0.0
 CoulSu-ThDecC:  IPartSL=    6    0 NPrtUSL=    8    1 IThBeg=    0 IThEnd=    7 CPU=   -1 GPU=   -1 NThAct=    8.
 IPart=  2 NShTot=          90 NShNF=          90 NShFF=           0 MinMC=       7
           NShCPU=          90 NBCPU=          87 AvBCPU=         1.0
           NShGPU=           0 NBGPU=           0 AvBGPU=         0.0
 CoulSu-ThDecC:  IPartSL=    2    0 NPrtUSL=    8    1 IThBeg=    0 IThEnd=    7 CPU=   -1 GPU=   -1 NThAct=    7.
 IPart=  7 NShTot=          21 NShNF=          21 NShFF=           0 MinMC=       7
           NShCPU=          21 NBCPU=          20 AvBCPU=         1.1
           NShGPU=           0 NBGPU=           0 AvBGPU=         0.0
 CoulSu-ThDecC:  IPartSL=    7    0 NPrtUSL=    8    1 IThBeg=    0 IThEnd=    7 CPU=   -1 GPU=   -1 NThAct=    6.
 IPart=  4 NShTot=          30 NShNF=          30 NShFF=           0 MinMC=       7
           NShCPU=          30 NBCPU=          27 AvBCPU=         1.1
           NShGPU=           0 NBGPU=           0 AvBGPU=         0.0
 CoulSu-ThDecC:  IPartSL=    4    0 NPrtUSL=    8    1 IThBeg=    0 IThEnd=    7 CPU=   -1 GPU=   -1 NThAct=    5.
 IPart=  1 NShTot=         160 NShNF=         160 NShFF=           0 MinMC=       7
           NShCPU=         160 NBCPU=         157 AvBCPU=         1.0
           NShGPU=           0 NBGPU=           0 AvBGPU=         0.0
 CoulSu-ThDecC:  IPartSL=    1    0 NPrtUSL=    8    1 IThBeg=    0 IThEnd=    7 CPU=   -1 GPU=   -1 NThAct=    4.
 IPart=  5 NShTot=          29 NShNF=          29 NShFF=           0 MinMC=       7
           NShCPU=          29 NBCPU=          26 AvBCPU=         1.1
           NShGPU=           0 NBGPU=           0 AvBGPU=         0.0
 CoulSu-ThDecC:  IPartSL=    5    0 NPrtUSL=    8    1 IThBeg=    0 IThEnd=    7 CPU=   -1 GPU=   -1 NThAct=    3.
 IPart=  3 NShTot=          78 NShNF=          78 NShFF=           0 MinMC=       7
           NShCPU=          78 NBCPU=          75 AvBCPU=         1.0
           NShGPU=           0 NBGPU=           0 AvBGPU=         0.0
 CoulSu-ThDecC:  IPartSL=    3    0 NPrtUSL=    8    1 IThBeg=    0 IThEnd=    7 CPU=   -1 GPU=   -1 NThAct=    2.
 IPart=  0 NShTot=         237 NShNF=         237 NShFF=           0 MinMC=       7
           NShCPU=         237 NBCPU=         231 AvBCPU=         1.0
           NShGPU=           0 NBGPU=           0 AvBGPU=         0.0
 CoulSu-ThDecC:  IPartSL=    0    0 NPrtUSL=    8    1 IThBeg=    0 IThEnd=    7 CPU=   -1 GPU=   -1 NThAct=    1.
 CoulSu:  NxtVal=              9 LenVP=      536866519 MinMC=       7.
 Hessian from J: 
                1             2             3             4             5 
      1  0.000000D+00
      2  0.000000D+00  0.000000D+00
      3  0.000000D+00  0.000000D+00  0.000000D+00
      4  0.000000D+00  0.000000D+00  0.000000D+00 -0.222850D+01
      5  0.000000D+00  0.000000D+00  0.000000D+00  0.000000D+00 -0.643481D+00
      6  0.000000D+00  0.000000D+00  0.000000D+00  0.000000D+00 -0.122579D+01
      7  0.000000D+00  0.000000D+00  0.000000D+00  0.225194D+01  0.000000D+00
      8  0.000000D+00  0.000000D+00  0.000000D+00  0.000000D+00  0.609905D+00
      9  0.000000D+00  0.000000D+00  0.000000D+00  0.000000D+00  0.124133D+01
     10  0.000000D+00  0.000000D+00  0.000000D+00 -0.234360D-01  0.000000D+00
     11  0.000000D+00  0.000000D+00  0.000000D+00  0.000000D+00  0.335760D-01
     12  0.000000D+00  0.000000D+00  0.000000D+00  0.000000D+00 -0.155390D-01
                6             7             8             9            10 
      6 -0.134412D+01
      7  0.000000D+00 -0.450388D+01
      8  0.121025D+01  0.000000D+00 -0.121981D+01
      9  0.137518D+01  0.000000D+00  0.000000D+00 -0.275036D+01
     10  0.000000D+00  0.225194D+01  0.000000D+00  0.000000D+00 -0.222850D+01
     11  0.155390D-01  0.000000D+00  0.609905D+00 -0.124133D+01  0.000000D+00
     12 -0.310578D-01  0.000000D+00 -0.121025D+01  0.137518D+01  0.000000D+00
               11            12 
     11 -0.643481D+00
     12  0.122579D+01 -0.134412D+01
 Force constants from FoF: 
                1             2             3             4             5 
      1  0.000000D+00
      2  0.000000D+00  0.000000D+00
      3  0.000000D+00  0.000000D+00  0.000000D+00
      4  0.000000D+00  0.000000D+00  0.000000D+00 -0.222850D+01
      5  0.000000D+00  0.000000D+00  0.000000D+00  0.000000D+00 -0.643481D+00
      6  0.000000D+00  0.000000D+00  0.000000D+00  0.000000D+00 -0.122579D+01
      7  0.000000D+00  0.000000D+00  0.000000D+00  0.225194D+01  0.000000D+00
      8  0.000000D+00  0.000000D+00  0.000000D+00  0.000000D+00  0.609905D+00
      9  0.000000D+00  0.000000D+00  0.000000D+00  0.000000D+00  0.124133D+01
     10  0.000000D+00  0.000000D+00  0.000000D+00 -0.234360D-01  0.000000D+00
     11  0.000000D+00  0.000000D+00  0.000000D+00  0.000000D+00  0.335760D-01
     12  0.000000D+00  0.000000D+00  0.000000D+00  0.000000D+00 -0.155390D-01
                6             7             8             9            10 
      6 -0.134412D+01
      7  0.000000D+00 -0.450388D+01
      8  0.121025D+01  0.000000D+00 -0.121981D+01
      9  0.137518D+01  0.000000D+00  0.000000D+00 -0.275036D+01
     10  0.000000D+00  0.225194D+01  0.000000D+00  0.000000D+00 -0.222850D+01
     11  0.155390D-01  0.000000D+00  0.609905D+00 -0.124133D+01  0.000000D+00
     12 -0.310578D-01  0.000000D+00 -0.121025D+01  0.137518D+01  0.000000D+00
               11            12 
     11 -0.643481D+00
     12  0.122579D+01 -0.134412D+01
 Second derivatives from L703 IAtSt=0:
                1             2             3             4             5 
      1  0.000000D+00
      2  0.000000D+00  0.000000D+00
      3  0.000000D+00  0.000000D+00  0.000000D+00
      4  0.000000D+00  0.000000D+00  0.000000D+00 -0.222850D+01
      5  0.000000D+00  0.000000D+00  0.000000D+00  0.000000D+00 -0.643481D+00
      6  0.000000D+00  0.000000D+00  0.000000D+00  0.000000D+00 -0.122579D+01
      7  0.000000D+00  0.000000D+00  0.000000D+00  0.225194D+01  0.000000D+00
      8  0.000000D+00  0.000000D+00  0.000000D+00  0.000000D+00  0.609905D+00
      9  0.000000D+00  0.000000D+00  0.000000D+00  0.000000D+00  0.124133D+01
     10  0.000000D+00  0.000000D+00  0.000000D+00 -0.234360D-01  0.000000D+00
     11  0.000000D+00  0.000000D+00  0.000000D+00  0.000000D+00  0.335760D-01
     12  0.000000D+00  0.000000D+00  0.000000D+00  0.000000D+00 -0.155390D-01
                6             7             8             9            10 
      6 -0.134412D+01
      7  0.000000D+00 -0.450388D+01
      8  0.121025D+01  0.000000D+00 -0.121981D+01
      9  0.137518D+01  0.000000D+00  0.000000D+00 -0.275036D+01
     10  0.000000D+00  0.225194D+01  0.000000D+00  0.000000D+00 -0.222850D+01
     11  0.155390D-01  0.000000D+00  0.609905D+00 -0.124133D+01  0.000000D+00
     12 -0.310578D-01  0.000000D+00 -0.121025D+01  0.137518D+01  0.000000D+00
               11            12 
     11 -0.643481D+00
     12  0.122579D+01 -0.134412D+01
 Polarizability into L703:
                1             2             3 
      1  0.276556D+01
      2  0.000000D+00  0.692863D+01
      3  0.000000D+00  0.000000D+00  0.503594D+01
 Polarizability after L703:
                1             2             3 
      1  0.276556D+01
      2  0.000000D+00  0.692863D+01
      3  0.000000D+00  0.000000D+00  0.503594D+01
 Dipole Derivatives into L703:
                 1             2             3             4             5 
      1   0.393004D+00  0.000000D+00  0.000000D+00 -0.786009D+00  0.000000D+00
      2   0.000000D+00  0.256608D+00  0.107245D+00  0.000000D+00 -0.513215D+00
      3   0.000000D+00  0.629785D-01  0.224052D+00  0.000000D+00  0.000000D+00
                 6             7             8             9 
      1   0.000000D+00  0.393004D+00  0.000000D+00  0.000000D+00
      2   0.000000D+00  0.000000D+00  0.256608D+00 -0.107245D+00
      3  -0.448104D+00  0.000000D+00 -0.629785D-01  0.224052D+00
 Dipole Derivatives after L703:
                 1             2             3             4             5 
      1   0.393004D+00  0.000000D+00  0.000000D+00 -0.786009D+00  0.000000D+00
      2   0.000000D+00  0.256608D+00  0.107245D+00  0.000000D+00 -0.513215D+00
      3   0.000000D+00  0.629785D-01  0.224052D+00  0.000000D+00  0.000000D+00
                 6             7             8             9 
      1   0.000000D+00  0.393004D+00  0.000000D+00  0.000000D+00
      2   0.000000D+00  0.000000D+00  0.256608D+00 -0.107245D+00
      3  -0.448104D+00  0.000000D+00 -0.629785D-01  0.224052D+00
 Hessian into L703:
                1             2             3             4             5 
      1  0.223688D+01
      2  0.000000D+00  0.102922D+01
      3  0.000000D+00  0.992628D+00  0.158117D+01
      4 -0.226179D+01  0.000000D+00  0.000000D+00  0.452358D+01
      5  0.000000D+00 -0.961009D+00 -0.941932D+00  0.000000D+00  0.192202D+01
      6  0.000000D+00 -0.104332D+01 -0.163140D+01  0.000000D+00  0.000000D+00
      7  0.249096D-01  0.000000D+00  0.000000D+00 -0.226179D+01  0.000000D+00
      8  0.000000D+00 -0.682159D-01 -0.506962D-01  0.000000D+00 -0.961009D+00
      9  0.000000D+00  0.506962D-01  0.502296D-01  0.000000D+00  0.941932D+00
                6             7             8             9 
      6  0.326280D+01
      7  0.000000D+00  0.223688D+01
      8  0.104332D+01  0.000000D+00  0.102922D+01
      9 -0.163140D+01  0.000000D+00 -0.992628D+00  0.158117D+01
 Hessian after L703:
                1             2             3             4             5 
      1  0.837971D-02
      2  0.000000D+00  0.385743D+00
      3  0.000000D+00 -0.233159D+00  0.237048D+00
      4 -0.985333D-02  0.000000D+00  0.000000D+00  0.197067D-01
      5  0.000000D+00 -0.351104D+00  0.268317D+00  0.000000D+00  0.702207D+00
      6  0.000000D+00  0.198002D+00 -0.256220D+00  0.000000D+00  0.000000D+00
      7  0.147362D-02  0.000000D+00  0.000000D+00 -0.985333D-02  0.000000D+00
      8  0.000000D+00 -0.346399D-01 -0.351571D-01  0.000000D+00 -0.351104D+00
      9  0.000000D+00  0.351572D-01  0.191718D-01  0.000000D+00 -0.268317D+00
                6             7             8             9 
      6  0.512440D+00
      7  0.000000D+00  0.837971D-02
      8 -0.198002D+00  0.000000D+00  0.385743D+00
      9 -0.256220D+00  0.000000D+00  0.233159D+00  0.237048D+00
 Leave Link  703 at Tue Mar 10 00:06:56 2026, MaxMem=  4294967296 cpu:               0.5 elap:               0.1
 (Enter /Users/vincenzobarone/gdv_j32p/gdv/l716.exe)
 GetPMM: IRwPM=    824 LRwPM=      0 LPMAll=      2
 FrcOut:
 IF    =        40 IFX   =        49 IFXYZ =        58
 IFFX  =        67 IFFFX =       112 IFLen =         9
 IFFLen=        45 IFFFLn=         0 IEDerv=       112
 LEDerv=       485 IFroze=       760 ICStrt=      1562
 Dipole        =-5.05307518D-16-3.48375706D-12-8.82768646D-01
 DipoleDeriv   = 3.93004421D-01 8.53505416D-16-8.99489296D-17
                -1.76782721D-16 2.56607629D-01 6.29784699D-02
                 1.82620472D-16 1.07245365D-01 2.24052116D-01
                -7.86008841D-01-1.01368465D-15-1.67600371D-16
                 4.86849147D-16-5.13215254D-01-1.21695442D-09
                 5.81451001D-17 9.39435016D-10-4.48104230D-01
                 3.93004421D-01 1.60179233D-16 2.57549301D-16
                -3.10066426D-16 2.56607625D-01-6.29784687D-02
                -2.40765572D-16-1.07245366D-01 2.24052115D-01
 Polarizability= 2.76556052D+00-4.37689868D-15 6.92863047D+00
                -3.10944910D-15-3.56662100D-09 5.03594114D+00
 HyperPolar    =-5.51539298D-15-3.15972495D-08 2.16188448D-14
                -1.05888575D-08-1.84024853D-01 3.08099991D-14
                -2.01819890D+01 1.23813131D-14-1.28660633D-06
                -1.00608008D+01
 Quadrupole    =-1.13671416D+00 1.14750198D+00-1.07878239D-02
                 5.26587151D-16 7.38734022D-16 1.29764212D-11
 After rot to inp orien Dipole Moment
                 1 
      1   0.000000D+00
      2   0.000000D+00
      3  -0.882769D+00
 After rot to inp orien Dipole Derivatives
                 1             2             3             4             5 
      1   0.393004D+00  0.000000D+00  0.000000D+00 -0.786009D+00  0.000000D+00
      2   0.000000D+00  0.256608D+00  0.107245D+00  0.000000D+00 -0.513215D+00
      3   0.000000D+00  0.629785D-01  0.224052D+00  0.000000D+00  0.000000D+00
                 6             7             8             9 
      1   0.000000D+00  0.393004D+00  0.000000D+00  0.000000D+00
      2   0.000000D+00  0.000000D+00  0.256608D+00 -0.107245D+00
      3  -0.448104D+00  0.000000D+00 -0.629785D-01  0.224052D+00
 After rot to inp orien Polarizability
                 1 
      1   0.276556D+01
      2   0.000000D+00
      3   0.692863D+01
      4   0.000000D+00
      5   0.000000D+00
      6   0.503594D+01
 After rot to inp orien HyperPolarizability
                 1 
      1   0.000000D+00
      2   0.000000D+00
      3   0.000000D+00
      4   0.000000D+00
      5  -0.184025D+00
      6   0.000000D+00
      7  -0.201820D+02
      8   0.000000D+00
      9  -0.128661D-05
     10  -0.100608D+02
 After rot to inp orien Quadrupole Moment
                 1 
      1  -0.113671D+01
      2   0.114750D+01
      3  -0.107878D-01
      4   0.000000D+00
      5   0.000000D+00
      6   0.000000D+00
 After rot to inp orien QEq coupling tensors
                 1             2             3 
      1   0.274644D+00  0.193106D+01  0.274644D+00
      2   0.000000D+00  0.000000D+00  0.000000D+00
      3  -0.223306D+00 -0.166091D+01 -0.223306D+00
      4   0.000000D+00  0.000000D+00  0.000000D+00
      5   0.333778D+00  0.000000D+00 -0.333778D+00
      6  -0.513384D-01 -0.270154D+00 -0.513384D-01
 After rot to inp orien force vector number 1
 I=    1 X=   0.000000000000D+00 Y=   9.864558368743D-03 Z=  -1.106629597368D-02
 I=    2 X=   0.000000000000D+00 Y=   0.000000000000D+00 Z=   2.213259195541D-02
 I=    3 X=   0.000000000000D+00 Y=  -9.864558379047D-03 Z=  -1.106629598173D-02
 After rot to inp orien force vector number 2
 I=    1 X=   0.000000000000D+00 Y=   9.864558368743D-03 Z=  -1.106629597368D-02
 I=    2 X=   0.000000000000D+00 Y=   0.000000000000D+00 Z=   2.213259195541D-02
 I=    3 X=   0.000000000000D+00 Y=  -9.864558379047D-03 Z=  -1.106629598173D-02
 After rot to inp orien cartesian force constants 
                1             2             3             4             5 
      1  0.837971D-02
      2  0.000000D+00  0.385743D+00
      3  0.000000D+00 -0.233159D+00  0.237048D+00
      4 -0.985333D-02  0.000000D+00  0.000000D+00  0.197067D-01
      5  0.000000D+00 -0.351104D+00  0.268317D+00  0.000000D+00  0.702207D+00
      6  0.000000D+00  0.198002D+00 -0.256220D+00  0.000000D+00  0.000000D+00
      7  0.147362D-02  0.000000D+00  0.000000D+00 -0.985333D-02  0.000000D+00
      8  0.000000D+00 -0.346399D-01 -0.351571D-01  0.000000D+00 -0.351104D+00
      9  0.000000D+00  0.351572D-01  0.191718D-01  0.000000D+00 -0.268317D+00
                6             7             8             9 
      6  0.512440D+00
      7  0.000000D+00  0.837971D-02
      8 -0.198002D+00  0.000000D+00  0.385743D+00
      9 -0.256220D+00  0.000000D+00  0.233159D+00  0.237048D+00
 -------------------------------------------------------------------
 Center     Atomic                   Forces (Hartrees/Bohr)
 Number     Number              X              Y              Z
 -------------------------------------------------------------------
      1        1           0.000000000   -0.009864558    0.011066296
      2        8           0.000000000    0.000000000   -0.022132592
      3        1           0.000000000    0.009864558    0.011066296
 -------------------------------------------------------------------
 Cartesian Forces:  Max     0.022132592 RMS     0.010162001
 Force constants in Cartesian coordinates: 
                1             2             3             4             5 
      1  0.837971D-02
      2  0.000000D+00  0.385743D+00
      3  0.000000D+00 -0.233159D+00  0.237048D+00
      4 -0.985333D-02  0.000000D+00  0.000000D+00  0.197067D-01
      5  0.000000D+00 -0.351104D+00  0.268317D+00  0.000000D+00  0.702207D+00
      6  0.000000D+00  0.198002D+00 -0.256220D+00  0.000000D+00  0.000000D+00
      7  0.147362D-02  0.000000D+00  0.000000D+00 -0.985333D-02  0.000000D+00
      8  0.000000D+00 -0.346399D-01 -0.351571D-01  0.000000D+00 -0.351104D+00
      9  0.000000D+00  0.351572D-01  0.191718D-01  0.000000D+00 -0.268317D+00
                6             7             8             9 
      6  0.512440D+00
      7  0.000000D+00  0.837971D-02
      8 -0.198002D+00  0.000000D+00  0.385743D+00
      9 -0.256220D+00  0.000000D+00  0.233159D+00  0.237048D+00
 Final forces over variables, Energy=-7.60102714D+01:
 -2.18939551D-02-2.18939551D-02 3.93350217D-03
 Leave Link  716 at Tue Mar 10 00:06:56 2026, MaxMem=  4294967296 cpu:               0.0 elap:               0.0
 (Enter /Users/vincenzobarone/gdv_j32p/gdv/l106.exe)
 NDeriv=      3 NFrqRd=  0 NDerD0=      0 MskFDP=       0 MskDFD=       0 MskDF0=       0
 Re-enter D2Numr:  normal mode      2 step-up   number 1
 Leave Link  106 at Tue Mar 10 00:06:56 2026, MaxMem=  4294967296 cpu:               0.0 elap:               0.0
 (Enter /Users/vincenzobarone/gdv_j32p/gdv/l301.exe)
 Basis read from rwf:  (6D, 7F)
 No pseudopotential information found on rwf file.
    19 basis functions,    36 primitive gaussians,    19 cartesian basis functions
     5 alpha electrons        5 beta electrons
       nuclear repulsion energy         9.0205162164 Hartrees.
 IExCor=         0 DFT=F Ex=HF Corr=None N6=None ScaHFX=  1.000000
 ScaDFX=  1.000000  1.000000  1.000000  1.000000  1.000000  0.000000
 ScaDFX=  0.000000  0.000000  0.000000  0.000000  0.000000  0.000000
 Grid=UltraFine IRanWt=     -1 IRanGd=            0 ICorTp=0 IEDCtl=  2004
 NAtoms=    3 NActive=    3 NUniq=    3 SFac= 1.00D+00 NAtFMM=   60 NAOKFM=F Big=F
 Integral buffers will be    131072 words long.
 Raffenetti 1 integral format.
 Two-electron integral symmetry is turned off.
 No density basis found on file    724.
 Leave Link  301 at Tue Mar 10 00:06:56 2026, MaxMem=  4294967296 cpu:               0.0 elap:               0.0
 (Enter /Users/vincenzobarone/gdv_j32p/gdv/l302.exe)
 NPDir=0 NMtPBC=     1 NCelOv=     1 NCel=       1 NClECP=     1 NCelD=      1
         NCelK=      1 NCelE2=     1 NClLst=     1 CellRange=     0.0.
 One-electron integrals computed using PRISM.
 NBasis=    19 RedAO= T EigKep=  2.30D-02  NBF=    19
 NBsUse=    19 1.00D-06 EigRej= -1.00D+00 NBFU=    19
 Leave Link  302 at Tue Mar 10 00:06:56 2026, MaxMem=  4294967296 cpu:               0.1 elap:               0.0
 (Enter /Users/vincenzobarone/gdv_j32p/gdv/l303.exe)
 DipDrv:  MaxL=1.
 Leave Link  303 at Tue Mar 10 00:06:56 2026, MaxMem=  4294967296 cpu:               0.0 elap:               0.0
 (Enter /Users/vincenzobarone/gdv_j32p/gdv/l401.exe)
 Initial guess from the checkpoint file:  "h2o.chk"
 B after Tr=     0.000000    0.000000   -0.000734
         Rot=    1.000000    0.000000    0.000000    0.000000 Ang=   0.00 deg.
 AO Guess basis will be translated and rotated to current coordinates.
 JPrj=2 DoOrth=T DoCkMO=T.
 Leave Link  401 at Tue Mar 10 00:06:56 2026, MaxMem=  4294967296 cpu:               0.0 elap:               0.0
 (Enter /Users/vincenzobarone/gdv_j32p/gdv/l502.exe)
 Keep R1 ints in memory in canonical form, NReq=1665784.
 FoFCou: FMM=F IPFlag=           0 FMFlag=           0 FMFlg1=           0
         NFxFlg=           0 DoJE=F BraDBF=F KetDBF=F FulRan=T
         wScrn=  0.000000 ICntrl=       600 IOpCl=  0 I1Cent=           0 NGrid=           0
         NMat0=    1 NMatS0=    190 NMatT0=    0 NMatD0=    1 NMtDS0=    0 NMtDT0=    0
 Symmetry not used in FoFCou.
 Two-electron integral symmetry not used.
 Closed shell SCF:
 Using DIIS extrapolation, IDIIS=  1040.
 NGot=  4294967296 LenX=  4294947479 LenY=  4294946597
 Requested convergence on RMS density matrix=1.00D-08 within  48 cycles.
 Requested convergence on MAX density matrix=1.00D-06.
 Requested convergence on             energy=1.00D-06.
 No special actions if energy rises.

 Cycle   1  Pass 1  IDiag  1:
 E= -76.0090485105759    
 DIIS: error= 1.45D-03 at cycle   1 NSaved=   1.
 NSaved= 1 IEnMin= 1 EnMin= -76.0090485105759     IErMin= 1 ErrMin= 1.45D-03
 ErrMax= 1.45D-03  0.00D+00 EMaxC= 1.00D-01 BMatC= 1.62D-05 BMatP= 1.62D-05
 Rises=F IDIUse=3 WtCom= 9.94D-01 WtEn= 5.54D-03
 Coeff-Com:  0.100D+01
 Coeff-En:   0.100D+01
 Coeff:      0.100D+01
 Gap=     1.711 Goal=   None    Shift=    0.000
 GapD=    1.711 DampG=2.000 DampE=1.000 DampFc=2.0000 IDamp=-1.
 RMSDP=2.84D-04 MaxDP=1.84D-03              OVMax= 2.16D-03

 Cycle   2  Pass 1  IDiag  1:
 E= -76.0090791791584     Delta-E=       -0.000030668582 Rises=F Damp=F AM=F Ri=F Fa=F
 DIIS: error= 7.33D-04 at cycle   2 NSaved=   2.
 NSaved= 2 IEnMin= 2 EnMin= -76.0090791791584     IErMin= 2 ErrMin= 7.33D-04
 ErrMax= 7.33D-04  0.00D+00 EMaxC= 1.00D-01 BMatC= 3.22D-06 BMatP= 1.62D-05
 Rises=F IDIUse=3 WtCom= 9.98D-01 WtEn= 1.99D-03
 Coeff-Com:  0.220D+00 0.780D+00
 Coeff-En:   0.000D+00 0.100D+01
 Coeff:      0.219D+00 0.781D+00
 Gap=     0.704 Goal=   None    Shift=    0.000
 RMSDP=9.19D-05 MaxDP=8.48D-04 DE=-3.07D-05 OVMax= 6.88D-04

 Cycle   3  Pass 1  IDiag  1:
 E= -76.0090837164432     Delta-E=       -0.000004537285 Rises=F Damp=F AM=F Ri=F Fa=F
 DIIS: error= 1.91D-04 at cycle   3 NSaved=   3.
 NSaved= 3 IEnMin= 3 EnMin= -76.0090837164432     IErMin= 3 ErrMin= 1.91D-04
 ErrMax= 1.91D-04  0.00D+00 EMaxC= 1.00D-01 BMatC= 2.24D-07 BMatP= 3.22D-06
 Rises=F IDIUse=3 WtCom= 1.00D+00 WtEn= 2.64D-04
 Coeff-Com: -0.824D-01 0.690D-01 0.101D+01
 Coeff-En:   0.000D+00 0.000D+00 0.100D+01
 Coeff:     -0.824D-01 0.690D-01 0.101D+01
 Gap=     0.703 Goal=   None    Shift=    0.000
 RMSDP=4.13D-05 MaxDP=2.39D-04 DE=-4.54D-06 OVMax= 4.48D-04

 Cycle   4  Pass 1  IDiag  1:
 E= -76.0090843994642     Delta-E=       -0.000000683021 Rises=F Damp=F AM=F Ri=F Fa=F
 DIIS: error= 5.10D-05 at cycle   4 NSaved=   4.
 NSaved= 4 IEnMin= 4 EnMin= -76.0090843994642     IErMin= 4 ErrMin= 5.10D-05
 ErrMax= 5.10D-05  0.00D+00 EMaxC= 1.00D-01 BMatC= 1.17D-08 BMatP= 2.24D-07
 Rises=F IDIUse=1 WtCom= 1.00D+00 WtEn= 0.00D+00
 Coeff-Com:  0.294D-02-0.552D-01-0.110D+00 0.116D+01
 Coeff:      0.294D-02-0.552D-01-0.110D+00 0.116D+01
 Gap=     0.704 Goal=   None    Shift=    0.000
 RMSDP=1.33D-05 MaxDP=8.44D-05 DE=-6.83D-07 OVMax= 1.39D-04

 Cycle   5  Pass 1  IDiag  1:
 E= -76.0090844503198     Delta-E=       -0.000000050856 Rises=F Damp=F AM=F Ri=F Fa=F
 DIIS: error= 1.09D-05 at cycle   5 NSaved=   5.
 NSaved= 5 IEnMin= 5 EnMin= -76.0090844503198     IErMin= 5 ErrMin= 1.09D-05
 ErrMax= 1.09D-05  0.00D+00 EMaxC= 1.00D-01 BMatC= 6.13D-10 BMatP= 1.17D-08
 Rises=F IDIUse=1 WtCom= 1.00D+00 WtEn= 0.00D+00
 Coeff-Com:  0.390D-02 0.552D-02-0.281D-01-0.287D+00 0.131D+01
 Coeff:      0.390D-02 0.552D-02-0.281D-01-0.287D+00 0.131D+01
 Gap=     0.704 Goal=   None    Shift=    0.000
 RMSDP=4.65D-06 MaxDP=2.42D-05 DE=-5.09D-08 OVMax= 4.81D-05

 Cycle   6  Pass 1  IDiag  1:
 E= -76.0090844539324     Delta-E=       -0.000000003613 Rises=F Damp=F AM=F Ri=F Fa=F
 DIIS: error= 1.91D-06 at cycle   6 NSaved=   6.
 NSaved= 6 IEnMin= 6 EnMin= -76.0090844539324     IErMin= 6 ErrMin= 1.91D-06
 ErrMax= 1.91D-06  0.00D+00 EMaxC= 1.00D-01 BMatC= 1.91D-11 BMatP= 6.13D-10
 Rises=F IDIUse=1 WtCom= 1.00D+00 WtEn= 0.00D+00
 Coeff-Com: -0.185D-02-0.138D-02 0.159D-01 0.107D+00-0.606D+00 0.149D+01
 Coeff:     -0.185D-02-0.138D-02 0.159D-01 0.107D+00-0.606D+00 0.149D+01
 Gap=     0.704 Goal=   None    Shift=    0.000
 RMSDP=7.61D-07 MaxDP=5.20D-06 DE=-3.61D-09 OVMax= 6.45D-06

 Cycle   7  Pass 1  IDiag  1:
 E= -76.0090844540304     Delta-E=       -0.000000000098 Rises=F Damp=F AM=F Ri=F Fa=F
 DIIS: error= 1.80D-07 at cycle   7 NSaved=   7.
 NSaved= 7 IEnMin= 7 EnMin= -76.0090844540304     IErMin= 7 ErrMin= 1.80D-07
 ErrMax= 1.80D-07  0.00D+00 EMaxC= 1.00D-01 BMatC= 3.45D-13 BMatP= 1.91D-11
 Rises=F IDIUse=1 WtCom= 1.00D+00 WtEn= 0.00D+00
 Coeff-Com:  0.436D-03 0.314D-03-0.411D-02-0.231D-01 0.142D+00-0.423D+00
 Coeff-Com:  0.131D+01
 Coeff:      0.436D-03 0.314D-03-0.411D-02-0.231D-01 0.142D+00-0.423D+00
 Coeff:      0.131D+01
 Gap=     0.704 Goal=   None    Shift=    0.000
 RMSDP=7.28D-08 MaxDP=4.93D-07 DE=-9.80D-11 OVMax= 6.68D-07

 Cycle   8  Pass 1  IDiag  1:
 E= -76.0090844540321     Delta-E=       -0.000000000002 Rises=F Damp=F AM=F Ri=F Fa=F
 DIIS: error= 3.09D-08 at cycle   8 NSaved=   8.
 NSaved= 8 IEnMin= 8 EnMin= -76.0090844540321     IErMin= 8 ErrMin= 3.09D-08
 ErrMax= 3.09D-08  0.00D+00 EMaxC= 1.00D-01 BMatC= 9.03D-15 BMatP= 3.45D-13
 Rises=F IDIUse=1 WtCom= 1.00D+00 WtEn= 0.00D+00
 Coeff-Com: -0.591D-04-0.691D-04 0.605D-03 0.340D-02-0.211D-01 0.695D-01
 Coeff-Com: -0.356D+00 0.130D+01
 Coeff:     -0.591D-04-0.691D-04 0.605D-03 0.340D-02-0.211D-01 0.695D-01
 Coeff:     -0.356D+00 0.130D+01
 Gap=     0.704 Goal=   None    Shift=    0.000
 RMSDP=1.31D-08 MaxDP=7.23D-08 DE=-1.65D-12 OVMax= 1.12D-07

 Cycle   9  Pass 1  IDiag  1:
 E= -76.0090844540320     Delta-E=        0.000000000000 Rises=F Damp=F AM=F Ri=F Fa=F
 DIIS: error= 4.04D-09 at cycle   9 NSaved=   9.
 NSaved= 9 IEnMin= 8 EnMin= -76.0090844540321     IErMin= 9 ErrMin= 4.04D-09
 ErrMax= 4.04D-09  0.00D+00 EMaxC= 1.00D-01 BMatC= 8.15D-17 BMatP= 9.03D-15
 Rises=F IDIUse=1 WtCom= 1.00D+00 WtEn= 0.00D+00
 Coeff-Com:  0.142D-04 0.163D-04-0.148D-03-0.820D-03 0.514D-02-0.178D-01
 Coeff-Com:  0.986D-01-0.411D+00 0.133D+01
 Coeff:      0.142D-04 0.163D-04-0.148D-03-0.820D-03 0.514D-02-0.178D-01
 Coeff:      0.986D-01-0.411D+00 0.133D+01
 Gap=     0.704 Goal=   None    Shift=    0.000
 RMSDP=1.74D-09 MaxDP=8.49D-09 DE= 8.53D-14 OVMax= 1.44D-08

 SCF Done:  E(RHF) =  -76.0090844540     A.U. after    9 cycles
            NFock=  9  Conv=0.17D-08     -V/T= 2.0034
 KE=          75.751004 PE=        -198.491806 EE=          37.711201
 Leave Link  502 at Tue Mar 10 00:06:56 2026, MaxMem=  4294967296 cpu:               0.1 elap:               0.0
 (Enter /Users/vincenzobarone/gdv_j32p/gdv/l508.exe)
 QCSCF skips out because SCF is already converged.
 Leave Link  508 at Tue Mar 10 00:06:56 2026, MaxMem=  4294967296 cpu:               0.0 elap:               0.0
 (Enter /Users/vincenzobarone/gdv_j32p/gdv/l801.exe)
 Range of M.O.s used for correlation:     1    19
 NBasis=    19 NAE=     5 NBE=     5 NFC=     0 NFV=     0
 NROrb=     19 NOA=     5 NOB=     5 NVA=    14 NVB=    14
 Leave Link  801 at Tue Mar 10 00:06:56 2026, MaxMem=  4294967296 cpu:               0.0 elap:               0.0
 (Enter /Users/vincenzobarone/gdv_j32p/gdv/l1101.exe)
 Using compressed storage, NAtomX=     3.
 Will process      4 centers per pass.
 Leave Link 1101 at Tue Mar 10 00:06:56 2026, MaxMem=  4294967296 cpu:               0.1 elap:               0.0
 (Enter /Users/vincenzobarone/gdv_j32p/gdv/l1102.exe)
 Symmetrizing basis deriv contribution to polar:
 IMax=3 JMax=2 DiffMx= 0.00D+00
 Leave Link 1102 at Tue Mar 10 00:06:56 2026, MaxMem=  4294967296 cpu:               0.0 elap:               0.0
 (Enter /Users/vincenzobarone/gdv_j32p/gdv/l1110.exe)
 Forming Gx(P) for the SCF density, NAtomX=     3.
 Integral derivatives from FoFJK, PRISM(SPDF).
 Do as many integral derivatives as possible in FoFJK.
 G2DrvN: MDV=    4294966829.
 G2DrvN: will do     4 centers at a time, making    1 passes.
 Calling FoFCou, ICntrl=  3107 FMM=F I1Cent=   0 AccDes= 0.00D+00.
 FoFJK:  IHMeth= 1 ICntrl=    3107 DoSepK=F KAlg= 0 I1Cent=           0 FoldK=F
 IRaf=         0 NMat=       1 IRICut=       1 DoRegI=T DoRafI=F ISym2E= 0 IDoP0=0 IntGTp=1.
 FoFCou: FMM=F IPFlag=           0 FMFlag=      100000 FMFlg1=           0
         NFxFlg=           0 DoJE=F BraDBF=F KetDBF=F FulRan=T
         wScrn=  0.000000 ICntrl=      3107 IOpCl=  0 I1Cent=           0 NGrid=           0
         NMat0=    1 NMatS0=      1 NMatT0=    0 NMatD0=    1 NMtDS0=    0 NMtDT0=    0
 Symmetry not used in FoFCou.
 End of G2Drv FD prop file    721 does not exist.
 End of G2Drv FD prop file    722 does not exist.
 End of G2Drv FD prop file    788 does not exist.
 End of G2Drv FD prop file    804 does not exist.
 Leave Link 1110 at Tue Mar 10 00:06:56 2026, MaxMem=  4294967296 cpu:               0.2 elap:               0.0
 (Enter /Users/vincenzobarone/gdv_j32p/gdv/l1002.exe)
 Minotr:  Closed shell wavefunction.
          IDoAtm=111
          Direct CPHF calculation.
          Differentiating once with respect to electric field.
                with respect to dipole field.
          Differentiating once with respect to nuclear coordinates.
          Requested convergence is 1.0D-08 RMS, and 1.0D-07 maximum.
          Secondary convergence is 1.0D-12 RMS, and 1.0D-12 maximum.
          NewPWx=T KeepS1=F KeepF1=F KeepIn=T MapXYZ=F SortEE=F KeepMc=T.
 Keep R1 ints in memory in canonical form, NReq=1666339.
 FoFCou: FMM=F IPFlag=           0 FMFlag=           0 FMFlg1=           0
         NFxFlg=           0 DoJE=F BraDBF=F KetDBF=F FulRan=T
         wScrn=  0.000000 ICntrl=       600 IOpCl=  0 I1Cent=           0 NGrid=           0
         NMat0=    1 NMatS0=    190 NMatT0=    0 NMatD0=    1 NMtDS0=    0 NMtDT0=    0
 Symmetry not used in FoFCou.
 Two-electron integral symmetry not used.
          MDV=    4294967296 using Grid=Fine.
          Solving linear equations simultaneously, MaxMat=       0.
          There are    12 degrees of freedom in the 1st order CPHF.  IDoFFX=6 NUNeed=     3.
      9 vectors produced by pass  0 Test12= 5.83D-16 8.33D-09 XBig12= 1.28D+00 7.84D-01.
 AX will form     9 AO Fock derivatives at one time.
      9 vectors produced by pass  1 Test12= 5.83D-16 8.33D-09 XBig12= 6.01D-02 1.31D-01.
      9 vectors produced by pass  2 Test12= 5.83D-16 8.33D-09 XBig12= 9.20D-04 1.34D-02.
      9 vectors produced by pass  3 Test12= 5.83D-16 8.33D-09 XBig12= 3.76D-06 9.66D-04.
      9 vectors produced by pass  4 Test12= 5.83D-16 8.33D-09 XBig12= 1.25D-08 6.25D-05.
      9 vectors produced by pass  5 Test12= 5.83D-16 8.33D-09 XBig12= 2.07D-11 1.90D-06.
      2 vectors produced by pass  6 Test12= 5.83D-16 8.33D-09 XBig12= 1.09D-13 1.82D-07.
 InvSVY:  IOpt=1 It=  1 EMax= 4.44D-16
 Solved reduced A of dimension    56 with     9 vectors.
 FullF1:  Do perturbations      1 to       3.
 Isotropic polarizability for W=    0.000000        5.06 Bohr**3.
 End of Minotr FD prop file    721 does not exist.
 End of Minotr FD prop file    722 does not exist.
 End of Minotr FD prop file    788 does not exist.
 End of Minotr FD prop file    804 does not exist.
 Leave Link 1002 at Tue Mar 10 00:06:56 2026, MaxMem=  4294967296 cpu:               0.1 elap:               0.0
 (Enter /Users/vincenzobarone/gdv_j32p/gdv/l601.exe)
 Copying SCF densities to generalized density rwf, IOpCl= 0 IROHF=0.
 
 **********************************************************************
 
               Population analysis using the SCF Density.
 
 **********************************************************************
 
 Alpha  occ. eigenvalues --      -20.56453      -1.33306      -0.69524      -0.56934      -0.49703
 Alpha virt. eigenvalues --        0.20654       0.29889       1.01067       1.12500       1.15814
 Alpha virt. eigenvalues --        1.16757       1.37430       1.43640       2.02236       2.03887
 Alpha virt. eigenvalues --        2.07000       2.59870       2.91330       3.95923
          Condensed to atoms (all electrons):
               1          2          3
     1  H    0.326519   0.260837  -0.018636
     2  O    0.260837   8.340885   0.260837
     3  H   -0.018636   0.260837   0.326519
 Mulliken charges:
               1
     1  H    0.431280
     2  O   -0.862559
     3  H    0.431280
 Sum of Mulliken charges=   0.00000
 Mulliken charges with hydrogens summed into heavy atoms:
               1
     2  O    0.000000
 APT charges:
               1
     1  H    0.285817
     2  O   -0.571634
     3  H    0.285817
 Sum of APT charges=   0.00000
 APT charges with hydrogens summed into heavy atoms:
               1
     2  O    0.000000
 Electronic spatial extent (au):  <R**2>=             19.1131
 Charge=              0.0000 electrons
 Dipole moment (field-independent basis, Debye):
    X=              0.0000    Y=              0.0000    Z=             -2.2555  Tot=              2.2555
 Quadrupole moment (field-independent basis, Debye-Ang):
   XX=             -7.2653   YY=             -4.1354   ZZ=             -5.7209
   XY=              0.0000   XZ=              0.0000   YZ=              0.0000
 Traceless Quadrupole moment (field-independent basis, Debye-Ang):
   XX=             -1.5581   YY=              1.5718   ZZ=             -0.0137
   XY=              0.0000   XZ=              0.0000   YZ=              0.0000
 Octapole moment (field-independent basis, Debye-Ang**2):
  XXX=              0.0000  YYY=              0.0000  ZZZ=             -0.5230  XYY=              0.0000
  XXY=              0.0000  XXZ=              0.0103  XZZ=              0.0000  YZZ=              0.0000
  YYZ=             -1.2134  XYZ=              0.0000
 Hexadecapole moment (field-independent basis, Debye-Ang**3):
 XXXX=             -5.2501 YYYY=             -5.6321 ZZZZ=             -5.9851 XXXY=              0.0000
 XXXZ=              0.0000 YYYX=              0.0000 YYYZ=              0.0000 ZZZX=              0.0000
 ZZZY=              0.0000 XXYY=             -2.0890 XXZZ=             -1.9443 YYZZ=             -1.4594
 XXYZ=              0.0000 YYXZ=              0.0000 ZZXY=              0.0000
 N-N=           9.020516 E-N=        -198.491806  KE=          75.751004
 No NMR shielding tensors so no spin-rotation constants.
 Leave Link  601 at Tue Mar 10 00:06:56 2026, MaxMem=  4294967296 cpu:               0.1 elap:               0.0
 (Enter /Users/vincenzobarone/gdv_j32p/gdv/l701.exe)
 GetPMM: IRwPM=    824 LRwPM=      0 LPMAll=      2
 SCFChk:  SCF convergence  1.74D-09 required  1.00D-08
 AtDip 
                 1             2             3 
      1   0.000000D+00  0.000000D+00  0.000000D+00
      2   0.000000D+00  0.000000D+00  0.000000D+00
      3   0.000000D+00  0.000000D+00  0.000000D+00
 AtQua 
                 1             2             3             4             5 
      1   0.000000D+00  0.000000D+00  0.000000D+00  0.000000D+00  0.000000D+00
      2   0.000000D+00  0.000000D+00  0.000000D+00  0.000000D+00  0.000000D+00
      3   0.000000D+00  0.000000D+00  0.000000D+00  0.000000D+00  0.000000D+00
                 6 
      1   0.000000D+00
      2   0.000000D+00
      3   0.000000D+00
 AtPol 
                 1 
      1   0.000000D+00
      2   0.000000D+00
      3   0.000000D+00
 Pair potential:
 ... and contract with generalized density number  0.
 Compute integral second derivatives.
 FFX after V2NN 
                1             2             3             4             5 
      1  0.000000D+00
      2  0.000000D+00  0.000000D+00
      3  0.000000D+00  0.000000D+00  0.000000D+00
      4  0.000000D+00  0.000000D+00  0.000000D+00 -0.131639D+01
      5  0.000000D+00  0.000000D+00  0.000000D+00  0.000000D+00  0.117139D+01
      6  0.000000D+00  0.000000D+00  0.000000D+00  0.000000D+00 -0.185897D+01
      7  0.000000D+00  0.000000D+00  0.000000D+00  0.127537D+01  0.000000D+00
      8  0.000000D+00  0.000000D+00  0.000000D+00  0.000000D+00 -0.108936D+01
      9  0.000000D+00  0.000000D+00  0.000000D+00  0.000000D+00  0.185897D+01
     10  0.000000D+00  0.000000D+00  0.000000D+00  0.410129D-01  0.000000D+00
     11  0.000000D+00  0.000000D+00  0.000000D+00  0.000000D+00 -0.820258D-01
     12  0.000000D+00  0.000000D+00  0.000000D+00  0.000000D+00  0.000000D+00
                6             7             8             9            10 
      6  0.144996D+00
      7  0.000000D+00 -0.255075D+01
      8  0.185897D+01  0.000000D+00  0.217873D+01
      9 -0.186009D+00  0.000000D+00  0.000000D+00  0.372017D+00
     10  0.000000D+00  0.127537D+01  0.000000D+00  0.000000D+00 -0.131639D+01
     11  0.000000D+00  0.000000D+00 -0.108936D+01 -0.185897D+01  0.000000D+00
     12  0.410129D-01  0.000000D+00 -0.185897D+01 -0.186009D+00  0.000000D+00
               11            12 
     11  0.117139D+01
     12  0.185897D+01  0.144996D+00
 Entering OneElI...
 OneElI was handed  4294965853 working-precision words.
 Calculate overlap and kinetic energy integrals
    NBasis =  19  MinDer = 2  MaxDer = 2
 Requested accuracy = 0.1000D-12
 ShPair: Thresh= 1.00D-13 NBox=     0 BxSize= 0.00D+00 RnKept= 2.90D+00
         NSMCal=                   36 NSMKep=                  36
 PrmmSu-InSpLW:  IPartL=    0 NPrtUS=    8 NPrtUL=    1 DoSpLW=F IThBeg=    0 IThEnd=    7 NThAct=    8.
 PrSmSu:  IncTry=   512 NBBP=             36 NTPThr=   100 NPartT=    8 Incr=           1 LDynOK=F GPUOK=F.
 PrsmSu:  NPrtUS=   8 ThrOK=T IAlg=2 LenDen=           0 ISkipM=0 DoSpLW=F IThBeg=    0 IThEnd=    7.
 PRISM was handed   536866289 working-precision words and    36 shell-pairs
 PRISM was handed   536866289 working-precision words and    36 shell-pairs
 PRISM was handed   536866289 working-precision words and    36 shell-pairs
 Prism:   IPart=     0 DynPar=F LinDyn=F Incr=           1.
 PRISM was handed   536866289 working-precision words and    36 shell-pairs
 PRISM was handed   536866289 working-precision words and    36 shell-pairs
 PRISM was handed   536866289 working-precision words and    36 shell-pairs
 PRISM was handed   536866289 working-precision words and    36 shell-pairs
 PRISM was handed   536866289 working-precision words and    36 shell-pairs
 IPart=  3 NShTot=           2 NBatch=           2 AvBLen=         1.0
 PrsmSu-ThDecC:  IPartSL=    3    0 NPrtUSL=    8    1 IThBeg=    0 IThEnd=    7 CPU=   -1 GPU=   -1 NThAct=    8.
 IPart=  5 NShTot=           0 NBatch=           0 AvBLen=         0.0
 PrsmSu-ThDecC:  IPartSL=    5    0 NPrtUSL=    8    1 IThBeg=    0 IThEnd=    7 CPU=   -1 GPU=   -1 NThAct=    7.
 IPart=  6 NShTot=           0 NBatch=           0 AvBLen=         0.0
 PrsmSu-ThDecC:  IPartSL=    6    0 NPrtUSL=    8    1 IThBeg=    0 IThEnd=    7 CPU=   -1 GPU=   -1 NThAct=    6.
 IPart=  2 NShTot=           3 NBatch=           3 AvBLen=         1.0
 PrsmSu-ThDecC:  IPartSL=    2    0 NPrtUSL=    8    1 IThBeg=    0 IThEnd=    7 CPU=   -1 GPU=   -1 NThAct=    5.
 IPart=  4 NShTot=           0 NBatch=           0 AvBLen=         0.0
 PrsmSu-ThDecC:  IPartSL=    4    0 NPrtUSL=    8    1 IThBeg=    0 IThEnd=    7 CPU=   -1 GPU=   -1 NThAct=    4.
 IPart=  0 NShTot=          21 NBatch=          21 AvBLen=         1.0
 PrsmSu-ThDecC:  IPartSL=    0    0 NPrtUSL=    8    1 IThBeg=    0 IThEnd=    7 CPU=   -1 GPU=   -1 NThAct=    3.
 IPart=  7 NShTot=           0 NBatch=           0 AvBLen=         0.0
 PrsmSu-ThDecC:  IPartSL=    7    0 NPrtUSL=    8    1 IThBeg=    0 IThEnd=    7 CPU=   -1 GPU=   -1 NThAct=    2.
 IPart=  1 NShTot=          10 NBatch=          10 AvBLen=         1.0
 PrsmSu-ThDecC:  IPartSL=    1    0 NPrtUSL=    8    1 IThBeg=    0 IThEnd=    7 CPU=   -1 GPU=   -1 NThAct=    1.
 PrSmSu:  NxtVal=              9.
 FFX after D2ST 
                1             2             3             4             5 
      1  0.000000D+00
      2  0.000000D+00  0.000000D+00
      3  0.000000D+00  0.000000D+00  0.000000D+00
      4  0.000000D+00  0.000000D+00  0.000000D+00 -0.200362D+01
      5  0.000000D+00  0.000000D+00  0.000000D+00  0.000000D+00  0.120030D+01
      6  0.000000D+00  0.000000D+00  0.000000D+00  0.000000D+00 -0.240579D+01
      7  0.000000D+00  0.000000D+00  0.000000D+00  0.197158D+01  0.000000D+00
      8  0.000000D+00  0.000000D+00  0.000000D+00  0.000000D+00 -0.113735D+01
      9  0.000000D+00  0.000000D+00  0.000000D+00  0.000000D+00  0.240579D+01
     10  0.000000D+00  0.000000D+00  0.000000D+00  0.320401D-01  0.000000D+00
     11  0.000000D+00  0.000000D+00  0.000000D+00  0.000000D+00 -0.629508D-01
     12  0.000000D+00  0.000000D+00  0.000000D+00  0.000000D+00  0.000000D+00
                6             7             8             9            10 
      6 -0.144550D+00
      7  0.000000D+00 -0.394317D+01
      8  0.240579D+01  0.000000D+00  0.227470D+01
      9  0.112510D+00  0.000000D+00  0.000000D+00 -0.225020D+00
     10  0.000000D+00  0.197158D+01  0.000000D+00  0.000000D+00 -0.200362D+01
     11  0.000000D+00  0.000000D+00 -0.113735D+01 -0.240579D+01  0.000000D+00
     12  0.320401D-01  0.000000D+00 -0.240579D+01  0.112510D+00  0.000000D+00
               11            12 
     11  0.120030D+01
     12  0.240579D+01 -0.144550D+00
 Entering OneElI...
 OneElI was handed  4294965853 working-precision words.
 Calculate potential energy integrals
    NBasis =  19  MinDer = 2  MaxDer = 2
 Requested accuracy = 0.1000D-12
 ShPair: Thresh= 1.00D-13 NBox=     0 BxSize= 0.00D+00 RnKept= 2.90D+00
         NSMCal=                   36 NSMKep=                  36
 PrmmSu-InSpLW:  IPartL=    0 NPrtUS=    8 NPrtUL=    1 DoSpLW=F IThBeg=    0 IThEnd=    7 NThAct=    8.
 PrSmSu:  IncTry=   512 NBBP=            108 NTPThr=   100 NPartT=    8 Incr=           1 LDynOK=F GPUOK=F.
 PrsmSu:  NPrtUS=   8 ThrOK=T IAlg=2 LenDen=           0 ISkipM=0 DoSpLW=F IThBeg=    0 IThEnd=    7.
 PRISM was handed   536866374 working-precision words and    36 shell-pairs
 PRISM was handed   536866374 working-precision words and    36 shell-pairs
 PRISM was handed   536866374 working-precision words and    36 shell-pairs
 PRISM was handed   536866374 working-precision words and    36 shell-pairs
 Prism:   IPart=     0 DynPar=F LinDyn=F Incr=           1.
 PRISM was handed   536866374 working-precision words and    36 shell-pairs
 PRISM was handed   536866374 working-precision words and    36 shell-pairs
 PRISM was handed   536866374 working-precision words and    36 shell-pairs
 PRISM was handed   536866374 working-precision words and    36 shell-pairs
 IPart=  7 NShTot=           0 NBatch=           0 AvBLen=         0.0
 PrsmSu-ThDecC:  IPartSL=    7    0 NPrtUSL=    8    1 IThBeg=    0 IThEnd=    7 CPU=   -1 GPU=   -1 NThAct=    8.
 IPart=  5 NShTot=           0 NBatch=           0 AvBLen=         0.0
 PrsmSu-ThDecC:  IPartSL=    5    0 NPrtUSL=    8    1 IThBeg=    0 IThEnd=    7 CPU=   -1 GPU=   -1 NThAct=    7.
 IPart=  1 NShTot=          30 NBatch=          10 AvBLen=         3.0
 PrsmSu-ThDecC:  IPartSL=    1    0 NPrtUSL=    8    1 IThBeg=    0 IThEnd=    7 CPU=   -1 GPU=   -1 NThAct=    6.
 IPart=  0 NShTot=          63 NBatch=          21 AvBLen=         3.0
 PrsmSu-ThDecC:  IPartSL=    0    0 NPrtUSL=    8    1 IThBeg=    0 IThEnd=    7 CPU=   -1 GPU=   -1 NThAct=    5.
 IPart=  2 NShTot=           9 NBatch=           3 AvBLen=         3.0
 PrsmSu-ThDecC:  IPartSL=    2    0 NPrtUSL=    8    1 IThBeg=    0 IThEnd=    7 CPU=   -1 GPU=   -1 NThAct=    4.
 IPart=  3 NShTot=           6 NBatch=           2 AvBLen=         3.0
 PrsmSu-ThDecC:  IPartSL=    3    0 NPrtUSL=    8    1 IThBeg=    0 IThEnd=    7 CPU=   -1 GPU=   -1 NThAct=    3.
 IPart=  6 NShTot=           0 NBatch=           0 AvBLen=         0.0
 PrsmSu-ThDecC:  IPartSL=    6    0 NPrtUSL=    8    1 IThBeg=    0 IThEnd=    7 CPU=   -1 GPU=   -1 NThAct=    2.
 IPart=  4 NShTot=           0 NBatch=           0 AvBLen=         0.0
 PrsmSu-ThDecC:  IPartSL=    4    0 NPrtUSL=    8    1 IThBeg=    0 IThEnd=    7 CPU=   -1 GPU=   -1 NThAct=    1.
 PrSmSu:  NxtVal=              9.
 FFX after D2V 
                1             2             3             4             5 
      1  0.000000D+00
      2  0.000000D+00  0.000000D+00
      3  0.000000D+00  0.000000D+00  0.000000D+00
      4  0.000000D+00  0.000000D+00  0.000000D+00  0.213980D+01
      5  0.000000D+00  0.000000D+00  0.000000D+00  0.000000D+00  0.795942D+00
      6  0.000000D+00  0.000000D+00  0.000000D+00  0.000000D+00  0.108001D+01
      7  0.000000D+00  0.000000D+00  0.000000D+00 -0.217639D+01  0.000000D+00
      8  0.000000D+00  0.000000D+00  0.000000D+00  0.000000D+00 -0.747600D+00
      9  0.000000D+00  0.000000D+00  0.000000D+00  0.000000D+00 -0.105749D+01
     10  0.000000D+00  0.000000D+00  0.000000D+00  0.365971D-01  0.000000D+00
     11  0.000000D+00  0.000000D+00  0.000000D+00  0.000000D+00 -0.483413D-01
     12  0.000000D+00  0.000000D+00  0.000000D+00  0.000000D+00 -0.225157D-01
                6             7             8             9            10 
      6  0.142159D+01
      7  0.000000D+00  0.435279D+01
      8 -0.110252D+01  0.000000D+00  0.149520D+01
      9 -0.147888D+01  0.000000D+00  0.000000D+00  0.295777D+01
     10  0.000000D+00 -0.217639D+01  0.000000D+00  0.000000D+00  0.213980D+01
     11  0.225157D-01  0.000000D+00 -0.747600D+00  0.105749D+01  0.000000D+00
     12  0.572973D-01  0.000000D+00  0.110252D+01 -0.147888D+01  0.000000D+00
               11            12 
     11  0.795942D+00
     12 -0.108001D+01  0.142159D+01
 Second derivatives from L701 IAtSt=0:
                1             2             3             4             5 
      1  0.000000D+00
      2  0.000000D+00  0.000000D+00
      3  0.000000D+00  0.000000D+00  0.000000D+00
      4  0.000000D+00  0.000000D+00  0.000000D+00  0.213980D+01
      5  0.000000D+00  0.000000D+00  0.000000D+00  0.000000D+00  0.795942D+00
      6  0.000000D+00  0.000000D+00  0.000000D+00  0.000000D+00  0.108001D+01
      7  0.000000D+00  0.000000D+00  0.000000D+00 -0.217639D+01  0.000000D+00
      8  0.000000D+00  0.000000D+00  0.000000D+00  0.000000D+00 -0.747600D+00
      9  0.000000D+00  0.000000D+00  0.000000D+00  0.000000D+00 -0.105749D+01
     10  0.000000D+00  0.000000D+00  0.000000D+00  0.365971D-01  0.000000D+00
     11  0.000000D+00  0.000000D+00  0.000000D+00  0.000000D+00 -0.483413D-01
     12  0.000000D+00  0.000000D+00  0.000000D+00  0.000000D+00 -0.225157D-01
                6             7             8             9            10 
      6  0.142159D+01
      7  0.000000D+00  0.435279D+01
      8 -0.110252D+01  0.000000D+00  0.149520D+01
      9 -0.147888D+01  0.000000D+00  0.000000D+00  0.295777D+01
     10  0.000000D+00 -0.217639D+01  0.000000D+00  0.000000D+00  0.213980D+01
     11  0.225157D-01  0.000000D+00 -0.747600D+00  0.105749D+01  0.000000D+00
     12  0.572973D-01  0.000000D+00  0.110252D+01 -0.147888D+01  0.000000D+00
               11            12 
     11  0.795942D+00
     12 -0.108001D+01  0.142159D+01
 Polarizability into L701:
                1             2             3 
      1  0.275489D+01
      2  0.000000D+00  0.724134D+01
      3  0.000000D+00  0.000000D+00  0.517854D+01
 Polarizability after L701:
                1             2             3 
      1  0.275489D+01
      2  0.000000D+00  0.724134D+01
      3  0.000000D+00  0.000000D+00  0.517854D+01
 Dipole Derivatives into L701:
                 1             2             3             4             5 
      1   0.389281D+00  0.000000D+00  0.000000D+00 -0.778562D+00  0.000000D+00
      2   0.000000D+00  0.249706D+00  0.109723D+00  0.000000D+00 -0.499413D+00
      3   0.000000D+00  0.654685D-01  0.218464D+00  0.000000D+00  0.000000D+00
                 6             7             8             9 
      1   0.000000D+00  0.389281D+00  0.000000D+00  0.000000D+00
      2   0.000000D+00  0.000000D+00  0.249706D+00 -0.109723D+00
      3  -0.436929D+00  0.000000D+00 -0.654685D-01  0.218464D+00
 Dipole Derivatives after L701:
                 1             2             3             4             5 
      1   0.389281D+00  0.000000D+00  0.000000D+00 -0.778562D+00  0.000000D+00
      2   0.000000D+00  0.249706D+00  0.109723D+00  0.000000D+00 -0.499413D+00
      3   0.000000D+00  0.654685D-01  0.218464D+00  0.000000D+00  0.000000D+00
                 6             7             8             9 
      1   0.000000D+00  0.389281D+00  0.000000D+00  0.000000D+00
      2   0.000000D+00  0.000000D+00  0.249706D+00 -0.109723D+00
      3  -0.436929D+00  0.000000D+00 -0.654685D-01  0.218464D+00
 Hessian into L701:
                1             2             3             4             5 
      1  0.242131D-01
      2  0.000000D+00  0.136601D+00
      3  0.000000D+00 -0.766975D-01  0.790217D-01
      4 -0.109657D-01  0.000000D+00  0.000000D+00  0.219314D-01
      5  0.000000D+00 -0.119436D+00  0.147932D+00  0.000000D+00  0.238872D+00
      6  0.000000D+00  0.546284D-02 -0.701327D-01  0.000000D+00  0.000000D+00
      7 -0.132474D-01  0.000000D+00  0.000000D+00 -0.109657D-01  0.000000D+00
      8  0.000000D+00 -0.171649D-01 -0.712347D-01  0.000000D+00 -0.119436D+00
      9  0.000000D+00  0.712347D-01 -0.888904D-02  0.000000D+00 -0.147932D+00
                6             7             8             9 
      6  0.140265D+00
      7  0.000000D+00  0.242131D-01
      8 -0.546284D-02  0.000000D+00  0.136601D+00
      9 -0.701327D-01  0.000000D+00  0.766975D-01  0.790217D-01
 Hessian after L701:
                1             2             3             4             5 
      1  0.216401D+01
      2  0.000000D+00  0.932542D+00
      3  0.000000D+00  0.100331D+01  0.150061D+01
      4 -0.218736D+01  0.000000D+00  0.000000D+00  0.437472D+01
      5  0.000000D+00 -0.867036D+00 -0.954591D+00  0.000000D+00  0.173407D+01
      6  0.000000D+00 -0.105203D+01 -0.154902D+01  0.000000D+00  0.000000D+00
      7  0.233497D-01  0.000000D+00  0.000000D+00 -0.218736D+01  0.000000D+00
      8  0.000000D+00 -0.655061D-01 -0.487189D-01  0.000000D+00 -0.867036D+00
      9  0.000000D+00  0.487189D-01  0.484082D-01  0.000000D+00  0.954591D+00
                6             7             8             9 
      6  0.309803D+01
      7  0.000000D+00  0.216401D+01
      8  0.105203D+01  0.000000D+00  0.932542D+00
      9 -0.154902D+01  0.000000D+00 -0.100331D+01  0.150061D+01
 Leave Link  701 at Tue Mar 10 00:06:56 2026, MaxMem=  4294967296 cpu:               0.2 elap:               0.0
 (Enter /Users/vincenzobarone/gdv_j32p/gdv/l702.exe)
 L702 exits ... SP integral derivatives will be done elsewhere.
 Leave Link  702 at Tue Mar 10 00:06:56 2026, MaxMem=  4294967296 cpu:               0.0 elap:               0.0
 (Enter /Users/vincenzobarone/gdv_j32p/gdv/l703.exe)
 GetPMM: IRwPM=    824 LRwPM=      0 LPMAll=      2
 Integral derivatives from FoFJK, PRISM(SPDF).
 Compute integral second derivatives, UseDBF=F ICtDFT=           0.
 ICntrl=    100127.
 Calling FoFJK, ICntrl=    100127 FMM=F ISym2X=0 I1Cent= 0 IOpClX= 0 NMat=1 NMatS=1 NMatT=0.
 FoFJK:  IHMeth= 1 ICntrl=  100127 DoSepK=F KAlg= 0 I1Cent=           0 FoldK=F
 IRaf=         0 NMat=       1 IRICut=       1 DoRegI=T DoRafI=F ISym2E= 0 IDoP0=0 IntGTp=1.
 FoFCou: FMM=F IPFlag=           0 FMFlag=      100000 FMFlg1=         800
         NFxFlg=           0 DoJE=F BraDBF=F KetDBF=F FulRan=T
         wScrn=  0.000000 ICntrl=    100127 IOpCl=  0 I1Cent=           0 NGrid=           0
         NMat0=    1 NMatS0=      1 NMatT0=    0 NMatD0=    1 NMtDS0=    0 NMtDT0=    0
 Symmetry not used in FoFCou.
 FoFCou:  KetSym=F NOpSet=  1 NOpAb=1 NOp=  1.
 FoFCou:  CnvScl= 1.00D+00 Thresh= 1.00D-12 IAcrcy=      10.
 ShPair: Thresh= 1.00D-12 NBox=     0 BxSize= 0.00D+00 RnKept= 2.90D+00
         NSMCal=                   36 NSMKep=                  36
 PrismS was handed  4294959801 working-precision words and    36 shell-pairs
 LenC2 before Schwartz=          37 after=          37 DMx= 1.04D+00.
 FoFCou: LinMIO=F DoNuc=F BraDBF=F KetDBF=F HaveP=T PDBF=F HaveZ=T HaveW=F
         NIJTC =       6 NIJTAt=       0 NIJTCD=       0 NIJTT =       6
         IJTBeg=       1 IJTEnd=       6 KLTBeg=       1 KLTEnd=       6
         IPTBeg=       1 IPTEnd=       6 IPTBCv=       1 IPTECv=       6
         IZTBeg=       1 IZTEnd=       6 IZTBCv=       1 IZTECv=       6
         IWTBeg=       7 IWTEnd=       6 IWTBCv=       7 IWTECv=       6
         INTBeg=       1 INTEnd=       0 IFTBCv=       1 IFTECv=       6
 NCel replicated for PrismC:     1
 CoulSu-InSpLW:  IPartL=    0 NPrtUS=    8 NPrtUL=    1 DoSpLW=F IThBeg=    0 IThEnd=    7 NThAct=    8.
 CoulSu:  IncTry=  1024 NBBP=            666 NTPThr=   100 NPartT=    8 Incr=           1 LDynOK=F GPUOK=F.
 CoulSu:  NPrtUS=   8 ThrOK=T IAlg=2 LenDen=           0 LWGrdD=           0 DoCopy=F ISkipM=0
          DoSpLW=F IThBeg=    0 IThEnd=    7.
 CoulSu:  IPart=    1 IPartR=    1 CPU=   -1 GPU=   -1.
 CoulSu:  IPart=    3 IPartR=    3 CPU=   -1 GPU=   -1.
 CoulSu:  IPart=    7 IPartR=    7 CPU=   -1 GPU=   -1.
 CoulSu:  IPart=    6 IPartR=    6 CPU=   -1 GPU=   -1.
 Enter PrismC:  IPart=  3 JobTyp=22 DoJE=F Cont=F.
 CoulSu:  IPart=    2 IPartR=    2 CPU=   -1 GPU=   -1.
 CoulSu:  IPart=    4 IPartR=    4 CPU=   -1 GPU=   -1.
 CoulSu:  IPart=    0 IPartR=    0 CPU=   -1 GPU=   -1.
 PrismC:  IPart=     3 DynPar=F LinDyn=F Incr=           1 UseFst=F UseS4=T ISplat=2.
 CoulSu:  IPart=    5 IPartR=    5 CPU=   -1 GPU=   -1.
 PrismC was handed   536866518 working-precision words and    36 shell-pairs
 Enter PrismC:  IPart=  1 JobTyp=22 DoJE=F Cont=F.
 PrismC:  IPart=     1 DynPar=F LinDyn=F Incr=           1 UseFst=F UseS4=T ISplat=2.
 PrismC was handed   536866518 working-precision words and    36 shell-pairs
 Enter PrismC:  IPart=  7 JobTyp=22 DoJE=F Cont=F.
 PrismC:  IPart=     7 DynPar=F LinDyn=F Incr=           1 UseFst=F UseS4=T ISplat=2.
 PrismC was handed   536866518 working-precision words and    36 shell-pairs
 Enter PrismC:  IPart=  6 JobTyp=22 DoJE=F Cont=F.
 PrismC:  IPart=     6 DynPar=F LinDyn=F Incr=           1 UseFst=F UseS4=T ISplat=2.
 PrismC was handed   536866518 working-precision words and    36 shell-pairs
 Enter PrismC:  IPart=  2 JobTyp=22 DoJE=F Cont=F.
 PrismC:  IPart=     2 DynPar=F LinDyn=F Incr=           1 UseFst=F UseS4=T ISplat=2.
 PrismC was handed   536866518 working-precision words and    36 shell-pairs
 Enter PrismC:  IPart=  4 JobTyp=22 DoJE=F Cont=F.
 PrismC:  IPart=     4 DynPar=F LinDyn=F Incr=           1 UseFst=F UseS4=T ISplat=2.
 PrismC was handed   536866518 working-precision words and    36 shell-pairs
 Enter PrismC:  IPart=  0 JobTyp=22 DoJE=F Cont=F.
 PrismC:  IPart=     0 DynPar=F LinDyn=F Incr=           1 UseFst=F UseS4=T ISplat=2.
 PrismC was handed   536866518 working-precision words and    36 shell-pairs
 Enter PrismC:  IPart=  5 JobTyp=22 DoJE=F Cont=F.
 PrismC:  IPart=     5 DynPar=F LinDyn=F Incr=           1 UseFst=F UseS4=T ISplat=2.
 PrismC was handed   536866518 working-precision words and    36 shell-pairs
 IPart=  7 NShTot=          21 NShNF=          21 NShFF=           0 MinMC=       7
           NShCPU=          21 NBCPU=          20 AvBCPU=         1.1
           NShGPU=           0 NBGPU=           0 AvBGPU=         0.0
 CoulSu-ThDecC:  IPartSL=    7    0 NPrtUSL=    8    1 IThBeg=    0 IThEnd=    7 CPU=   -1 GPU=   -1 NThAct=    8.
 IPart=  4 NShTot=          30 NShNF=          30 NShFF=           0 MinMC=       7
           NShCPU=          30 NBCPU=          27 AvBCPU=         1.1
           NShGPU=           0 NBGPU=           0 AvBGPU=         0.0
 CoulSu-ThDecC:  IPartSL=    4    0 NPrtUSL=    8    1 IThBeg=    0 IThEnd=    7 CPU=   -1 GPU=   -1 NThAct=    7.
 IPart=  2 NShTot=          90 NShNF=          90 NShFF=           0 MinMC=       7
           NShCPU=          90 NBCPU=          87 AvBCPU=         1.0
           NShGPU=           0 NBGPU=           0 AvBGPU=         0.0
 CoulSu-ThDecC:  IPartSL=    2    0 NPrtUSL=    8    1 IThBeg=    0 IThEnd=    7 CPU=   -1 GPU=   -1 NThAct=    6.
 IPart=  3 NShTot=          78 NShNF=          78 NShFF=           0 MinMC=       7
           NShCPU=          78 NBCPU=          75 AvBCPU=         1.0
           NShGPU=           0 NBGPU=           0 AvBGPU=         0.0
 CoulSu-ThDecC:  IPartSL=    3    0 NPrtUSL=    8    1 IThBeg=    0 IThEnd=    7 CPU=   -1 GPU=   -1 NThAct=    5.
 IPart=  6 NShTot=          21 NShNF=          21 NShFF=           0 MinMC=       7
           NShCPU=          21 NBCPU=          20 AvBCPU=         1.1
           NShGPU=           0 NBGPU=           0 AvBGPU=         0.0
 CoulSu-ThDecC:  IPartSL=    6    0 NPrtUSL=    8    1 IThBeg=    0 IThEnd=    7 CPU=   -1 GPU=   -1 NThAct=    4.
 IPart=  5 NShTot=          29 NShNF=          29 NShFF=           0 MinMC=       7
           NShCPU=          29 NBCPU=          26 AvBCPU=         1.1
           NShGPU=           0 NBGPU=           0 AvBGPU=         0.0
 CoulSu-ThDecC:  IPartSL=    5    0 NPrtUSL=    8    1 IThBeg=    0 IThEnd=    7 CPU=   -1 GPU=   -1 NThAct=    3.
 IPart=  1 NShTot=         160 NShNF=         160 NShFF=           0 MinMC=       7
           NShCPU=         160 NBCPU=         157 AvBCPU=         1.0
           NShGPU=           0 NBGPU=           0 AvBGPU=         0.0
 CoulSu-ThDecC:  IPartSL=    1    0 NPrtUSL=    8    1 IThBeg=    0 IThEnd=    7 CPU=   -1 GPU=   -1 NThAct=    2.
 IPart=  0 NShTot=         237 NShNF=         237 NShFF=           0 MinMC=       7
           NShCPU=         237 NBCPU=         231 AvBCPU=         1.0
           NShGPU=           0 NBGPU=           0 AvBGPU=         0.0
 CoulSu-ThDecC:  IPartSL=    0    0 NPrtUSL=    8    1 IThBeg=    0 IThEnd=    7 CPU=   -1 GPU=   -1 NThAct=    1.
 CoulSu:  NxtVal=              9 LenVP=      536866519 MinMC=       7.
 Hessian from J: 
                1             2             3             4             5 
      1  0.000000D+00
      2  0.000000D+00  0.000000D+00
      3  0.000000D+00  0.000000D+00  0.000000D+00
      4  0.000000D+00  0.000000D+00  0.000000D+00 -0.214815D+01
      5  0.000000D+00  0.000000D+00  0.000000D+00  0.000000D+00 -0.578538D+00
      6  0.000000D+00  0.000000D+00  0.000000D+00  0.000000D+00 -0.120845D+01
      7  0.000000D+00  0.000000D+00  0.000000D+00  0.217055D+01  0.000000D+00
      8  0.000000D+00  0.000000D+00  0.000000D+00  0.000000D+00  0.546385D+00
      9  0.000000D+00  0.000000D+00  0.000000D+00  0.000000D+00  0.122345D+01
     10  0.000000D+00  0.000000D+00  0.000000D+00 -0.223965D-01  0.000000D+00
     11  0.000000D+00  0.000000D+00  0.000000D+00  0.000000D+00  0.321535D-01
     12  0.000000D+00  0.000000D+00  0.000000D+00  0.000000D+00 -0.150013D-01
                6             7             8             9            10 
      6 -0.127937D+01
      7  0.000000D+00 -0.434109D+01
      8  0.119344D+01  0.000000D+00 -0.109277D+01
      9  0.130922D+01  0.000000D+00  0.000000D+00 -0.261844D+01
     10  0.000000D+00  0.217055D+01  0.000000D+00  0.000000D+00 -0.214815D+01
     11  0.150013D-01  0.000000D+00  0.546385D+00 -0.122345D+01  0.000000D+00
     12 -0.298478D-01  0.000000D+00 -0.119344D+01  0.130922D+01  0.000000D+00
               11            12 
     11 -0.578538D+00
     12  0.120845D+01 -0.127937D+01
 Force constants from FoF: 
                1             2             3             4             5 
      1  0.000000D+00
      2  0.000000D+00  0.000000D+00
      3  0.000000D+00  0.000000D+00  0.000000D+00
      4  0.000000D+00  0.000000D+00  0.000000D+00 -0.214815D+01
      5  0.000000D+00  0.000000D+00  0.000000D+00  0.000000D+00 -0.578538D+00
      6  0.000000D+00  0.000000D+00  0.000000D+00  0.000000D+00 -0.120845D+01
      7  0.000000D+00  0.000000D+00  0.000000D+00  0.217055D+01  0.000000D+00
      8  0.000000D+00  0.000000D+00  0.000000D+00  0.000000D+00  0.546385D+00
      9  0.000000D+00  0.000000D+00  0.000000D+00  0.000000D+00  0.122345D+01
     10  0.000000D+00  0.000000D+00  0.000000D+00 -0.223965D-01  0.000000D+00
     11  0.000000D+00  0.000000D+00  0.000000D+00  0.000000D+00  0.321535D-01
     12  0.000000D+00  0.000000D+00  0.000000D+00  0.000000D+00 -0.150013D-01
                6             7             8             9            10 
      6 -0.127937D+01
      7  0.000000D+00 -0.434109D+01
      8  0.119344D+01  0.000000D+00 -0.109277D+01
      9  0.130922D+01  0.000000D+00  0.000000D+00 -0.261844D+01
     10  0.000000D+00  0.217055D+01  0.000000D+00  0.000000D+00 -0.214815D+01
     11  0.150013D-01  0.000000D+00  0.546385D+00 -0.122345D+01  0.000000D+00
     12 -0.298478D-01  0.000000D+00 -0.119344D+01  0.130922D+01  0.000000D+00
               11            12 
     11 -0.578538D+00
     12  0.120845D+01 -0.127937D+01
 Second derivatives from L703 IAtSt=0:
                1             2             3             4             5 
      1  0.000000D+00
      2  0.000000D+00  0.000000D+00
      3  0.000000D+00  0.000000D+00  0.000000D+00
      4  0.000000D+00  0.000000D+00  0.000000D+00 -0.214815D+01
      5  0.000000D+00  0.000000D+00  0.000000D+00  0.000000D+00 -0.578538D+00
      6  0.000000D+00  0.000000D+00  0.000000D+00  0.000000D+00 -0.120845D+01
      7  0.000000D+00  0.000000D+00  0.000000D+00  0.217055D+01  0.000000D+00
      8  0.000000D+00  0.000000D+00  0.000000D+00  0.000000D+00  0.546385D+00
      9  0.000000D+00  0.000000D+00  0.000000D+00  0.000000D+00  0.122345D+01
     10  0.000000D+00  0.000000D+00  0.000000D+00 -0.223965D-01  0.000000D+00
     11  0.000000D+00  0.000000D+00  0.000000D+00  0.000000D+00  0.321535D-01
     12  0.000000D+00  0.000000D+00  0.000000D+00  0.000000D+00 -0.150013D-01
                6             7             8             9            10 
      6 -0.127937D+01
      7  0.000000D+00 -0.434109D+01
      8  0.119344D+01  0.000000D+00 -0.109277D+01
      9  0.130922D+01  0.000000D+00  0.000000D+00 -0.261844D+01
     10  0.000000D+00  0.217055D+01  0.000000D+00  0.000000D+00 -0.214815D+01
     11  0.150013D-01  0.000000D+00  0.546385D+00 -0.122345D+01  0.000000D+00
     12 -0.298478D-01  0.000000D+00 -0.119344D+01  0.130922D+01  0.000000D+00
               11            12 
     11 -0.578538D+00
     12  0.120845D+01 -0.127937D+01
 Polarizability into L703:
                1             2             3 
      1  0.275489D+01
      2  0.000000D+00  0.724134D+01
      3  0.000000D+00  0.000000D+00  0.517854D+01
 Polarizability after L703:
                1             2             3 
      1  0.275489D+01
      2  0.000000D+00  0.724134D+01
      3  0.000000D+00  0.000000D+00  0.517854D+01
 Dipole Derivatives into L703:
                 1             2             3             4             5 
      1   0.389281D+00  0.000000D+00  0.000000D+00 -0.778562D+00  0.000000D+00
      2   0.000000D+00  0.249706D+00  0.109723D+00  0.000000D+00 -0.499413D+00
      3   0.000000D+00  0.654685D-01  0.218464D+00  0.000000D+00  0.000000D+00
                 6             7             8             9 
      1   0.000000D+00  0.389281D+00  0.000000D+00  0.000000D+00
      2   0.000000D+00  0.000000D+00  0.249706D+00 -0.109723D+00
      3  -0.436929D+00  0.000000D+00 -0.654685D-01  0.218464D+00
 Dipole Derivatives after L703:
                 1             2             3             4             5 
      1   0.389281D+00  0.000000D+00  0.000000D+00 -0.778562D+00  0.000000D+00
      2   0.000000D+00  0.249706D+00  0.109723D+00  0.000000D+00 -0.499413D+00
      3   0.000000D+00  0.654685D-01  0.218464D+00  0.000000D+00  0.000000D+00
                 6             7             8             9 
      1   0.000000D+00  0.389281D+00  0.000000D+00  0.000000D+00
      2   0.000000D+00  0.000000D+00  0.249706D+00 -0.109723D+00
      3  -0.436929D+00  0.000000D+00 -0.654685D-01  0.218464D+00
 Hessian into L703:
                1             2             3             4             5 
      1  0.216401D+01
      2  0.000000D+00  0.932542D+00
      3  0.000000D+00  0.100331D+01  0.150061D+01
      4 -0.218736D+01  0.000000D+00  0.000000D+00  0.437472D+01
      5  0.000000D+00 -0.867036D+00 -0.954591D+00  0.000000D+00  0.173407D+01
      6  0.000000D+00 -0.105203D+01 -0.154902D+01  0.000000D+00  0.000000D+00
      7  0.233497D-01  0.000000D+00  0.000000D+00 -0.218736D+01  0.000000D+00
      8  0.000000D+00 -0.655061D-01 -0.487189D-01  0.000000D+00 -0.867036D+00
      9  0.000000D+00  0.487189D-01  0.484082D-01  0.000000D+00  0.954591D+00
                6             7             8             9 
      6  0.309803D+01
      7  0.000000D+00  0.216401D+01
      8  0.105203D+01  0.000000D+00  0.932542D+00
      9 -0.154902D+01  0.000000D+00 -0.100331D+01  0.150061D+01
 Hessian after L703:
                1             2             3             4             5 
      1  0.158609D-01
      2  0.000000D+00  0.354004D+00
      3  0.000000D+00 -0.205136D+00  0.221236D+00
      4 -0.168140D-01  0.000000D+00  0.000000D+00  0.336280D-01
      5  0.000000D+00 -0.320651D+00  0.238853D+00  0.000000D+00  0.641303D+00
      6  0.000000D+00  0.171418D+00 -0.239797D+00  0.000000D+00  0.000000D+00
      7  0.953116D-03  0.000000D+00  0.000000D+00 -0.168140D-01  0.000000D+00
      8  0.000000D+00 -0.333526D-01 -0.337176D-01  0.000000D+00 -0.320651D+00
      9  0.000000D+00  0.337176D-01  0.185604D-01  0.000000D+00 -0.238853D+00
                6             7             8             9 
      6  0.479593D+00
      7  0.000000D+00  0.158609D-01
      8 -0.171418D+00  0.000000D+00  0.354004D+00
      9 -0.239797D+00  0.000000D+00  0.205136D+00  0.221236D+00
 Leave Link  703 at Tue Mar 10 00:06:56 2026, MaxMem=  4294967296 cpu:               0.5 elap:               0.1
 (Enter /Users/vincenzobarone/gdv_j32p/gdv/l716.exe)
 GetPMM: IRwPM=    824 LRwPM=      0 LPMAll=      2
 FrcOut:
 IF    =        40 IFX   =        49 IFXYZ =        58
 IFFX  =        67 IFFFX =       112 IFLen =         9
 IFFLen=        45 IFFFLn=         0 IEDerv=       112
 LEDerv=       485 IFroze=       760 ICStrt=      1562
 Dipole        =-1.37359643D-15 3.32565877D-12-8.87387633D-01
 DipoleDeriv   = 3.89281038D-01-2.82779638D-15 3.32617408D-15
                 1.23606771D-16 2.49706432D-01 6.54684593D-02
                -1.10548818D-16 1.09722771D-01 2.18464255D-01
                -7.78562076D-01 8.64271616D-16-5.82427530D-15
                 4.64969121D-16-4.99412864D-01-7.93349888D-13
                 6.42707198D-16-8.05583103D-12-4.36928511D-01
                 3.89281038D-01 1.96352477D-15 2.49810122D-15
                -5.88575892D-16 2.49706432D-01-6.54684593D-02
                -5.32158380D-16-1.09722771D-01 2.18464255D-01
 Polarizability= 2.75488816D+00-1.60521649D-15 7.24134402D+00
                -1.16922639D-14-8.50190909D-11 5.17853839D+00
 HyperPolar    = 6.52458874D-14-6.16125903D-11 2.06544012D-13
                 5.25788202D-10-1.01073455D-01 4.74634802D-15
                -2.15785860D+01 1.48380953D-13 3.20027981D-10
                -1.04590034D+01
 Quadrupole    =-1.15841164D+00 1.16857740D+00-1.01657579D-02
                 7.16065916D-16 4.32343224D-16-1.30829303D-11
 After rot to inp orien Dipole Moment
                 1 
      1   0.000000D+00
      2   0.000000D+00
      3  -0.887388D+00
 After rot to inp orien Dipole Derivatives
                 1             2             3             4             5 
      1   0.389281D+00  0.000000D+00  0.000000D+00 -0.778562D+00  0.000000D+00
      2   0.000000D+00  0.249706D+00  0.109723D+00  0.000000D+00 -0.499413D+00
      3   0.000000D+00  0.654685D-01  0.218464D+00  0.000000D+00  0.000000D+00
                 6             7             8             9 
      1   0.000000D+00  0.389281D+00  0.000000D+00  0.000000D+00
      2   0.000000D+00  0.000000D+00  0.249706D+00 -0.109723D+00
      3  -0.436929D+00  0.000000D+00 -0.654685D-01  0.218464D+00
 After rot to inp orien Polarizability
                 1 
      1   0.275489D+01
      2   0.000000D+00
      3   0.724134D+01
      4   0.000000D+00
      5   0.000000D+00
      6   0.517854D+01
 After rot to inp orien HyperPolarizability
                 1 
      1   0.000000D+00
      2   0.000000D+00
      3   0.000000D+00
      4   0.000000D+00
      5  -0.101073D+00
      6   0.000000D+00
      7  -0.215786D+02
      8   0.000000D+00
      9   0.000000D+00
     10  -0.104590D+02
 After rot to inp orien Quadrupole Moment
                 1 
      1  -0.115841D+01
      2   0.116858D+01
      3  -0.101658D-01
      4   0.000000D+00
      5   0.000000D+00
      6   0.000000D+00
 After rot to inp orien QEq coupling tensors
                 1             2             3 
      1   0.249885D+00  0.197103D+01  0.249885D+00
      2   0.000000D+00  0.000000D+00  0.000000D+00
      3  -0.202328D+00 -0.167868D+01 -0.202328D+00
      4   0.000000D+00  0.000000D+00  0.000000D+00
      5   0.301031D+00  0.000000D+00 -0.301031D+00
      6  -0.475566D-01 -0.292351D+00 -0.475566D-01
 After rot to inp orien force vector number 1
 I=    1 X=   0.000000000000D+00 Y=   2.161435340012D-02 Z=  -1.916421489146D-02
 I=    2 X=   0.000000000000D+00 Y=   0.000000000000D+00 Z=   3.832842977563D-02
 I=    3 X=   0.000000000000D+00 Y=  -2.161435339079D-02 Z=  -1.916421488418D-02
 After rot to inp orien force vector number 2
 I=    1 X=   0.000000000000D+00 Y=   2.161435340012D-02 Z=  -1.916421489146D-02
 I=    2 X=   0.000000000000D+00 Y=   0.000000000000D+00 Z=   3.832842977563D-02
 I=    3 X=   0.000000000000D+00 Y=  -2.161435339079D-02 Z=  -1.916421488418D-02
 After rot to inp orien cartesian force constants 
                1             2             3             4             5 
      1  0.158609D-01
      2  0.000000D+00  0.354004D+00
      3  0.000000D+00 -0.205136D+00  0.221236D+00
      4 -0.168140D-01  0.000000D+00  0.000000D+00  0.336280D-01
      5  0.000000D+00 -0.320651D+00  0.238853D+00  0.000000D+00  0.641303D+00
      6  0.000000D+00  0.171418D+00 -0.239797D+00  0.000000D+00  0.000000D+00
      7  0.953116D-03  0.000000D+00  0.000000D+00 -0.168140D-01  0.000000D+00
      8  0.000000D+00 -0.333526D-01 -0.337176D-01  0.000000D+00 -0.320651D+00
      9  0.000000D+00  0.337176D-01  0.185604D-01  0.000000D+00 -0.238853D+00
                6             7             8             9 
      6  0.479593D+00
      7  0.000000D+00  0.158609D-01
      8 -0.171418D+00  0.000000D+00  0.354004D+00
      9 -0.239797D+00  0.000000D+00  0.205136D+00  0.221236D+00
 -------------------------------------------------------------------
 Center     Atomic                   Forces (Hartrees/Bohr)
 Number     Number              X              Y              Z
 -------------------------------------------------------------------
      1        1           0.000000000   -0.021614353    0.019164215
      2        8           0.000000000    0.000000000   -0.038328430
      3        1           0.000000000    0.021614353    0.019164215
 -------------------------------------------------------------------
 Cartesian Forces:  Max     0.038328430 RMS     0.018672509
 Force constants in Cartesian coordinates: 
                1             2             3             4             5 
      1  0.158609D-01
      2  0.000000D+00  0.354004D+00
      3  0.000000D+00 -0.205136D+00  0.221236D+00
      4 -0.168140D-01  0.000000D+00  0.000000D+00  0.336280D-01
      5  0.000000D+00 -0.320651D+00  0.238853D+00  0.000000D+00  0.641303D+00
      6  0.000000D+00  0.171418D+00 -0.239797D+00  0.000000D+00  0.000000D+00
      7  0.953116D-03  0.000000D+00  0.000000D+00 -0.168140D-01  0.000000D+00
      8  0.000000D+00 -0.333526D-01 -0.337176D-01  0.000000D+00 -0.320651D+00
      9  0.000000D+00  0.337176D-01  0.185604D-01  0.000000D+00 -0.238853D+00
                6             7             8             9 
      6  0.479593D+00
      7  0.000000D+00  0.158609D-01
      8 -0.171418D+00  0.000000D+00  0.354004D+00
      9 -0.239797D+00  0.000000D+00  0.205136D+00  0.221236D+00
 Final forces over variables, Energy=-7.60090845D+01:
 -2.18939551D-02-2.18939551D-02 3.93350217D-03
 Leave Link  716 at Tue Mar 10 00:06:56 2026, MaxMem=  4294967296 cpu:               0.0 elap:               0.0
 (Enter /Users/vincenzobarone/gdv_j32p/gdv/l106.exe)
 NDeriv=      3 NFrqRd=  0 NDerD0=      0 MskFDP=       0 MskDFD=       0 MskDF0=       0
 Re-enter D2Numr:  normal mode      2 step-down number 1
 Leave Link  106 at Tue Mar 10 00:06:56 2026, MaxMem=  4294967296 cpu:               0.0 elap:               0.0
 (Enter /Users/vincenzobarone/gdv_j32p/gdv/l301.exe)
 Basis read from rwf:  (6D, 7F)
 No pseudopotential information found on rwf file.
    19 basis functions,    36 primitive gaussians,    19 cartesian basis functions
     5 alpha electrons        5 beta electrons
       nuclear repulsion energy         9.0880314086 Hartrees.
 IExCor=         0 DFT=F Ex=HF Corr=None N6=None ScaHFX=  1.000000
 ScaDFX=  1.000000  1.000000  1.000000  1.000000  1.000000  0.000000
 ScaDFX=  0.000000  0.000000  0.000000  0.000000  0.000000  0.000000
 Grid=UltraFine IRanWt=     -1 IRanGd=            0 ICorTp=0 IEDCtl=  2004
 NAtoms=    3 NActive=    3 NUniq=    3 SFac= 1.00D+00 NAtFMM=   60 NAOKFM=F Big=F
 Integral buffers will be    131072 words long.
 Raffenetti 1 integral format.
 Two-electron integral symmetry is turned off.
 No density basis found on file    724.
 Leave Link  301 at Tue Mar 10 00:06:56 2026, MaxMem=  4294967296 cpu:               0.0 elap:               0.0
 (Enter /Users/vincenzobarone/gdv_j32p/gdv/l302.exe)
 NPDir=0 NMtPBC=     1 NCelOv=     1 NCel=       1 NClECP=     1 NCelD=      1
         NCelK=      1 NCelE2=     1 NClLst=     1 CellRange=     0.0.
 One-electron integrals computed using PRISM.
 NBasis=    19 RedAO= T EigKep=  2.27D-02  NBF=    19
 NBsUse=    19 1.00D-06 EigRej= -1.00D+00 NBFU=    19
 Leave Link  302 at Tue Mar 10 00:06:56 2026, MaxMem=  4294967296 cpu:               0.1 elap:               0.0
 (Enter /Users/vincenzobarone/gdv_j32p/gdv/l303.exe)
 DipDrv:  MaxL=1.
 Leave Link  303 at Tue Mar 10 00:06:56 2026, MaxMem=  4294967296 cpu:               0.0 elap:               0.0
 (Enter /Users/vincenzobarone/gdv_j32p/gdv/l401.exe)
 Initial guess from the checkpoint file:  "h2o.chk"
 B after Tr=     0.000000   -0.001036    0.000000
         Rot=    1.000000   -0.000183    0.000000    0.000000 Ang=  -0.02 deg.
 AO Guess basis will be translated and rotated to current coordinates.
 JPrj=2 DoOrth=T DoCkMO=T.
 Leave Link  401 at Tue Mar 10 00:06:56 2026, MaxMem=  4294967296 cpu:               0.0 elap:               0.0
 (Enter /Users/vincenzobarone/gdv_j32p/gdv/l502.exe)
 Keep R1 ints in memory in canonical form, NReq=1665784.
 FoFCou: FMM=F IPFlag=           0 FMFlag=           0 FMFlg1=           0
         NFxFlg=           0 DoJE=F BraDBF=F KetDBF=F FulRan=T
         wScrn=  0.000000 ICntrl=       600 IOpCl=  0 I1Cent=           0 NGrid=           0
         NMat0=    1 NMatS0=    190 NMatT0=    0 NMatD0=    1 NMtDS0=    0 NMtDT0=    0
 Symmetry not used in FoFCou.
 Two-electron integral symmetry not used.
 Closed shell SCF:
 Using DIIS extrapolation, IDIIS=  1040.
 NGot=  4294967296 LenX=  4294947479 LenY=  4294946597
 Requested convergence on RMS density matrix=1.00D-08 within  48 cycles.
 Requested convergence on MAX density matrix=1.00D-06.
 Requested convergence on             energy=1.00D-06.
 No special actions if energy rises.

 Cycle   1  Pass 1  IDiag  1:
 E= -76.0096385601346    
 DIIS: error= 1.13D-03 at cycle   1 NSaved=   1.
 NSaved= 1 IEnMin= 1 EnMin= -76.0096385601346     IErMin= 1 ErrMin= 1.13D-03
 ErrMax= 1.13D-03  0.00D+00 EMaxC= 1.00D-01 BMatC= 1.30D-05 BMatP= 1.30D-05
 Rises=F IDIUse=3 WtCom= 9.96D-01 WtEn= 3.78D-03
 Coeff-Com:  0.100D+01
 Coeff-En:   0.100D+01
 Coeff:      0.100D+01
 Gap=     1.710 Goal=   None    Shift=    0.000
 GapD=    1.710 DampG=2.000 DampE=1.000 DampFc=2.0000 IDamp=-1.
 RMSDP=2.31D-04 MaxDP=1.07D-03              OVMax= 1.99D-03

 Cycle   2  Pass 1  IDiag  1:
 E= -76.0096695032905     Delta-E=       -0.000030943156 Rises=F Damp=F AM=F Ri=F Fa=F
 DIIS: error= 2.76D-04 at cycle   2 NSaved=   2.
 NSaved= 2 IEnMin= 2 EnMin= -76.0096695032905     IErMin= 2 ErrMin= 2.76D-04
 ErrMax= 2.76D-04  0.00D+00 EMaxC= 1.00D-01 BMatC= 7.93D-07 BMatP= 1.30D-05
 Rises=F IDIUse=3 WtCom= 1.00D+00 WtEn= 4.59D-04
 Coeff-Com: -0.162D+00 0.116D+01
 Coeff-En:   0.000D+00 0.100D+01
 Coeff:     -0.162D+00 0.116D+01
 Gap=     0.706 Goal=   None    Shift=    0.000
 RMSDP=7.57D-05 MaxDP=4.68D-04 DE=-3.09D-05 OVMax= 9.04D-04

 Cycle   3  Pass 1  IDiag  1:
 E= -76.0096725410171     Delta-E=       -0.000003037727 Rises=F Damp=F AM=F Ri=F Fa=F
 DIIS: error= 7.72D-05 at cycle   3 NSaved=   3.
 NSaved= 3 IEnMin= 3 EnMin= -76.0096725410171     IErMin= 3 ErrMin= 7.72D-05
 ErrMax= 7.72D-05  0.00D+00 EMaxC= 1.00D-01 BMatC= 5.79D-08 BMatP= 7.93D-07
 Rises=F IDIUse=1 WtCom= 1.00D+00 WtEn= 0.00D+00
 Coeff-Com: -0.338D-01-0.101D+00 0.113D+01
 Coeff:     -0.338D-01-0.101D+00 0.113D+01
 Gap=     0.706 Goal=   None    Shift=    0.000
 RMSDP=2.68D-05 MaxDP=1.64D-04 DE=-3.04D-06 OVMax= 3.01D-04

 Cycle   4  Pass 1  IDiag  1:
 E= -76.0096728163569     Delta-E=       -0.000000275340 Rises=F Damp=F AM=F Ri=F Fa=F
 DIIS: error= 1.89D-05 at cycle   4 NSaved=   4.
 NSaved= 4 IEnMin= 4 EnMin= -76.0096728163569     IErMin= 4 ErrMin= 1.89D-05
 ErrMax= 1.89D-05  0.00D+00 EMaxC= 1.00D-01 BMatC= 3.20D-09 BMatP= 5.79D-08
 Rises=F IDIUse=1 WtCom= 1.00D+00 WtEn= 0.00D+00
 Coeff-Com:  0.135D-01-0.101D-01-0.375D+00 0.137D+01
 Coeff:      0.135D-01-0.101D-01-0.375D+00 0.137D+01
 Gap=     0.706 Goal=   None    Shift=    0.000
 RMSDP=9.63D-06 MaxDP=5.35D-05 DE=-2.75D-07 OVMax= 7.95D-05

 Cycle   5  Pass 1  IDiag  1:
 E= -76.0096728330979     Delta-E=       -0.000000016741 Rises=F Damp=F AM=F Ri=F Fa=F
 DIIS: error= 3.52D-06 at cycle   5 NSaved=   5.
 NSaved= 5 IEnMin= 5 EnMin= -76.0096728330979     IErMin= 5 ErrMin= 3.52D-06
 ErrMax= 3.52D-06  0.00D+00 EMaxC= 1.00D-01 BMatC= 1.34D-10 BMatP= 3.20D-09
 Rises=F IDIUse=1 WtCom= 1.00D+00 WtEn= 0.00D+00
 Coeff-Com:  0.366D-02 0.876D-03-0.112D+00 0.322D+00 0.785D+00
 Coeff:      0.366D-02 0.876D-03-0.112D+00 0.322D+00 0.785D+00
 Gap=     0.706 Goal=   None    Shift=    0.000
 RMSDP=7.66D-07 MaxDP=3.98D-06 DE=-1.67D-08 OVMax= 6.81D-06

 Cycle   6  Pass 1  IDiag  1:
 E= -76.0096728333619     Delta-E=       -0.000000000264 Rises=F Damp=F AM=F Ri=F Fa=F
 DIIS: error= 8.99D-07 at cycle   6 NSaved=   6.
 NSaved= 6 IEnMin= 6 EnMin= -76.0096728333619     IErMin= 6 ErrMin= 8.99D-07
 ErrMax= 8.99D-07  0.00D+00 EMaxC= 1.00D-01 BMatC= 1.19D-11 BMatP= 1.34D-10
 Rises=F IDIUse=1 WtCom= 1.00D+00 WtEn= 0.00D+00
 Coeff-Com: -0.202D-02 0.247D-02 0.516D-01-0.196D+00-0.399D-02 0.115D+01
 Coeff:     -0.202D-02 0.247D-02 0.516D-01-0.196D+00-0.399D-02 0.115D+01
 Gap=     0.706 Goal=   None    Shift=    0.000
 RMSDP=4.13D-07 MaxDP=2.14D-06 DE=-2.64D-10 OVMax= 3.94D-06

 Cycle   7  Pass 1  IDiag  1:
 E= -76.0096728334062     Delta-E=       -0.000000000044 Rises=F Damp=F AM=F Ri=F Fa=F
 DIIS: error= 1.79D-07 at cycle   7 NSaved=   7.
 NSaved= 7 IEnMin= 7 EnMin= -76.0096728334062     IErMin= 7 ErrMin= 1.79D-07
 ErrMax= 1.79D-07  0.00D+00 EMaxC= 1.00D-01 BMatC= 2.51D-13 BMatP= 1.19D-11
 Rises=F IDIUse=1 WtCom= 1.00D+00 WtEn= 0.00D+00
 Coeff-Com:  0.516D-03-0.462D-03-0.148D-01 0.550D-01-0.215D-01-0.374D+00
 Coeff-Com:  0.135D+01
 Coeff:      0.516D-03-0.462D-03-0.148D-01 0.550D-01-0.215D-01-0.374D+00
 Coeff:      0.135D+01
 Gap=     0.706 Goal=   None    Shift=    0.000
 RMSDP=9.87D-08 MaxDP=5.36D-07 DE=-4.43D-11 OVMax= 7.83D-07

 Cycle   8  Pass 1  IDiag  1:
 E= -76.0096728334074     Delta-E=       -0.000000000001 Rises=F Damp=F AM=F Ri=F Fa=F
 DIIS: error= 1.34D-08 at cycle   8 NSaved=   8.
 NSaved= 8 IEnMin= 8 EnMin= -76.0096728334074     IErMin= 8 ErrMin= 1.34D-08
 ErrMax= 1.34D-08  0.00D+00 EMaxC= 1.00D-01 BMatC= 1.18D-15 BMatP= 2.51D-13
 Rises=F IDIUse=1 WtCom= 1.00D+00 WtEn= 0.00D+00
 Coeff-Com: -0.568D-04 0.397D-04 0.173D-02-0.635D-02 0.313D-02 0.440D-01
 Coeff-Com: -0.209D+00 0.117D+01
 Coeff:     -0.568D-04 0.397D-04 0.173D-02-0.635D-02 0.313D-02 0.440D-01
 Coeff:     -0.209D+00 0.117D+01
 Gap=     0.706 Goal=   None    Shift=    0.000
 RMSDP=4.70D-09 MaxDP=2.57D-08 DE=-1.21D-12 OVMax= 3.78D-08

 SCF Done:  E(RHF) =  -76.0096728334     A.U. after    8 cycles
            NFock=  8  Conv=0.47D-08     -V/T= 2.0031
 KE=          75.778522 PE=        -198.639756 EE=          37.763530
 Leave Link  502 at Tue Mar 10 00:06:56 2026, MaxMem=  4294967296 cpu:               0.1 elap:               0.0
 (Enter /Users/vincenzobarone/gdv_j32p/gdv/l508.exe)
 QCSCF skips out because SCF is already converged.
 Leave Link  508 at Tue Mar 10 00:06:56 2026, MaxMem=  4294967296 cpu:               0.0 elap:               0.0
 (Enter /Users/vincenzobarone/gdv_j32p/gdv/l801.exe)
 Range of M.O.s used for correlation:     1    19
 NBasis=    19 NAE=     5 NBE=     5 NFC=     0 NFV=     0
 NROrb=     19 NOA=     5 NOB=     5 NVA=    14 NVB=    14
 Leave Link  801 at Tue Mar 10 00:06:56 2026, MaxMem=  4294967296 cpu:               0.0 elap:               0.0
 (Enter /Users/vincenzobarone/gdv_j32p/gdv/l1101.exe)
 Using compressed storage, NAtomX=     3.
 Will process      4 centers per pass.
 Leave Link 1101 at Tue Mar 10 00:06:56 2026, MaxMem=  4294967296 cpu:               0.1 elap:               0.0
 (Enter /Users/vincenzobarone/gdv_j32p/gdv/l1102.exe)
 Symmetrizing basis deriv contribution to polar:
 IMax=3 JMax=2 DiffMx= 0.00D+00
 Leave Link 1102 at Tue Mar 10 00:06:56 2026, MaxMem=  4294967296 cpu:               0.0 elap:               0.0
 (Enter /Users/vincenzobarone/gdv_j32p/gdv/l1110.exe)
 Forming Gx(P) for the SCF density, NAtomX=     3.
 Integral derivatives from FoFJK, PRISM(SPDF).
 Do as many integral derivatives as possible in FoFJK.
 G2DrvN: MDV=    4294966829.
 G2DrvN: will do     4 centers at a time, making    1 passes.
 Calling FoFCou, ICntrl=  3107 FMM=F I1Cent=   0 AccDes= 0.00D+00.
 FoFJK:  IHMeth= 1 ICntrl=    3107 DoSepK=F KAlg= 0 I1Cent=           0 FoldK=F
 IRaf=         0 NMat=       1 IRICut=       1 DoRegI=T DoRafI=F ISym2E= 0 IDoP0=0 IntGTp=1.
 FoFCou: FMM=F IPFlag=           0 FMFlag=      100000 FMFlg1=           0
         NFxFlg=           0 DoJE=F BraDBF=F KetDBF=F FulRan=T
         wScrn=  0.000000 ICntrl=      3107 IOpCl=  0 I1Cent=           0 NGrid=           0
         NMat0=    1 NMatS0=      1 NMatT0=    0 NMatD0=    1 NMtDS0=    0 NMtDT0=    0
 Symmetry not used in FoFCou.
 End of G2Drv FD prop file    721 does not exist.
 End of G2Drv FD prop file    722 does not exist.
 End of G2Drv FD prop file    788 does not exist.
 End of G2Drv FD prop file    804 does not exist.
 Leave Link 1110 at Tue Mar 10 00:06:56 2026, MaxMem=  4294967296 cpu:               0.2 elap:               0.0
 (Enter /Users/vincenzobarone/gdv_j32p/gdv/l1002.exe)
 Minotr:  Closed shell wavefunction.
          IDoAtm=111
          Direct CPHF calculation.
          Differentiating once with respect to electric field.
                with respect to dipole field.
          Differentiating once with respect to nuclear coordinates.
          Requested convergence is 1.0D-08 RMS, and 1.0D-07 maximum.
          Secondary convergence is 1.0D-12 RMS, and 1.0D-12 maximum.
          NewPWx=T KeepS1=F KeepF1=F KeepIn=T MapXYZ=F SortEE=F KeepMc=T.
 Keep R1 ints in memory in canonical form, NReq=1666339.
 FoFCou: FMM=F IPFlag=           0 FMFlag=           0 FMFlg1=           0
         NFxFlg=           0 DoJE=F BraDBF=F KetDBF=F FulRan=T
         wScrn=  0.000000 ICntrl=       600 IOpCl=  0 I1Cent=           0 NGrid=           0
         NMat0=    1 NMatS0=    190 NMatT0=    0 NMatD0=    1 NMtDS0=    0 NMtDT0=    0
 Symmetry not used in FoFCou.
 Two-electron integral symmetry not used.
          MDV=    4294967296 using Grid=Fine.
          Solving linear equations simultaneously, MaxMat=       0.
          There are    12 degrees of freedom in the 1st order CPHF.  IDoFFX=6 NUNeed=     3.
      9 vectors produced by pass  0 Test12= 5.83D-16 8.33D-09 XBig12= 1.24D+00 7.70D-01.
 AX will form     9 AO Fock derivatives at one time.
      9 vectors produced by pass  1 Test12= 5.83D-16 8.33D-09 XBig12= 5.80D-02 1.27D-01.
      9 vectors produced by pass  2 Test12= 5.83D-16 8.33D-09 XBig12= 8.92D-04 1.36D-02.
      9 vectors produced by pass  3 Test12= 5.83D-16 8.33D-09 XBig12= 3.57D-06 9.58D-04.
      9 vectors produced by pass  4 Test12= 5.83D-16 8.33D-09 XBig12= 1.19D-08 5.40D-05.
      8 vectors produced by pass  5 Test12= 5.83D-16 8.33D-09 XBig12= 2.19D-11 1.95D-06.
      2 vectors produced by pass  6 Test12= 5.83D-16 8.33D-09 XBig12= 1.31D-13 1.63D-07.
 InvSVY:  IOpt=1 It=  1 EMax= 6.66D-16
 Solved reduced A of dimension    55 with     9 vectors.
 FullF1:  Do perturbations      1 to       3.
 Isotropic polarizability for W=    0.000000        4.98 Bohr**3.
 End of Minotr FD prop file    721 does not exist.
 End of Minotr FD prop file    722 does not exist.
 End of Minotr FD prop file    788 does not exist.
 End of Minotr FD prop file    804 does not exist.
 Leave Link 1002 at Tue Mar 10 00:06:56 2026, MaxMem=  4294967296 cpu:               0.1 elap:               0.0
 (Enter /Users/vincenzobarone/gdv_j32p/gdv/l601.exe)
 Copying SCF densities to generalized density rwf, IOpCl= 0 IROHF=0.
 
 **********************************************************************
 
               Population analysis using the SCF Density.
 
 **********************************************************************
 
 Alpha  occ. eigenvalues --      -20.56312      -1.33671      -0.69910      -0.57066      -0.49750
 Alpha virt. eigenvalues --        0.20807       0.30093       1.01349       1.12877       1.16379
 Alpha virt. eigenvalues --        1.16756       1.37654       1.43678       2.02053       2.03717
 Alpha virt. eigenvalues --        2.06878       2.60715       2.92630       3.96297
          Condensed to atoms (all electrons):
               1          2          3
     1  H    0.323180   0.263093  -0.018855
     2  O    0.263093   8.338380   0.261991
     3  H   -0.018855   0.261991   0.325982
 Mulliken charges:
               1
     1  H    0.432582
     2  O   -0.863464
     3  H    0.430882
 Sum of Mulliken charges=   0.00000
 Mulliken charges with hydrogens summed into heavy atoms:
               1
     2  O    0.000000
 APT charges:
               1
     1  H    0.289724
     2  O   -0.577043
     3  H    0.287319
 Sum of APT charges=   0.00000
 APT charges with hydrogens summed into heavy atoms:
               1
     2  O    0.000000
 Electronic spatial extent (au):  <R**2>=             19.0189
 Charge=              0.0000 electrons
 Dipole moment (field-independent basis, Debye):
    X=              0.0000    Y=             -0.0102    Z=             -2.2497  Tot=              2.2497
 Quadrupole moment (field-independent basis, Debye-Ang):
   XX=             -7.2504   YY=             -4.1492   ZZ=             -5.7210
   XY=              0.0000   XZ=              0.0000   YZ=              0.0208
 Traceless Quadrupole moment (field-independent basis, Debye-Ang):
   XX=             -1.5435   YY=              1.5577   ZZ=             -0.0141
   XY=              0.0000   XZ=              0.0000   YZ=              0.0208
 Octapole moment (field-independent basis, Debye-Ang**2):
  XXX=              0.0000  YYY=             -0.0076  ZZZ=             -0.5340  XYY=              0.0000
  XXY=              0.0107  XXZ=              0.0021  XZZ=              0.0000  YZZ=             -0.0108
  YYZ=             -1.1927  XYZ=              0.0000
 Hexadecapole moment (field-independent basis, Debye-Ang**3):
 XXXX=             -5.2335 YYYY=             -5.5800 ZZZZ=             -5.9392 XXXY=              0.0000
 XXXZ=              0.0000 YYYX=              0.0000 YYYZ=              0.0052 ZZZX=              0.0000
 ZZZY=             -0.0114 XXYY=             -2.0695 XXZZ=             -1.9318 YYZZ=             -1.4567
 XXYZ=             -0.0097 YYXZ=              0.0000 ZZXY=              0.0000
 N-N=           9.088031 E-N=        -198.639756  KE=          75.778522
 No NMR shielding tensors so no spin-rotation constants.
 Leave Link  601 at Tue Mar 10 00:06:56 2026, MaxMem=  4294967296 cpu:               0.1 elap:               0.0
 (Enter /Users/vincenzobarone/gdv_j32p/gdv/l701.exe)
 GetPMM: IRwPM=    824 LRwPM=      0 LPMAll=      2
 SCFChk:  SCF convergence  4.70D-09 required  1.00D-08
 AtDip 
                 1             2             3 
      1   0.000000D+00  0.000000D+00  0.000000D+00
      2   0.000000D+00  0.000000D+00  0.000000D+00
      3   0.000000D+00  0.000000D+00  0.000000D+00
 AtQua 
                 1             2             3             4             5 
      1   0.000000D+00  0.000000D+00  0.000000D+00  0.000000D+00  0.000000D+00
      2   0.000000D+00  0.000000D+00  0.000000D+00  0.000000D+00  0.000000D+00
      3   0.000000D+00  0.000000D+00  0.000000D+00  0.000000D+00  0.000000D+00
                 6 
      1   0.000000D+00
      2   0.000000D+00
      3   0.000000D+00
 AtPol 
                 1 
      1   0.000000D+00
      2   0.000000D+00
      3   0.000000D+00
 Pair potential:
 ... and contract with generalized density number  0.
 Compute integral second derivatives.
 FFX after V2NN 
                1             2             3             4             5 
      1  0.000000D+00
      2  0.000000D+00  0.000000D+00
      3  0.000000D+00  0.000000D+00  0.000000D+00
      4  0.000000D+00  0.000000D+00  0.000000D+00 -0.137593D+01
      5  0.000000D+00  0.000000D+00  0.000000D+00  0.000000D+00  0.122144D+01
      6  0.000000D+00  0.000000D+00  0.000000D+00  0.000000D+00 -0.194417D+01
      7  0.000000D+00  0.000000D+00  0.000000D+00  0.133399D+01  0.000000D+00
      8  0.000000D+00  0.000000D+00  0.000000D+00  0.000000D+00 -0.113757D+01
      9  0.000000D+00  0.000000D+00  0.000000D+00  0.000000D+00  0.194486D+01
     10  0.000000D+00  0.000000D+00  0.000000D+00  0.419364D-01  0.000000D+00
     11  0.000000D+00  0.000000D+00  0.000000D+00  0.000000D+00 -0.838691D-01
     12  0.000000D+00  0.000000D+00  0.000000D+00  0.000000D+00 -0.692683D-03
                6             7             8             9            10 
      6  0.154487D+00
      7  0.000000D+00 -0.260891D+01
      8  0.194486D+01  0.000000D+00  0.222795D+01
      9 -0.196420D+00  0.000000D+00 -0.868981D-01  0.380953D+00
     10  0.000000D+00  0.127492D+01  0.000000D+00  0.000000D+00 -0.131685D+01
     11 -0.692683D-03  0.000000D+00 -0.109038D+01 -0.185797D+01  0.000000D+00
     12  0.419326D-01  0.000000D+00 -0.185797D+01 -0.184534D+00  0.000000D+00
               11            12 
     11  0.117425D+01
     12  0.185866D+01  0.142601D+00
 Entering OneElI...
 OneElI was handed  4294965853 working-precision words.
 Calculate overlap and kinetic energy integrals
    NBasis =  19  MinDer = 2  MaxDer = 2
 Requested accuracy = 0.1000D-12
 ShPair: Thresh= 1.00D-13 NBox=     0 BxSize= 0.00D+00 RnKept= 2.88D+00
         NSMCal=                   36 NSMKep=                  36
 PrmmSu-InSpLW:  IPartL=    0 NPrtUS=    8 NPrtUL=    1 DoSpLW=F IThBeg=    0 IThEnd=    7 NThAct=    8.
 PrSmSu:  IncTry=   512 NBBP=             36 NTPThr=   100 NPartT=    8 Incr=           1 LDynOK=F GPUOK=F.
 PrsmSu:  NPrtUS=   8 ThrOK=T IAlg=2 LenDen=           0 ISkipM=0 DoSpLW=F IThBeg=    0 IThEnd=    7.
 PRISM was handed   536866289 working-precision words and    36 shell-pairs
 Prism:   IPart=     0 DynPar=F LinDyn=F Incr=           1.
 PRISM was handed   536866289 working-precision words and    36 shell-pairs
 PRISM was handed   536866289 working-precision words and    36 shell-pairs
 PRISM was handed   536866289 working-precision words and    36 shell-pairs
 PRISM was handed   536866289 working-precision words and    36 shell-pairs
 PRISM was handed   536866289 working-precision words and    36 shell-pairs
 PRISM was handed   536866289 working-precision words and    36 shell-pairs
 PRISM was handed   536866289 working-precision words and    36 shell-pairs
 IPart=  7 NShTot=           0 NBatch=           0 AvBLen=         0.0
 PrsmSu-ThDecC:  IPartSL=    7    0 NPrtUSL=    8    1 IThBeg=    0 IThEnd=    7 CPU=   -1 GPU=   -1 NThAct=    8.
 IPart=  4 NShTot=           0 NBatch=           0 AvBLen=         0.0
 PrsmSu-ThDecC:  IPartSL=    4    0 NPrtUSL=    8    1 IThBeg=    0 IThEnd=    7 CPU=   -1 GPU=   -1 NThAct=    7.
 IPart=  6 NShTot=           0 NBatch=           0 AvBLen=         0.0
 IPart=  3 NShTot=           2 NBatch=           2 AvBLen=         1.0
 PrsmSu-ThDecC:  IPartSL=    6    0 NPrtUSL=    8    1 IThBeg=    0 IThEnd=    7 CPU=   -1 GPU=   -1 NThAct=    6.
 PrsmSu-ThDecC:  IPartSL=    3    0 NPrtUSL=    8    1 IThBeg=    0 IThEnd=    7 CPU=   -1 GPU=   -1 NThAct=    5.
 IPart=  2 NShTot=           3 NBatch=           3 AvBLen=         1.0
 PrsmSu-ThDecC:  IPartSL=    2    0 NPrtUSL=    8    1 IThBeg=    0 IThEnd=    7 CPU=   -1 GPU=   -1 NThAct=    4.
 IPart=  0 NShTot=          21 NBatch=          21 AvBLen=         1.0
 PrsmSu-ThDecC:  IPartSL=    0    0 NPrtUSL=    8    1 IThBeg=    0 IThEnd=    7 CPU=   -1 GPU=   -1 NThAct=    3.
 IPart=  5 NShTot=           0 NBatch=           0 AvBLen=         0.0
 PrsmSu-ThDecC:  IPartSL=    5    0 NPrtUSL=    8    1 IThBeg=    0 IThEnd=    7 CPU=   -1 GPU=   -1 NThAct=    2.
 IPart=  1 NShTot=          10 NBatch=          10 AvBLen=         1.0
 PrsmSu-ThDecC:  IPartSL=    1    0 NPrtUSL=    8    1 IThBeg=    0 IThEnd=    7 CPU=   -1 GPU=   -1 NThAct=    1.
 PrSmSu:  NxtVal=              9.
 FFX after D2ST 
                1             2             3             4             5 
      1  0.000000D+00
      2  0.000000D+00  0.000000D+00
      3  0.000000D+00  0.000000D+00  0.000000D+00
      4  0.000000D+00  0.000000D+00  0.000000D+00 -0.209762D+01
      5  0.000000D+00  0.000000D+00  0.000000D+00  0.000000D+00  0.123281D+01
      6  0.000000D+00  0.000000D+00  0.000000D+00  0.000000D+00 -0.250552D+01
      7  0.000000D+00  0.000000D+00  0.000000D+00  0.206485D+01  0.000000D+00
      8  0.000000D+00  0.000000D+00  0.000000D+00  0.000000D+00 -0.116830D+01
      9  0.000000D+00  0.000000D+00  0.000000D+00  0.000000D+00  0.250605D+01
     10  0.000000D+00  0.000000D+00  0.000000D+00  0.327764D-01  0.000000D+00
     11  0.000000D+00  0.000000D+00  0.000000D+00  0.000000D+00 -0.645026D-01
     12  0.000000D+00  0.000000D+00  0.000000D+00  0.000000D+00 -0.535617D-03
                6             7             8             9            10 
      6 -0.157980D+00
      7  0.000000D+00 -0.403622D+01
      8  0.250605D+01  0.000000D+00  0.230719D+01
      9  0.125207D+00  0.000000D+00 -0.101236D+00 -0.239685D+00
     10  0.000000D+00  0.197138D+01  0.000000D+00  0.000000D+00 -0.200415D+01
     11 -0.535617D-03  0.000000D+00 -0.113888D+01 -0.240482D+01  0.000000D+00
     12  0.327734D-01  0.000000D+00 -0.240482D+01  0.114478D+00  0.000000D+00
               11            12 
     11  0.120339D+01
     12  0.240535D+01 -0.147251D+00
 Entering OneElI...
 OneElI was handed  4294965853 working-precision words.
 Calculate potential energy integrals
    NBasis =  19  MinDer = 2  MaxDer = 2
 Requested accuracy = 0.1000D-12
 ShPair: Thresh= 1.00D-13 NBox=     0 BxSize= 0.00D+00 RnKept= 2.88D+00
         NSMCal=                   36 NSMKep=                  36
 PrmmSu-InSpLW:  IPartL=    0 NPrtUS=    8 NPrtUL=    1 DoSpLW=F IThBeg=    0 IThEnd=    7 NThAct=    8.
 PrSmSu:  IncTry=   512 NBBP=            108 NTPThr=   100 NPartT=    8 Incr=           1 LDynOK=F GPUOK=F.
 PrsmSu:  NPrtUS=   8 ThrOK=T IAlg=2 LenDen=           0 ISkipM=0 DoSpLW=F IThBeg=    0 IThEnd=    7.
 PRISM was handed   536866374 working-precision words and    36 shell-pairs
 PRISM was handed   536866374 working-precision words and    36 shell-pairs
 Prism:   IPart=     0 DynPar=F LinDyn=F Incr=           1.
 PRISM was handed   536866374 working-precision words and    36 shell-pairs
 PRISM was handed   536866374 working-precision words and    36 shell-pairs
 PRISM was handed   536866374 working-precision words and    36 shell-pairs
 PRISM was handed   536866374 working-precision words and    36 shell-pairs
 PRISM was handed   536866374 working-precision words and    36 shell-pairs
 PRISM was handed   536866374 working-precision words and    36 shell-pairs
 IPart=  5 NShTot=           0 NBatch=           0 AvBLen=         0.0
 IPart=  4 NShTot=           0 NBatch=           0 AvBLen=         0.0
 IPart=  3 NShTot=           6 NBatch=           2 AvBLen=         3.0
 PrsmSu-ThDecC:  IPartSL=    5    0 NPrtUSL=    8    1 IThBeg=    0 IThEnd=    7 CPU=   -1 GPU=   -1 NThAct=    8.
 IPart=  6 NShTot=           0 NBatch=           0 AvBLen=         0.0
 PrsmSu-ThDecC:  IPartSL=    6    0 NPrtUSL=    8    1 IThBeg=    0 IThEnd=    7 CPU=   -1 GPU=   -1 NThAct=    7.
 PrsmSu-ThDecC:  IPartSL=    3    0 NPrtUSL=    8    1 IThBeg=    0 IThEnd=    7 CPU=   -1 GPU=   -1 NThAct=    6.
 PrsmSu-ThDecC:  IPartSL=    4    0 NPrtUSL=    8    1 IThBeg=    0 IThEnd=    7 CPU=   -1 GPU=   -1 NThAct=    5.
 IPart=  7 NShTot=           0 NBatch=           0 AvBLen=         0.0
 PrsmSu-ThDecC:  IPartSL=    7    0 NPrtUSL=    8    1 IThBeg=    0 IThEnd=    7 CPU=   -1 GPU=   -1 NThAct=    4.
 IPart=  1 NShTot=          30 NBatch=          10 AvBLen=         3.0
 PrsmSu-ThDecC:  IPartSL=    1    0 NPrtUSL=    8    1 IThBeg=    0 IThEnd=    7 CPU=   -1 GPU=   -1 NThAct=    3.
 IPart=  2 NShTot=           9 NBatch=           3 AvBLen=         3.0
 PrsmSu-ThDecC:  IPartSL=    2    0 NPrtUSL=    8    1 IThBeg=    0 IThEnd=    7 CPU=   -1 GPU=   -1 NThAct=    2.
 IPart=  0 NShTot=          63 NBatch=          21 AvBLen=         3.0
 PrsmSu-ThDecC:  IPartSL=    0    0 NPrtUSL=    8    1 IThBeg=    0 IThEnd=    7 CPU=   -1 GPU=   -1 NThAct=    1.
 PrSmSu:  NxtVal=              9.
 FFX after D2V 
                1             2             3             4             5 
      1  0.000000D+00
      2  0.000000D+00  0.000000D+00
      3  0.000000D+00  0.000000D+00  0.000000D+00
      4  0.000000D+00  0.000000D+00  0.000000D+00  0.220639D+01
      5  0.000000D+00  0.000000D+00  0.000000D+00  0.000000D+00  0.887840D+00
      6  0.000000D+00  0.000000D+00  0.000000D+00  0.000000D+00  0.106871D+01
      7  0.000000D+00  0.000000D+00  0.000000D+00 -0.224388D+01  0.000000D+00
      8  0.000000D+00  0.000000D+00  0.000000D+00  0.000000D+00 -0.838751D+00
      9  0.000000D+00  0.000000D+00  0.000000D+00  0.000000D+00 -0.104542D+01
     10  0.000000D+00  0.000000D+00  0.000000D+00  0.374888D-01  0.000000D+00
     11  0.000000D+00  0.000000D+00  0.000000D+00  0.000000D+00 -0.490896D-01
     12  0.000000D+00  0.000000D+00  0.000000D+00  0.000000D+00 -0.232897D-01
                6             7             8             9            10 
      6  0.149788D+01
      7  0.000000D+00  0.442393D+01
      8 -0.109145D+01  0.000000D+00  0.158540D+01
      9 -0.155649D+01  0.000000D+00 -0.143521D-01  0.303692D+01
     10  0.000000D+00 -0.218005D+01  0.000000D+00  0.000000D+00  0.214256D+01
     11  0.227410D-01  0.000000D+00 -0.746647D+00  0.105977D+01  0.000000D+00
     12  0.586097D-01  0.000000D+00  0.110580D+01 -0.148044D+01  0.000000D+00
               11            12 
     11  0.795737D+00
     12 -0.108251D+01  0.142183D+01
 Second derivatives from L701 IAtSt=0:
                1             2             3             4             5 
      1  0.000000D+00
      2  0.000000D+00  0.000000D+00
      3  0.000000D+00  0.000000D+00  0.000000D+00
      4  0.000000D+00  0.000000D+00  0.000000D+00  0.220639D+01
      5  0.000000D+00  0.000000D+00  0.000000D+00  0.000000D+00  0.887840D+00
      6  0.000000D+00  0.000000D+00  0.000000D+00  0.000000D+00  0.106871D+01
      7  0.000000D+00  0.000000D+00  0.000000D+00 -0.224388D+01  0.000000D+00
      8  0.000000D+00  0.000000D+00  0.000000D+00  0.000000D+00 -0.838751D+00
      9  0.000000D+00  0.000000D+00  0.000000D+00  0.000000D+00 -0.104542D+01
     10  0.000000D+00  0.000000D+00  0.000000D+00  0.374888D-01  0.000000D+00
     11  0.000000D+00  0.000000D+00  0.000000D+00  0.000000D+00 -0.490896D-01
     12  0.000000D+00  0.000000D+00  0.000000D+00  0.000000D+00 -0.232897D-01
                6             7             8             9            10 
      6  0.149788D+01
      7  0.000000D+00  0.442393D+01
      8 -0.109145D+01  0.000000D+00  0.158540D+01
      9 -0.155649D+01  0.000000D+00 -0.143521D-01  0.303692D+01
     10  0.000000D+00 -0.218005D+01  0.000000D+00  0.000000D+00  0.214256D+01
     11  0.227410D-01  0.000000D+00 -0.746647D+00  0.105977D+01  0.000000D+00
     12  0.586097D-01  0.000000D+00  0.110580D+01 -0.148044D+01  0.000000D+00
               11            12 
     11  0.795737D+00
     12 -0.108251D+01  0.142183D+01
 Polarizability into L701:
                1             2             3 
      1  0.276025D+01
      2  0.000000D+00  0.708410D+01
      3  0.000000D+00  0.989909D-01  0.510738D+01
 Polarizability after L701:
                1             2             3 
      1  0.276025D+01
      2  0.000000D+00  0.708410D+01
      3  0.000000D+00  0.989909D-01  0.510738D+01
 Dipole Derivatives into L701:
                 1             2             3             4             5 
      1   0.392836D+00  0.000000D+00  0.000000D+00 -0.782302D+00  0.000000D+00
      2   0.000000D+00  0.254034D+00  0.103666D+00  0.000000D+00 -0.506351D+00
      3   0.000000D+00  0.637477D-01  0.222303D+00  0.000000D+00  0.929633D-03
                 6             7             8             9 
      1   0.000000D+00  0.389466D+00  0.000000D+00  0.000000D+00
      2   0.953623D-02  0.000000D+00  0.252317D+00 -0.113202D+00
      3  -0.442476D+00  0.000000D+00 -0.646773D-01  0.220174D+00
 Dipole Derivatives after L701:
                 1             2             3             4             5 
      1   0.392836D+00  0.000000D+00  0.000000D+00 -0.782302D+00  0.000000D+00
      2   0.000000D+00  0.254034D+00  0.103666D+00  0.000000D+00 -0.506351D+00
      3   0.000000D+00  0.637477D-01  0.222303D+00  0.000000D+00  0.929633D-03
                 6             7             8             9 
      1   0.000000D+00  0.389466D+00  0.000000D+00  0.000000D+00
      2   0.953623D-02  0.000000D+00  0.252317D+00 -0.113202D+00
      3  -0.442476D+00  0.000000D+00 -0.646773D-01  0.220174D+00
 Hessian into L701:
                1             2             3             4             5 
      1  0.276580D-01
      2  0.000000D+00  0.141495D+00
      3  0.000000D+00 -0.789847D-01  0.831889D-01
      4 -0.142902D-01  0.000000D+00  0.000000D+00  0.251196D-01
      5  0.000000D+00 -0.123725D+00  0.152242D+00  0.000000D+00  0.242572D+00
      6  0.000000D+00  0.682071D-02 -0.738853D-01  0.000000D+00 -0.370340D-02
      7 -0.133678D-01  0.000000D+00  0.000000D+00 -0.108294D-01  0.000000D+00
      8  0.000000D+00 -0.177707D-01 -0.732574D-01  0.000000D+00 -0.118847D+00
      9  0.000000D+00  0.721640D-01 -0.930365D-02  0.000000D+00 -0.148539D+00
                6             7             8             9 
      6  0.143484D+00
      7  0.000000D+00  0.241972D-01
      8 -0.311731D-02  0.000000D+00  0.136618D+00
      9 -0.695991D-01  0.000000D+00  0.763747D-01  0.789028D-01
 Hessian after L701:
                1             2             3             4             5 
      1  0.223405D+01
      2  0.000000D+00  0.102934D+01
      3  0.000000D+00  0.989724D+00  0.158107D+01
      4 -0.225817D+01  0.000000D+00  0.000000D+00  0.444905D+01
      5  0.000000D+00 -0.962475D+00 -0.939208D+00  0.000000D+00  0.182797D+01
      6  0.000000D+00 -0.103860D+01 -0.163037D+01  0.000000D+00 -0.180555D-01
      7  0.241210D-01  0.000000D+00  0.000000D+00 -0.219088D+01  0.000000D+00
      8  0.000000D+00 -0.668603D-01 -0.505164D-01  0.000000D+00 -0.865494D+00
      9  0.000000D+00  0.488743D-01  0.493060D-01  0.000000D+00  0.957263D+00
                6             7             8             9 
      6  0.318041D+01
      7  0.000000D+00  0.216676D+01
      8  0.105665D+01  0.000000D+00  0.932355D+00
      9 -0.155004D+01  0.000000D+00 -0.100614D+01  0.150073D+01
 Leave Link  701 at Tue Mar 10 00:06:56 2026, MaxMem=  4294967296 cpu:               0.2 elap:               0.0
 (Enter /Users/vincenzobarone/gdv_j32p/gdv/l702.exe)
 L702 exits ... SP integral derivatives will be done elsewhere.
 Leave Link  702 at Tue Mar 10 00:06:56 2026, MaxMem=  4294967296 cpu:               0.0 elap:               0.0
 (Enter /Users/vincenzobarone/gdv_j32p/gdv/l703.exe)
 GetPMM: IRwPM=    824 LRwPM=      0 LPMAll=      2
 Integral derivatives from FoFJK, PRISM(SPDF).
 Compute integral second derivatives, UseDBF=F ICtDFT=           0.
 ICntrl=    100127.
 Calling FoFJK, ICntrl=    100127 FMM=F ISym2X=0 I1Cent= 0 IOpClX= 0 NMat=1 NMatS=1 NMatT=0.
 FoFJK:  IHMeth= 1 ICntrl=  100127 DoSepK=F KAlg= 0 I1Cent=           0 FoldK=F
 IRaf=         0 NMat=       1 IRICut=       1 DoRegI=T DoRafI=F ISym2E= 0 IDoP0=0 IntGTp=1.
 FoFCou: FMM=F IPFlag=           0 FMFlag=      100000 FMFlg1=         800
         NFxFlg=           0 DoJE=F BraDBF=F KetDBF=F FulRan=T
         wScrn=  0.000000 ICntrl=    100127 IOpCl=  0 I1Cent=           0 NGrid=           0
         NMat0=    1 NMatS0=      1 NMatT0=    0 NMatD0=    1 NMtDS0=    0 NMtDT0=    0
 Symmetry not used in FoFCou.
 FoFCou:  KetSym=F NOpSet=  1 NOpAb=1 NOp=  1.
 FoFCou:  CnvScl= 1.00D+00 Thresh= 1.00D-12 IAcrcy=      10.
 ShPair: Thresh= 1.00D-12 NBox=     0 BxSize= 0.00D+00 RnKept= 2.88D+00
         NSMCal=                   36 NSMKep=                  36
 PrismS was handed  4294959801 working-precision words and    36 shell-pairs
 LenC2 before Schwartz=          37 after=          37 DMx= 1.04D+00.
 FoFCou: LinMIO=F DoNuc=F BraDBF=F KetDBF=F HaveP=T PDBF=F HaveZ=T HaveW=F
         NIJTC =       6 NIJTAt=       0 NIJTCD=       0 NIJTT =       6
         IJTBeg=       1 IJTEnd=       6 KLTBeg=       1 KLTEnd=       6
         IPTBeg=       1 IPTEnd=       6 IPTBCv=       1 IPTECv=       6
         IZTBeg=       1 IZTEnd=       6 IZTBCv=       1 IZTECv=       6
         IWTBeg=       7 IWTEnd=       6 IWTBCv=       7 IWTECv=       6
         INTBeg=       1 INTEnd=       0 IFTBCv=       1 IFTECv=       6
 NCel replicated for PrismC:     1
 CoulSu-InSpLW:  IPartL=    0 NPrtUS=    8 NPrtUL=    1 DoSpLW=F IThBeg=    0 IThEnd=    7 NThAct=    8.
 CoulSu:  IncTry=  1024 NBBP=            666 NTPThr=   100 NPartT=    8 Incr=           1 LDynOK=F GPUOK=F.
 CoulSu:  NPrtUS=   8 ThrOK=T IAlg=2 LenDen=           0 LWGrdD=           0 DoCopy=F ISkipM=0
          DoSpLW=F IThBeg=    0 IThEnd=    7.
 CoulSu:  IPart=    4 IPartR=    4 CPU=   -1 GPU=   -1.
 CoulSu:  IPart=    5 IPartR=    5 CPU=   -1 GPU=   -1.
 CoulSu:  IPart=    7 IPartR=    7 CPU=   -1 GPU=   -1.
 Enter PrismC:  IPart=  4 JobTyp=22 DoJE=F Cont=F.
 PrismC:  IPart=     4 DynPar=F LinDyn=F Incr=           1 UseFst=F UseS4=T ISplat=2.
 Enter PrismC:  IPart=  5 JobTyp=22 DoJE=F Cont=F.
 CoulSu:  IPart=    6 IPartR=    6 CPU=   -1 GPU=   -1.
 CoulSu:  IPart=    0 IPartR=    0 CPU=   -1 GPU=   -1.
 CoulSu:  IPart=    1 IPartR=    1 CPU=   -1 GPU=   -1.
 Enter PrismC:  IPart=  7 JobTyp=22 DoJE=F Cont=F.
 PrismC:  IPart=     5 DynPar=F LinDyn=F Incr=           1 UseFst=F UseS4=T ISplat=2.
 PrismC was handed   536866518 working-precision words and    36 shell-pairs
 PrismC:  IPart=     7 DynPar=F LinDyn=F Incr=           1 UseFst=F UseS4=T ISplat=2.
 Enter PrismC:  IPart=  6 JobTyp=22 DoJE=F Cont=F.
 PrismC:  IPart=     6 DynPar=F LinDyn=F Incr=           1 UseFst=F UseS4=T ISplat=2.
 CoulSu:  IPart=    3 IPartR=    3 CPU=   -1 GPU=   -1.
 PrismC was handed   536866518 working-precision words and    36 shell-pairs
 Enter PrismC:  IPart=  0 JobTyp=22 DoJE=F Cont=F.
 PrismC was handed   536866518 working-precision words and    36 shell-pairs
 CoulSu:  IPart=    2 IPartR=    2 CPU=   -1 GPU=   -1.
 PrismC was handed   536866518 working-precision words and    36 shell-pairs
 PrismC:  IPart=     0 DynPar=F LinDyn=F Incr=           1 UseFst=F UseS4=T ISplat=2.
 PrismC was handed   536866518 working-precision words and    36 shell-pairs
 Enter PrismC:  IPart=  1 JobTyp=22 DoJE=F Cont=F.
 PrismC:  IPart=     1 DynPar=F LinDyn=F Incr=           1 UseFst=F UseS4=T ISplat=2.
 PrismC was handed   536866518 working-precision words and    36 shell-pairs
 Enter PrismC:  IPart=  3 JobTyp=22 DoJE=F Cont=F.
 Enter PrismC:  IPart=  2 JobTyp=22 DoJE=F Cont=F.
 PrismC:  IPart=     3 DynPar=F LinDyn=F Incr=           1 UseFst=F UseS4=T ISplat=2.
 PrismC was handed   536866518 working-precision words and    36 shell-pairs
 PrismC:  IPart=     2 DynPar=F LinDyn=F Incr=           1 UseFst=F UseS4=T ISplat=2.
 PrismC was handed   536866518 working-precision words and    36 shell-pairs
 IPart=  4 NShTot=          30 NShNF=          30 NShFF=           0 MinMC=       7
           NShCPU=          30 NBCPU=          27 AvBCPU=         1.1
           NShGPU=           0 NBGPU=           0 AvBGPU=         0.0
 CoulSu-ThDecC:  IPartSL=    4    0 NPrtUSL=    8    1 IThBeg=    0 IThEnd=    7 CPU=   -1 GPU=   -1 NThAct=    8.
 IPart=  7 NShTot=          21 NShNF=          21 NShFF=           0 MinMC=       7
           NShCPU=          21 NBCPU=          20 AvBCPU=         1.1
           NShGPU=           0 NBGPU=           0 AvBGPU=         0.0
 CoulSu-ThDecC:  IPartSL=    7    0 NPrtUSL=    8    1 IThBeg=    0 IThEnd=    7 CPU=   -1 GPU=   -1 NThAct=    7.
 IPart=  5 NShTot=          29 NShNF=          29 NShFF=           0 MinMC=       7
           NShCPU=          29 NBCPU=          26 AvBCPU=         1.1
           NShGPU=           0 NBGPU=           0 AvBGPU=         0.0
 CoulSu-ThDecC:  IPartSL=    5    0 NPrtUSL=    8    1 IThBeg=    0 IThEnd=    7 CPU=   -1 GPU=   -1 NThAct=    6.
 IPart=  3 NShTot=          78 NShNF=          78 NShFF=           0 MinMC=       7
           NShCPU=          78 NBCPU=          75 AvBCPU=         1.0
           NShGPU=           0 NBGPU=           0 AvBGPU=         0.0
 CoulSu-ThDecC:  IPartSL=    3    0 NPrtUSL=    8    1 IThBeg=    0 IThEnd=    7 CPU=   -1 GPU=   -1 NThAct=    5.
 IPart=  1 NShTot=         160 NShNF=         160 NShFF=           0 MinMC=       7
           NShCPU=         160 NBCPU=         157 AvBCPU=         1.0
           NShGPU=           0 NBGPU=           0 AvBGPU=         0.0
 CoulSu-ThDecC:  IPartSL=    1    0 NPrtUSL=    8    1 IThBeg=    0 IThEnd=    7 CPU=   -1 GPU=   -1 NThAct=    4.
 IPart=  6 NShTot=          21 NShNF=          21 NShFF=           0 MinMC=       7
           NShCPU=          21 NBCPU=          20 AvBCPU=         1.1
           NShGPU=           0 NBGPU=           0 AvBGPU=         0.0
 CoulSu-ThDecC:  IPartSL=    6    0 NPrtUSL=    8    1 IThBeg=    0 IThEnd=    7 CPU=   -1 GPU=   -1 NThAct=    3.
 IPart=  2 NShTot=          90 NShNF=          90 NShFF=           0 MinMC=       7
           NShCPU=          90 NBCPU=          87 AvBCPU=         1.0
           NShGPU=           0 NBGPU=           0 AvBGPU=         0.0
 CoulSu-ThDecC:  IPartSL=    2    0 NPrtUSL=    8    1 IThBeg=    0 IThEnd=    7 CPU=   -1 GPU=   -1 NThAct=    2.
 IPart=  0 NShTot=         237 NShNF=         237 NShFF=           0 MinMC=       7
           NShCPU=         237 NBCPU=         231 AvBCPU=         1.0
           NShGPU=           0 NBGPU=           0 AvBGPU=         0.0
 CoulSu-ThDecC:  IPartSL=    0    0 NPrtUSL=    8    1 IThBeg=    0 IThEnd=    7 CPU=   -1 GPU=   -1 NThAct=    1.
 CoulSu:  NxtVal=              9 LenVP=      536866519 MinMC=       7.
 Hessian from J: 
                1             2             3             4             5 
      1  0.000000D+00
      2  0.000000D+00  0.000000D+00
      3  0.000000D+00  0.000000D+00  0.000000D+00
      4  0.000000D+00  0.000000D+00  0.000000D+00 -0.222587D+01
      5  0.000000D+00  0.000000D+00  0.000000D+00  0.000000D+00 -0.644219D+00
      6  0.000000D+00  0.000000D+00  0.000000D+00  0.000000D+00 -0.122362D+01
      7  0.000000D+00  0.000000D+00  0.000000D+00  0.224879D+01  0.000000D+00
      8  0.000000D+00  0.000000D+00  0.000000D+00  0.000000D+00  0.611349D+00
      9  0.000000D+00  0.000000D+00  0.000000D+00  0.000000D+00  0.123841D+01
     10  0.000000D+00  0.000000D+00  0.000000D+00 -0.229146D-01  0.000000D+00
     11  0.000000D+00  0.000000D+00  0.000000D+00  0.000000D+00  0.328701D-01
     12  0.000000D+00  0.000000D+00  0.000000D+00  0.000000D+00 -0.147885D-01
                6             7             8             9            10 
      6 -0.134315D+01
      7  0.000000D+00 -0.442241D+01
      8  0.120788D+01  0.000000D+00 -0.115622D+01
      9  0.137360D+01  0.000000D+00 -0.120841D-01 -0.268436D+01
     10  0.000000D+00  0.217363D+01  0.000000D+00  0.000000D+00 -0.215071D+01
     11  0.157417D-01  0.000000D+00  0.544875D+00 -0.122633D+01  0.000000D+00
     12 -0.304478D-01  0.000000D+00 -0.119580D+01  0.131075D+01  0.000000D+00
               11            12 
     11 -0.577746D+00
     12  0.121059D+01 -0.128031D+01
 Force constants from FoF: 
                1             2             3             4             5 
      1  0.000000D+00
      2  0.000000D+00  0.000000D+00
      3  0.000000D+00  0.000000D+00  0.000000D+00
      4  0.000000D+00  0.000000D+00  0.000000D+00 -0.222587D+01
      5  0.000000D+00  0.000000D+00  0.000000D+00  0.000000D+00 -0.644219D+00
      6  0.000000D+00  0.000000D+00  0.000000D+00  0.000000D+00 -0.122362D+01
      7  0.000000D+00  0.000000D+00  0.000000D+00  0.224879D+01  0.000000D+00
      8  0.000000D+00  0.000000D+00  0.000000D+00  0.000000D+00  0.611349D+00
      9  0.000000D+00  0.000000D+00  0.000000D+00  0.000000D+00  0.123841D+01
     10  0.000000D+00  0.000000D+00  0.000000D+00 -0.229146D-01  0.000000D+00
     11  0.000000D+00  0.000000D+00  0.000000D+00  0.000000D+00  0.328701D-01
     12  0.000000D+00  0.000000D+00  0.000000D+00  0.000000D+00 -0.147885D-01
                6             7             8             9            10 
      6 -0.134315D+01
      7  0.000000D+00 -0.442241D+01
      8  0.120788D+01  0.000000D+00 -0.115622D+01
      9  0.137360D+01  0.000000D+00 -0.120841D-01 -0.268436D+01
     10  0.000000D+00  0.217363D+01  0.000000D+00  0.000000D+00 -0.215071D+01
     11  0.157417D-01  0.000000D+00  0.544875D+00 -0.122633D+01  0.000000D+00
     12 -0.304478D-01  0.000000D+00 -0.119580D+01  0.131075D+01  0.000000D+00
               11            12 
     11 -0.577746D+00
     12  0.121059D+01 -0.128031D+01
 Second derivatives from L703 IAtSt=0:
                1             2             3             4             5 
      1  0.000000D+00
      2  0.000000D+00  0.000000D+00
      3  0.000000D+00  0.000000D+00  0.000000D+00
      4  0.000000D+00  0.000000D+00  0.000000D+00 -0.222587D+01
      5  0.000000D+00  0.000000D+00  0.000000D+00  0.000000D+00 -0.644219D+00
      6  0.000000D+00  0.000000D+00  0.000000D+00  0.000000D+00 -0.122362D+01
      7  0.000000D+00  0.000000D+00  0.000000D+00  0.224879D+01  0.000000D+00
      8  0.000000D+00  0.000000D+00  0.000000D+00  0.000000D+00  0.611349D+00
      9  0.000000D+00  0.000000D+00  0.000000D+00  0.000000D+00  0.123841D+01
     10  0.000000D+00  0.000000D+00  0.000000D+00 -0.229146D-01  0.000000D+00
     11  0.000000D+00  0.000000D+00  0.000000D+00  0.000000D+00  0.328701D-01
     12  0.000000D+00  0.000000D+00  0.000000D+00  0.000000D+00 -0.147885D-01
                6             7             8             9            10 
      6 -0.134315D+01
      7  0.000000D+00 -0.442241D+01
      8  0.120788D+01  0.000000D+00 -0.115622D+01
      9  0.137360D+01  0.000000D+00 -0.120841D-01 -0.268436D+01
     10  0.000000D+00  0.217363D+01  0.000000D+00  0.000000D+00 -0.215071D+01
     11  0.157417D-01  0.000000D+00  0.544875D+00 -0.122633D+01  0.000000D+00
     12 -0.304478D-01  0.000000D+00 -0.119580D+01  0.131075D+01  0.000000D+00
               11            12 
     11 -0.577746D+00
     12  0.121059D+01 -0.128031D+01
 Polarizability into L703:
                1             2             3 
      1  0.276025D+01
      2  0.000000D+00  0.708410D+01
      3  0.000000D+00  0.989909D-01  0.510738D+01
 Polarizability after L703:
                1             2             3 
      1  0.276025D+01
      2  0.000000D+00  0.708410D+01
      3  0.000000D+00  0.989909D-01  0.510738D+01
 Dipole Derivatives into L703:
                 1             2             3             4             5 
      1   0.392836D+00  0.000000D+00  0.000000D+00 -0.782302D+00  0.000000D+00
      2   0.000000D+00  0.254034D+00  0.103666D+00  0.000000D+00 -0.506351D+00
      3   0.000000D+00  0.637477D-01  0.222303D+00  0.000000D+00  0.929633D-03
                 6             7             8             9 
      1   0.000000D+00  0.389466D+00  0.000000D+00  0.000000D+00
      2   0.953623D-02  0.000000D+00  0.252317D+00 -0.113202D+00
      3  -0.442476D+00  0.000000D+00 -0.646773D-01  0.220174D+00
 Dipole Derivatives after L703:
                 1             2             3             4             5 
      1   0.392836D+00  0.000000D+00  0.000000D+00 -0.782302D+00  0.000000D+00
      2   0.000000D+00  0.254034D+00  0.103666D+00  0.000000D+00 -0.506351D+00
      3   0.000000D+00  0.637477D-01  0.222303D+00  0.000000D+00  0.929633D-03
                 6             7             8             9 
      1   0.000000D+00  0.389466D+00  0.000000D+00  0.000000D+00
      2   0.953623D-02  0.000000D+00  0.252317D+00 -0.113202D+00
      3  -0.442476D+00  0.000000D+00 -0.646773D-01  0.220174D+00
 Hessian into L703:
                1             2             3             4             5 
      1  0.223405D+01
      2  0.000000D+00  0.102934D+01
      3  0.000000D+00  0.989724D+00  0.158107D+01
      4 -0.225817D+01  0.000000D+00  0.000000D+00  0.444905D+01
      5  0.000000D+00 -0.962475D+00 -0.939208D+00  0.000000D+00  0.182797D+01
      6  0.000000D+00 -0.103860D+01 -0.163037D+01  0.000000D+00 -0.180555D-01
      7  0.241210D-01  0.000000D+00  0.000000D+00 -0.219088D+01  0.000000D+00
      8  0.000000D+00 -0.668603D-01 -0.505164D-01  0.000000D+00 -0.865494D+00
      9  0.000000D+00  0.488743D-01  0.493060D-01  0.000000D+00  0.957263D+00
                6             7             8             9 
      6  0.318041D+01
      7  0.000000D+00  0.216676D+01
      8  0.105665D+01  0.000000D+00  0.932355D+00
      9 -0.155004D+01  0.000000D+00 -0.100614D+01  0.150073D+01
 Hessian after L703:
                1             2             3             4             5 
      1  0.817568D-02
      2  0.000000D+00  0.385116D+00
      3  0.000000D+00 -0.233899D+00  0.237913D+00
      4 -0.938205D-02  0.000000D+00  0.000000D+00  0.266378D-01
      5  0.000000D+00 -0.351126D+00  0.268674D+00  0.000000D+00  0.671745D+00
      6  0.000000D+00  0.199814D+00 -0.256771D+00  0.000000D+00 -0.301396D-01
      7  0.120637D-02  0.000000D+00  0.000000D+00 -0.172558D-01  0.000000D+00
      8  0.000000D+00 -0.339903D-01 -0.347747D-01  0.000000D+00 -0.320619D+00
      9  0.000000D+00  0.340858D-01  0.188582D-01  0.000000D+00 -0.238534D+00
                6             7             8             9 
      6  0.496053D+00
      7  0.000000D+00  0.160494D-01
      8 -0.169674D+00  0.000000D+00  0.354609D+00
      9 -0.239282D+00  0.000000D+00  0.204449D+00  0.220424D+00
 Leave Link  703 at Tue Mar 10 00:06:57 2026, MaxMem=  4294967296 cpu:               0.5 elap:               0.1
 (Enter /Users/vincenzobarone/gdv_j32p/gdv/l716.exe)
 GetPMM: IRwPM=    824 LRwPM=      0 LPMAll=      2
 FrcOut:
 IF    =        40 IFX   =        49 IFXYZ =        58
 IFFX  =        67 IFFFX =       112 IFLen =         9
 IFFLen=        45 IFFFLn=         0 IEDerv=       112
 LEDerv=       485 IFroze=       760 ICStrt=      1562
 Dipole        =-8.89084171D-16-4.02743571D-03-8.85101107D-01
 DipoleDeriv   = 3.92836257D-01 8.14461520D-16-1.77322996D-16
                -1.42808947D-16 2.54034091D-01 6.37476704D-02
                -3.90071309D-17 1.03665604D-01 2.22302558D-01
                -7.82301921D-01-2.80510338D-16 5.06157928D-16
                 5.63898719D-16-5.06351464D-01 9.29633327D-04
                 4.27888341D-16 9.53622956D-03-4.42476353D-01
                 3.89465664D-01-5.33951181D-16-3.28834932D-16
                -4.21089772D-16 2.52317373D-01-6.46773038D-02
                -3.88881210D-16-1.13201833D-01 2.20173795D-01
 Polarizability= 2.76024526D+00-3.58867909D-15 7.08410127D+00
                -2.42311889D-15 9.89909345D-02 5.10738092D+00
 HyperPolar    =-1.55763494D-16 7.33933849D-02 1.30282019D-14
                -6.13328240D-01-1.42324028D-01 2.14597043D-14
                -2.08749566D+01 6.55327285D-15-3.72329441D-01
                -1.02618070D+01
 Quadrupole    =-1.14758419D+00 1.15807871D+00-1.04945208D-02
                 4.41853397D-16 3.97873618D-16 1.54407389D-02
 After rot to inp orien Dipole Moment
                 1 
      1   0.000000D+00
      2  -0.402744D-02
      3  -0.885101D+00
 After rot to inp orien Dipole Derivatives
                 1             2             3             4             5 
      1   0.392836D+00  0.000000D+00  0.000000D+00 -0.782302D+00  0.000000D+00
      2   0.000000D+00  0.254034D+00  0.103666D+00  0.000000D+00 -0.506351D+00
      3   0.000000D+00  0.637477D-01  0.222303D+00  0.000000D+00  0.929633D-03
                 6             7             8             9 
      1   0.000000D+00  0.389466D+00  0.000000D+00  0.000000D+00
      2   0.953623D-02  0.000000D+00  0.252317D+00 -0.113202D+00
      3  -0.442476D+00  0.000000D+00 -0.646773D-01  0.220174D+00
 After rot to inp orien Polarizability
                 1 
      1   0.276025D+01
      2   0.000000D+00
      3   0.708410D+01
      4   0.000000D+00
      5   0.989909D-01
      6   0.510738D+01
 After rot to inp orien HyperPolarizability
                 1 
      1   0.000000D+00
      2   0.733934D-01
      3   0.000000D+00
      4  -0.613328D+00
      5  -0.142324D+00
      6   0.000000D+00
      7  -0.208750D+02
      8   0.000000D+00
      9  -0.372329D+00
     10  -0.102618D+02
 After rot to inp orien Quadrupole Moment
                 1 
      1  -0.114758D+01
      2   0.115808D+01
      3  -0.104945D-01
      4   0.000000D+00
      5   0.000000D+00
      6   0.154407D-01
 After rot to inp orien QEq coupling tensors
                 1             2             3 
      1   0.274948D+00  0.195101D+01  0.249615D+00
      2   0.000000D+00  0.000000D+00  0.000000D+00
      3  -0.222859D+00 -0.166987D+01 -0.202757D+00
      4   0.000000D+00  0.000000D+00  0.000000D+00
      5   0.334388D+00 -0.261963D-01 -0.300467D+00
      6  -0.520892D-01 -0.281138D+00 -0.468574D-01
 After rot to inp orien force vector number 1
 I=    1 X=   0.000000000000D+00 Y=   9.923249946127D-03 Z=  -1.056000086899D-02
 I=    2 X=   0.000000000000D+00 Y=   1.163359511181D-02 Z=   3.020147957424D-02
 I=    3 X=   0.000000000000D+00 Y=  -2.155684505793D-02 Z=  -1.964147870525D-02
 After rot to inp orien force vector number 2
 I=    1 X=   0.000000000000D+00 Y=   9.923249946127D-03 Z=  -1.056000086899D-02
 I=    2 X=   0.000000000000D+00 Y=   1.163359511181D-02 Z=   3.020147957424D-02
 I=    3 X=   0.000000000000D+00 Y=  -2.155684505793D-02 Z=  -1.964147870525D-02
 After rot to inp orien cartesian force constants 
                1             2             3             4             5 
      1  0.817568D-02
      2  0.000000D+00  0.385116D+00
      3  0.000000D+00 -0.233899D+00  0.237913D+00
      4 -0.938205D-02  0.000000D+00  0.000000D+00  0.266378D-01
      5  0.000000D+00 -0.351126D+00  0.268674D+00  0.000000D+00  0.671745D+00
      6  0.000000D+00  0.199814D+00 -0.256771D+00  0.000000D+00 -0.301396D-01
      7  0.120637D-02  0.000000D+00  0.000000D+00 -0.172558D-01  0.000000D+00
      8  0.000000D+00 -0.339903D-01 -0.347747D-01  0.000000D+00 -0.320619D+00
      9  0.000000D+00  0.340858D-01  0.188582D-01  0.000000D+00 -0.238534D+00
                6             7             8             9 
      6  0.496053D+00
      7  0.000000D+00  0.160494D-01
      8 -0.169674D+00  0.000000D+00  0.354609D+00
      9 -0.239282D+00  0.000000D+00  0.204449D+00  0.220424D+00
 -------------------------------------------------------------------
 Center     Atomic                   Forces (Hartrees/Bohr)
 Number     Number              X              Y              Z
 -------------------------------------------------------------------
      1        1           0.000000000   -0.009923250    0.010560001
      2        8           0.000000000   -0.011633595   -0.030201480
      3        1           0.000000000    0.021556845    0.019641479
 -------------------------------------------------------------------
 Cartesian Forces:  Max     0.030201480 RMS     0.015304101
 Force constants in Cartesian coordinates: 
                1             2             3             4             5 
      1  0.817568D-02
      2  0.000000D+00  0.385116D+00
      3  0.000000D+00 -0.233899D+00  0.237913D+00
      4 -0.938205D-02  0.000000D+00  0.000000D+00  0.266378D-01
      5  0.000000D+00 -0.351126D+00  0.268674D+00  0.000000D+00  0.671745D+00
      6  0.000000D+00  0.199814D+00 -0.256771D+00  0.000000D+00 -0.301396D-01
      7  0.120637D-02  0.000000D+00  0.000000D+00 -0.172558D-01  0.000000D+00
      8  0.000000D+00 -0.339903D-01 -0.347747D-01  0.000000D+00 -0.320619D+00
      9  0.000000D+00  0.340858D-01  0.188582D-01  0.000000D+00 -0.238534D+00
                6             7             8             9 
      6  0.496053D+00
      7  0.000000D+00  0.160494D-01
      8 -0.169674D+00  0.000000D+00  0.354609D+00
      9 -0.239282D+00  0.000000D+00  0.204449D+00  0.220424D+00
 Final forces over variables, Energy=-7.60096728D+01:
 -2.18939551D-02-2.18939551D-02 3.93350217D-03
 Leave Link  716 at Tue Mar 10 00:06:57 2026, MaxMem=  4294967296 cpu:               0.0 elap:               0.0
 (Enter /Users/vincenzobarone/gdv_j32p/gdv/l106.exe)
 NDeriv=      3 NFrqRd=  0 NDerD0=      0 MskFDP=       0 MskDFD=       0 MskDF0=       0
 Re-enter D2Numr:  normal mode      3 step-up   number 1
 Leave Link  106 at Tue Mar 10 00:06:57 2026, MaxMem=  4294967296 cpu:               0.0 elap:               0.0
 (Enter /Users/vincenzobarone/gdv_j32p/gdv/l301.exe)
 Basis read from rwf:  (6D, 7F)
 No pseudopotential information found on rwf file.
    19 basis functions,    36 primitive gaussians,    19 cartesian basis functions
     5 alpha electrons        5 beta electrons
       nuclear repulsion energy         9.0880314087 Hartrees.
 IExCor=         0 DFT=F Ex=HF Corr=None N6=None ScaHFX=  1.000000
 ScaDFX=  1.000000  1.000000  1.000000  1.000000  1.000000  0.000000
 ScaDFX=  0.000000  0.000000  0.000000  0.000000  0.000000  0.000000
 Grid=UltraFine IRanWt=     -1 IRanGd=            0 ICorTp=0 IEDCtl=  2004
 NAtoms=    3 NActive=    3 NUniq=    3 SFac= 1.00D+00 NAtFMM=   60 NAOKFM=F Big=F
 Integral buffers will be    131072 words long.
 Raffenetti 1 integral format.
 Two-electron integral symmetry is turned off.
 No density basis found on file    724.
 Leave Link  301 at Tue Mar 10 00:06:57 2026, MaxMem=  4294967296 cpu:               0.0 elap:               0.0
 (Enter /Users/vincenzobarone/gdv_j32p/gdv/l302.exe)
 NPDir=0 NMtPBC=     1 NCelOv=     1 NCel=       1 NClECP=     1 NCelD=      1
         NCelK=      1 NCelE2=     1 NClLst=     1 CellRange=     0.0.
 One-electron integrals computed using PRISM.
 NBasis=    19 RedAO= T EigKep=  2.27D-02  NBF=    19
 NBsUse=    19 1.00D-06 EigRej= -1.00D+00 NBFU=    19
 Leave Link  302 at Tue Mar 10 00:06:57 2026, MaxMem=  4294967296 cpu:               0.1 elap:               0.0
 (Enter /Users/vincenzobarone/gdv_j32p/gdv/l303.exe)
 DipDrv:  MaxL=1.
 Leave Link  303 at Tue Mar 10 00:06:57 2026, MaxMem=  4294967296 cpu:               0.0 elap:               0.0
 (Enter /Users/vincenzobarone/gdv_j32p/gdv/l401.exe)
 Initial guess from the checkpoint file:  "h2o.chk"
 B after Tr=     0.000000    0.001036    0.000000
         Rot=    1.000000    0.000183    0.000000    0.000000 Ang=   0.02 deg.
 AO Guess basis will be translated and rotated to current coordinates.
 JPrj=2 DoOrth=T DoCkMO=T.
 Leave Link  401 at Tue Mar 10 00:06:57 2026, MaxMem=  4294967296 cpu:               0.0 elap:               0.0
 (Enter /Users/vincenzobarone/gdv_j32p/gdv/l502.exe)
 Keep R1 ints in memory in canonical form, NReq=1665784.
 FoFCou: FMM=F IPFlag=           0 FMFlag=           0 FMFlg1=           0
         NFxFlg=           0 DoJE=F BraDBF=F KetDBF=F FulRan=T
         wScrn=  0.000000 ICntrl=       600 IOpCl=  0 I1Cent=           0 NGrid=           0
         NMat0=    1 NMatS0=    190 NMatT0=    0 NMatD0=    1 NMtDS0=    0 NMtDT0=    0
 Symmetry not used in FoFCou.
 Two-electron integral symmetry not used.
 Closed shell SCF:
 Using DIIS extrapolation, IDIIS=  1040.
 NGot=  4294967296 LenX=  4294947479 LenY=  4294946597
 Requested convergence on RMS density matrix=1.00D-08 within  48 cycles.
 Requested convergence on MAX density matrix=1.00D-06.
 Requested convergence on             energy=1.00D-06.
 No special actions if energy rises.

 Cycle   1  Pass 1  IDiag  1:
 E= -76.0096385601357    
 DIIS: error= 1.13D-03 at cycle   1 NSaved=   1.
 NSaved= 1 IEnMin= 1 EnMin= -76.0096385601357     IErMin= 1 ErrMin= 1.13D-03
 ErrMax= 1.13D-03  0.00D+00 EMaxC= 1.00D-01 BMatC= 1.30D-05 BMatP= 1.30D-05
 Rises=F IDIUse=3 WtCom= 9.96D-01 WtEn= 3.78D-03
 Coeff-Com:  0.100D+01
 Coeff-En:   0.100D+01
 Coeff:      0.100D+01
 Gap=     1.710 Goal=   None    Shift=    0.000
 GapD=    1.710 DampG=2.000 DampE=1.000 DampFc=2.0000 IDamp=-1.
 RMSDP=2.31D-04 MaxDP=1.07D-03              OVMax= 1.99D-03

 Cycle   2  Pass 1  IDiag  1:
 E= -76.0096695032916     Delta-E=       -0.000030943156 Rises=F Damp=F AM=F Ri=F Fa=F
 DIIS: error= 2.76D-04 at cycle   2 NSaved=   2.
 NSaved= 2 IEnMin= 2 EnMin= -76.0096695032916     IErMin= 2 ErrMin= 2.76D-04
 ErrMax= 2.76D-04  0.00D+00 EMaxC= 1.00D-01 BMatC= 7.93D-07 BMatP= 1.30D-05
 Rises=F IDIUse=3 WtCom= 1.00D+00 WtEn= 4.59D-04
 Coeff-Com: -0.162D+00 0.116D+01
 Coeff-En:   0.000D+00 0.100D+01
 Coeff:     -0.162D+00 0.116D+01
 Gap=     0.706 Goal=   None    Shift=    0.000
 RMSDP=7.57D-05 MaxDP=4.68D-04 DE=-3.09D-05 OVMax= 9.04D-04

 Cycle   3  Pass 1  IDiag  1:
 E= -76.0096725410182     Delta-E=       -0.000003037727 Rises=F Damp=F AM=F Ri=F Fa=F
 DIIS: error= 7.72D-05 at cycle   3 NSaved=   3.
 NSaved= 3 IEnMin= 3 EnMin= -76.0096725410182     IErMin= 3 ErrMin= 7.72D-05
 ErrMax= 7.72D-05  0.00D+00 EMaxC= 1.00D-01 BMatC= 5.79D-08 BMatP= 7.93D-07
 Rises=F IDIUse=1 WtCom= 1.00D+00 WtEn= 0.00D+00
 Coeff-Com: -0.338D-01-0.101D+00 0.113D+01
 Coeff:     -0.338D-01-0.101D+00 0.113D+01
 Gap=     0.706 Goal=   None    Shift=    0.000
 RMSDP=2.68D-05 MaxDP=1.64D-04 DE=-3.04D-06 OVMax= 3.01D-04

 Cycle   4  Pass 1  IDiag  1:
 E= -76.0096728163578     Delta-E=       -0.000000275340 Rises=F Damp=F AM=F Ri=F Fa=F
 DIIS: error= 1.89D-05 at cycle   4 NSaved=   4.
 NSaved= 4 IEnMin= 4 EnMin= -76.0096728163578     IErMin= 4 ErrMin= 1.89D-05
 ErrMax= 1.89D-05  0.00D+00 EMaxC= 1.00D-01 BMatC= 3.20D-09 BMatP= 5.79D-08
 Rises=F IDIUse=1 WtCom= 1.00D+00 WtEn= 0.00D+00
 Coeff-Com:  0.135D-01-0.101D-01-0.375D+00 0.137D+01
 Coeff:      0.135D-01-0.101D-01-0.375D+00 0.137D+01
 Gap=     0.706 Goal=   None    Shift=    0.000
 RMSDP=9.63D-06 MaxDP=5.35D-05 DE=-2.75D-07 OVMax= 7.95D-05

 Cycle   5  Pass 1  IDiag  1:
 E= -76.0096728330989     Delta-E=       -0.000000016741 Rises=F Damp=F AM=F Ri=F Fa=F
 DIIS: error= 3.52D-06 at cycle   5 NSaved=   5.
 NSaved= 5 IEnMin= 5 EnMin= -76.0096728330989     IErMin= 5 ErrMin= 3.52D-06
 ErrMax= 3.52D-06  0.00D+00 EMaxC= 1.00D-01 BMatC= 1.34D-10 BMatP= 3.20D-09
 Rises=F IDIUse=1 WtCom= 1.00D+00 WtEn= 0.00D+00
 Coeff-Com:  0.366D-02 0.876D-03-0.112D+00 0.322D+00 0.785D+00
 Coeff:      0.366D-02 0.876D-03-0.112D+00 0.322D+00 0.785D+00
 Gap=     0.706 Goal=   None    Shift=    0.000
 RMSDP=7.66D-07 MaxDP=3.98D-06 DE=-1.67D-08 OVMax= 6.81D-06

 Cycle   6  Pass 1  IDiag  1:
 E= -76.0096728333629     Delta-E=       -0.000000000264 Rises=F Damp=F AM=F Ri=F Fa=F
 DIIS: error= 8.99D-07 at cycle   6 NSaved=   6.
 NSaved= 6 IEnMin= 6 EnMin= -76.0096728333629     IErMin= 6 ErrMin= 8.99D-07
 ErrMax= 8.99D-07  0.00D+00 EMaxC= 1.00D-01 BMatC= 1.19D-11 BMatP= 1.34D-10
 Rises=F IDIUse=1 WtCom= 1.00D+00 WtEn= 0.00D+00
 Coeff-Com: -0.202D-02 0.247D-02 0.516D-01-0.196D+00-0.399D-02 0.115D+01
 Coeff:     -0.202D-02 0.247D-02 0.516D-01-0.196D+00-0.399D-02 0.115D+01
 Gap=     0.706 Goal=   None    Shift=    0.000
 RMSDP=4.13D-07 MaxDP=2.14D-06 DE=-2.64D-10 OVMax= 3.94D-06

 Cycle   7  Pass 1  IDiag  1:
 E= -76.0096728334072     Delta-E=       -0.000000000044 Rises=F Damp=F AM=F Ri=F Fa=F
 DIIS: error= 1.79D-07 at cycle   7 NSaved=   7.
 NSaved= 7 IEnMin= 7 EnMin= -76.0096728334072     IErMin= 7 ErrMin= 1.79D-07
 ErrMax= 1.79D-07  0.00D+00 EMaxC= 1.00D-01 BMatC= 2.51D-13 BMatP= 1.19D-11
 Rises=F IDIUse=1 WtCom= 1.00D+00 WtEn= 0.00D+00
 Coeff-Com:  0.516D-03-0.462D-03-0.148D-01 0.550D-01-0.215D-01-0.374D+00
 Coeff-Com:  0.135D+01
 Coeff:      0.516D-03-0.462D-03-0.148D-01 0.550D-01-0.215D-01-0.374D+00
 Coeff:      0.135D+01
 Gap=     0.706 Goal=   None    Shift=    0.000
 RMSDP=9.87D-08 MaxDP=5.36D-07 DE=-4.43D-11 OVMax= 7.83D-07

 Cycle   8  Pass 1  IDiag  1:
 E= -76.0096728334082     Delta-E=       -0.000000000001 Rises=F Damp=F AM=F Ri=F Fa=F
 DIIS: error= 1.34D-08 at cycle   8 NSaved=   8.
 NSaved= 8 IEnMin= 8 EnMin= -76.0096728334082     IErMin= 8 ErrMin= 1.34D-08
 ErrMax= 1.34D-08  0.00D+00 EMaxC= 1.00D-01 BMatC= 1.18D-15 BMatP= 2.51D-13
 Rises=F IDIUse=1 WtCom= 1.00D+00 WtEn= 0.00D+00
 Coeff-Com: -0.568D-04 0.397D-04 0.173D-02-0.635D-02 0.313D-02 0.440D-01
 Coeff-Com: -0.209D+00 0.117D+01
 Coeff:     -0.568D-04 0.397D-04 0.173D-02-0.635D-02 0.313D-02 0.440D-01
 Coeff:     -0.209D+00 0.117D+01
 Gap=     0.706 Goal=   None    Shift=    0.000
 RMSDP=4.70D-09 MaxDP=2.57D-08 DE=-1.08D-12 OVMax= 3.78D-08

 SCF Done:  E(RHF) =  -76.0096728334     A.U. after    8 cycles
            NFock=  8  Conv=0.47D-08     -V/T= 2.0031
 KE=          75.778522 PE=        -198.639756 EE=          37.763530
 Leave Link  502 at Tue Mar 10 00:06:57 2026, MaxMem=  4294967296 cpu:               0.1 elap:               0.0
 (Enter /Users/vincenzobarone/gdv_j32p/gdv/l508.exe)
 QCSCF skips out because SCF is already converged.
 Leave Link  508 at Tue Mar 10 00:06:57 2026, MaxMem=  4294967296 cpu:               0.0 elap:               0.0
 (Enter /Users/vincenzobarone/gdv_j32p/gdv/l801.exe)
 Range of M.O.s used for correlation:     1    19
 NBasis=    19 NAE=     5 NBE=     5 NFC=     0 NFV=     0
 NROrb=     19 NOA=     5 NOB=     5 NVA=    14 NVB=    14
 Leave Link  801 at Tue Mar 10 00:06:57 2026, MaxMem=  4294967296 cpu:               0.0 elap:               0.0
 (Enter /Users/vincenzobarone/gdv_j32p/gdv/l1101.exe)
 Using compressed storage, NAtomX=     3.
 Will process      4 centers per pass.
 Leave Link 1101 at Tue Mar 10 00:06:57 2026, MaxMem=  4294967296 cpu:               0.1 elap:               0.0
 (Enter /Users/vincenzobarone/gdv_j32p/gdv/l1102.exe)
 Symmetrizing basis deriv contribution to polar:
 IMax=3 JMax=2 DiffMx= 0.00D+00
 Leave Link 1102 at Tue Mar 10 00:06:57 2026, MaxMem=  4294967296 cpu:               0.0 elap:               0.0
 (Enter /Users/vincenzobarone/gdv_j32p/gdv/l1110.exe)
 Forming Gx(P) for the SCF density, NAtomX=     3.
 Integral derivatives from FoFJK, PRISM(SPDF).
 Do as many integral derivatives as possible in FoFJK.
 G2DrvN: MDV=    4294966829.
 G2DrvN: will do     4 centers at a time, making    1 passes.
 Calling FoFCou, ICntrl=  3107 FMM=F I1Cent=   0 AccDes= 0.00D+00.
 FoFJK:  IHMeth= 1 ICntrl=    3107 DoSepK=F KAlg= 0 I1Cent=           0 FoldK=F
 IRaf=         0 NMat=       1 IRICut=       1 DoRegI=T DoRafI=F ISym2E= 0 IDoP0=0 IntGTp=1.
 FoFCou: FMM=F IPFlag=           0 FMFlag=      100000 FMFlg1=           0
         NFxFlg=           0 DoJE=F BraDBF=F KetDBF=F FulRan=T
         wScrn=  0.000000 ICntrl=      3107 IOpCl=  0 I1Cent=           0 NGrid=           0
         NMat0=    1 NMatS0=      1 NMatT0=    0 NMatD0=    1 NMtDS0=    0 NMtDT0=    0
 Symmetry not used in FoFCou.
 End of G2Drv FD prop file    721 does not exist.
 End of G2Drv FD prop file    722 does not exist.
 End of G2Drv FD prop file    788 does not exist.
 End of G2Drv FD prop file    804 does not exist.
 Leave Link 1110 at Tue Mar 10 00:06:57 2026, MaxMem=  4294967296 cpu:               0.2 elap:               0.0
 (Enter /Users/vincenzobarone/gdv_j32p/gdv/l1002.exe)
 Minotr:  Closed shell wavefunction.
          IDoAtm=111
          Direct CPHF calculation.
          Differentiating once with respect to electric field.
                with respect to dipole field.
          Differentiating once with respect to nuclear coordinates.
          Requested convergence is 1.0D-08 RMS, and 1.0D-07 maximum.
          Secondary convergence is 1.0D-12 RMS, and 1.0D-12 maximum.
          NewPWx=T KeepS1=F KeepF1=F KeepIn=T MapXYZ=F SortEE=F KeepMc=T.
 Keep R1 ints in memory in canonical form, NReq=1666339.
 FoFCou: FMM=F IPFlag=           0 FMFlag=           0 FMFlg1=           0
         NFxFlg=           0 DoJE=F BraDBF=F KetDBF=F FulRan=T
         wScrn=  0.000000 ICntrl=       600 IOpCl=  0 I1Cent=           0 NGrid=           0
         NMat0=    1 NMatS0=    190 NMatT0=    0 NMatD0=    1 NMtDS0=    0 NMtDT0=    0
 Symmetry not used in FoFCou.
 Two-electron integral symmetry not used.
          MDV=    4294967296 using Grid=Fine.
          Solving linear equations simultaneously, MaxMat=       0.
          There are    12 degrees of freedom in the 1st order CPHF.  IDoFFX=6 NUNeed=     3.
      9 vectors produced by pass  0 Test12= 5.83D-16 8.33D-09 XBig12= 1.24D+00 7.70D-01.
 AX will form     9 AO Fock derivatives at one time.
      9 vectors produced by pass  1 Test12= 5.83D-16 8.33D-09 XBig12= 5.80D-02 1.27D-01.
      9 vectors produced by pass  2 Test12= 5.83D-16 8.33D-09 XBig12= 8.92D-04 1.36D-02.
      9 vectors produced by pass  3 Test12= 5.83D-16 8.33D-09 XBig12= 3.57D-06 9.58D-04.
      9 vectors produced by pass  4 Test12= 5.83D-16 8.33D-09 XBig12= 1.19D-08 5.40D-05.
      8 vectors produced by pass  5 Test12= 5.83D-16 8.33D-09 XBig12= 2.19D-11 1.95D-06.
      2 vectors produced by pass  6 Test12= 5.83D-16 8.33D-09 XBig12= 1.31D-13 1.63D-07.
      1 vectors produced by pass  7 Test12= 5.83D-16 8.33D-09 XBig12= 1.51D-16 8.41D-09.
 InvSVY:  IOpt=1 It=  1 EMax= 4.44D-16
 Solved reduced A of dimension    56 with     9 vectors.
 FullF1:  Do perturbations      1 to       3.
 Isotropic polarizability for W=    0.000000        4.98 Bohr**3.
 End of Minotr FD prop file    721 does not exist.
 End of Minotr FD prop file    722 does not exist.
 End of Minotr FD prop file    788 does not exist.
 End of Minotr FD prop file    804 does not exist.
 Leave Link 1002 at Tue Mar 10 00:06:57 2026, MaxMem=  4294967296 cpu:               0.1 elap:               0.0
 (Enter /Users/vincenzobarone/gdv_j32p/gdv/l601.exe)
 Copying SCF densities to generalized density rwf, IOpCl= 0 IROHF=0.
 
 **********************************************************************
 
               Population analysis using the SCF Density.
 
 **********************************************************************
 
 Alpha  occ. eigenvalues --      -20.56312      -1.33671      -0.69910      -0.57066      -0.49750
 Alpha virt. eigenvalues --        0.20807       0.30093       1.01349       1.12877       1.16379
 Alpha virt. eigenvalues --        1.16756       1.37654       1.43678       2.02053       2.03717
 Alpha virt. eigenvalues --        2.06878       2.60715       2.92630       3.96297
          Condensed to atoms (all electrons):
               1          2          3
     1  H    0.325982   0.261991  -0.018855
     2  O    0.261991   8.338380   0.263093
     3  H   -0.018855   0.263093   0.323180
 Mulliken charges:
               1
     1  H    0.430882
     2  O   -0.863464
     3  H    0.432582
 Sum of Mulliken charges=   0.00000
 Mulliken charges with hydrogens summed into heavy atoms:
               1
     2  O    0.000000
 APT charges:
               1
     1  H    0.287319
     2  O   -0.577043
     3  H    0.289724
 Sum of APT charges=   0.00000
 APT charges with hydrogens summed into heavy atoms:
               1
     2  O    0.000000
 Electronic spatial extent (au):  <R**2>=             19.0189
 Charge=              0.0000 electrons
 Dipole moment (field-independent basis, Debye):
    X=              0.0000    Y=              0.0102    Z=             -2.2497  Tot=              2.2497
 Quadrupole moment (field-independent basis, Debye-Ang):
   XX=             -7.2504   YY=             -4.1492   ZZ=             -5.7210
   XY=              0.0000   XZ=              0.0000   YZ=             -0.0208
 Traceless Quadrupole moment (field-independent basis, Debye-Ang):
   XX=             -1.5435   YY=              1.5577   ZZ=             -0.0141
   XY=              0.0000   XZ=              0.0000   YZ=             -0.0208
 Octapole moment (field-independent basis, Debye-Ang**2):
  XXX=              0.0000  YYY=              0.0076  ZZZ=             -0.5340  XYY=              0.0000
  XXY=             -0.0107  XXZ=              0.0021  XZZ=              0.0000  YZZ=              0.0108
  YYZ=             -1.1927  XYZ=              0.0000
 Hexadecapole moment (field-independent basis, Debye-Ang**3):
 XXXX=             -5.2335 YYYY=             -5.5800 ZZZZ=             -5.9392 XXXY=              0.0000
 XXXZ=              0.0000 YYYX=              0.0000 YYYZ=             -0.0052 ZZZX=              0.0000
 ZZZY=              0.0114 XXYY=             -2.0695 XXZZ=             -1.9318 YYZZ=             -1.4567
 XXYZ=              0.0097 YYXZ=              0.0000 ZZXY=              0.0000
 N-N=           9.088031 E-N=        -198.639756  KE=          75.778522
 No NMR shielding tensors so no spin-rotation constants.
 Leave Link  601 at Tue Mar 10 00:06:57 2026, MaxMem=  4294967296 cpu:               0.1 elap:               0.0
 (Enter /Users/vincenzobarone/gdv_j32p/gdv/l701.exe)
 GetPMM: IRwPM=    824 LRwPM=      0 LPMAll=      2
 SCFChk:  SCF convergence  4.70D-09 required  1.00D-08
 AtDip 
                 1             2             3 
      1   0.000000D+00  0.000000D+00  0.000000D+00
      2   0.000000D+00  0.000000D+00  0.000000D+00
      3   0.000000D+00  0.000000D+00  0.000000D+00
 AtQua 
                 1             2             3             4             5 
      1   0.000000D+00  0.000000D+00  0.000000D+00  0.000000D+00  0.000000D+00
      2   0.000000D+00  0.000000D+00  0.000000D+00  0.000000D+00  0.000000D+00
      3   0.000000D+00  0.000000D+00  0.000000D+00  0.000000D+00  0.000000D+00
                 6 
      1   0.000000D+00
      2   0.000000D+00
      3   0.000000D+00
 AtPol 
                 1 
      1   0.000000D+00
      2   0.000000D+00
      3   0.000000D+00
 Pair potential:
 ... and contract with generalized density number  0.
 Compute integral second derivatives.
 FFX after V2NN 
                1             2             3             4             5 
      1  0.000000D+00
      2  0.000000D+00  0.000000D+00
      3  0.000000D+00  0.000000D+00  0.000000D+00
      4  0.000000D+00  0.000000D+00  0.000000D+00 -0.131685D+01
      5  0.000000D+00  0.000000D+00  0.000000D+00  0.000000D+00  0.117425D+01
      6  0.000000D+00  0.000000D+00  0.000000D+00  0.000000D+00 -0.185866D+01
      7  0.000000D+00  0.000000D+00  0.000000D+00  0.127492D+01  0.000000D+00
      8  0.000000D+00  0.000000D+00  0.000000D+00  0.000000D+00 -0.109038D+01
      9  0.000000D+00  0.000000D+00  0.000000D+00  0.000000D+00  0.185797D+01
     10  0.000000D+00  0.000000D+00  0.000000D+00  0.419364D-01  0.000000D+00
     11  0.000000D+00  0.000000D+00  0.000000D+00  0.000000D+00 -0.838691D-01
     12  0.000000D+00  0.000000D+00  0.000000D+00  0.000000D+00  0.692683D-03
                6             7             8             9            10 
      6  0.142601D+00
      7  0.000000D+00 -0.260891D+01
      8  0.185797D+01  0.000000D+00  0.222795D+01
      9 -0.184534D+00  0.000000D+00  0.868981D-01  0.380953D+00
     10  0.000000D+00  0.133399D+01  0.000000D+00  0.000000D+00 -0.137593D+01
     11  0.692683D-03  0.000000D+00 -0.113757D+01 -0.194486D+01  0.000000D+00
     12  0.419326D-01  0.000000D+00 -0.194486D+01 -0.196420D+00  0.000000D+00
               11            12 
     11  0.122144D+01
     12  0.194417D+01  0.154487D+00
 Entering OneElI...
 OneElI was handed  4294965853 working-precision words.
 Calculate overlap and kinetic energy integrals
    NBasis =  19  MinDer = 2  MaxDer = 2
 Requested accuracy = 0.1000D-12
 ShPair: Thresh= 1.00D-13 NBox=     0 BxSize= 0.00D+00 RnKept= 2.88D+00
         NSMCal=                   36 NSMKep=                  36
 PrmmSu-InSpLW:  IPartL=    0 NPrtUS=    8 NPrtUL=    1 DoSpLW=F IThBeg=    0 IThEnd=    7 NThAct=    8.
 PrSmSu:  IncTry=   512 NBBP=             36 NTPThr=   100 NPartT=    8 Incr=           1 LDynOK=F GPUOK=F.
 PrsmSu:  NPrtUS=   8 ThrOK=T IAlg=2 LenDen=           0 ISkipM=0 DoSpLW=F IThBeg=    0 IThEnd=    7.
 PRISM was handed   536866289 working-precision words and    36 shell-pairs
 PRISM was handed   536866289 working-precision words and    36 shell-pairs
 Prism:   IPart=     0 DynPar=F LinDyn=F Incr=           1.
 PRISM was handed   536866289 working-precision words and    36 shell-pairs
 PRISM was handed   536866289 working-precision words and    36 shell-pairs
 PRISM was handed   536866289 working-precision words and    36 shell-pairs
 PRISM was handed   536866289 working-precision words and    36 shell-pairs
 PRISM was handed   536866289 working-precision words and    36 shell-pairs
 PRISM was handed   536866289 working-precision words and    36 shell-pairs
 IPart=  2 NShTot=           3 NBatch=           3 AvBLen=         1.0
 PrsmSu-ThDecC:  IPartSL=    2    0 NPrtUSL=    8    1 IThBeg=    0 IThEnd=    7 CPU=   -1 GPU=   -1 NThAct=    8.
 IPart=  4 NShTot=           0 NBatch=           0 AvBLen=         0.0
 PrsmSu-ThDecC:  IPartSL=    4    0 NPrtUSL=    8    1 IThBeg=    0 IThEnd=    7 CPU=   -1 GPU=   -1 NThAct=    7.
 IPart=  3 NShTot=           2 NBatch=           2 AvBLen=         1.0
 PrsmSu-ThDecC:  IPartSL=    3    0 NPrtUSL=    8    1 IThBeg=    0 IThEnd=    7 CPU=   -1 GPU=   -1 NThAct=    6.
 IPart=  1 NShTot=          10 NBatch=          10 AvBLen=         1.0
 PrsmSu-ThDecC:  IPartSL=    1    0 NPrtUSL=    8    1 IThBeg=    0 IThEnd=    7 CPU=   -1 GPU=   -1 NThAct=    5.
 IPart=  7 NShTot=           0 NBatch=           0 AvBLen=         0.0
 PrsmSu-ThDecC:  IPartSL=    7    0 NPrtUSL=    8    1 IThBeg=    0 IThEnd=    7 CPU=   -1 GPU=   -1 NThAct=    4.
 IPart=  0 NShTot=          21 NBatch=          21 AvBLen=         1.0
 PrsmSu-ThDecC:  IPartSL=    0    0 NPrtUSL=    8    1 IThBeg=    0 IThEnd=    7 CPU=   -1 GPU=   -1 NThAct=    3.
 IPart=  6 NShTot=           0 NBatch=           0 AvBLen=         0.0
 PrsmSu-ThDecC:  IPartSL=    6    0 NPrtUSL=    8    1 IThBeg=    0 IThEnd=    7 CPU=   -1 GPU=   -1 NThAct=    2.
 IPart=  5 NShTot=           0 NBatch=           0 AvBLen=         0.0
 PrsmSu-ThDecC:  IPartSL=    5    0 NPrtUSL=    8    1 IThBeg=    0 IThEnd=    7 CPU=   -1 GPU=   -1 NThAct=    1.
 PrSmSu:  NxtVal=              9.
 FFX after D2ST 
                1             2             3             4             5 
      1  0.000000D+00
      2  0.000000D+00  0.000000D+00
      3  0.000000D+00  0.000000D+00  0.000000D+00
      4  0.000000D+00  0.000000D+00  0.000000D+00 -0.200415D+01
      5  0.000000D+00  0.000000D+00  0.000000D+00  0.000000D+00  0.120339D+01
      6  0.000000D+00  0.000000D+00  0.000000D+00  0.000000D+00 -0.240535D+01
      7  0.000000D+00  0.000000D+00  0.000000D+00  0.197138D+01  0.000000D+00
      8  0.000000D+00  0.000000D+00  0.000000D+00  0.000000D+00 -0.113888D+01
      9  0.000000D+00  0.000000D+00  0.000000D+00  0.000000D+00  0.240482D+01
     10  0.000000D+00  0.000000D+00  0.000000D+00  0.327764D-01  0.000000D+00
     11  0.000000D+00  0.000000D+00  0.000000D+00  0.000000D+00 -0.645026D-01
     12  0.000000D+00  0.000000D+00  0.000000D+00  0.000000D+00  0.535617D-03
                6             7             8             9            10 
      6 -0.147251D+00
      7  0.000000D+00 -0.403622D+01
      8  0.240482D+01  0.000000D+00  0.230719D+01
      9  0.114478D+00  0.000000D+00  0.101236D+00 -0.239685D+00
     10  0.000000D+00  0.206485D+01  0.000000D+00  0.000000D+00 -0.209762D+01
     11  0.535617D-03  0.000000D+00 -0.116830D+01 -0.250605D+01  0.000000D+00
     12  0.327734D-01  0.000000D+00 -0.250605D+01  0.125207D+00  0.000000D+00
               11            12 
     11  0.123281D+01
     12  0.250552D+01 -0.157980D+00
 Entering OneElI...
 OneElI was handed  4294965853 working-precision words.
 Calculate potential energy integrals
    NBasis =  19  MinDer = 2  MaxDer = 2
 Requested accuracy = 0.1000D-12
 ShPair: Thresh= 1.00D-13 NBox=     0 BxSize= 0.00D+00 RnKept= 2.88D+00
         NSMCal=                   36 NSMKep=                  36
 PrmmSu-InSpLW:  IPartL=    0 NPrtUS=    8 NPrtUL=    1 DoSpLW=F IThBeg=    0 IThEnd=    7 NThAct=    8.
 PrSmSu:  IncTry=   512 NBBP=            108 NTPThr=   100 NPartT=    8 Incr=           1 LDynOK=F GPUOK=F.
 PrsmSu:  NPrtUS=   8 ThrOK=T IAlg=2 LenDen=           0 ISkipM=0 DoSpLW=F IThBeg=    0 IThEnd=    7.
 PRISM was handed   536866374 working-precision words and    36 shell-pairs
 PRISM was handed   536866374 working-precision words and    36 shell-pairs
 PRISM was handed   536866374 working-precision words and    36 shell-pairs
 Prism:   IPart=     0 DynPar=F LinDyn=F Incr=           1.
 PRISM was handed   536866374 working-precision words and    36 shell-pairs
 PRISM was handed   536866374 working-precision words and    36 shell-pairs
 PRISM was handed   536866374 working-precision words and    36 shell-pairs
 PRISM was handed   536866374 working-precision words and    36 shell-pairs
 PRISM was handed   536866374 working-precision words and    36 shell-pairs
 IPart=  5 NShTot=           0 NBatch=           0 AvBLen=         0.0
 PrsmSu-ThDecC:  IPartSL=    5    0 NPrtUSL=    8    1 IThBeg=    0 IThEnd=    7 CPU=   -1 GPU=   -1 NThAct=    8.
 IPart=  2 NShTot=           9 NBatch=           3 AvBLen=         3.0
 PrsmSu-ThDecC:  IPartSL=    2    0 NPrtUSL=    8    1 IThBeg=    0 IThEnd=    7 CPU=   -1 GPU=   -1 NThAct=    7.
 IPart=  3 NShTot=           6 NBatch=           2 AvBLen=         3.0
 PrsmSu-ThDecC:  IPartSL=    3    0 NPrtUSL=    8    1 IThBeg=    0 IThEnd=    7 CPU=   -1 GPU=   -1 NThAct=    6.
 IPart=  0 NShTot=          63 NBatch=          21 AvBLen=         3.0
 PrsmSu-ThDecC:  IPartSL=    0    0 NPrtUSL=    8    1 IThBeg=    0 IThEnd=    7 CPU=   -1 GPU=   -1 NThAct=    5.
 IPart=  4 NShTot=           0 NBatch=           0 AvBLen=         0.0
 PrsmSu-ThDecC:  IPartSL=    4    0 NPrtUSL=    8    1 IThBeg=    0 IThEnd=    7 CPU=   -1 GPU=   -1 NThAct=    4.
 IPart=  7 NShTot=           0 NBatch=           0 AvBLen=         0.0
 PrsmSu-ThDecC:  IPartSL=    7    0 NPrtUSL=    8    1 IThBeg=    0 IThEnd=    7 CPU=   -1 GPU=   -1 NThAct=    3.
 IPart=  6 NShTot=           0 NBatch=           0 AvBLen=         0.0
 PrsmSu-ThDecC:  IPartSL=    6    0 NPrtUSL=    8    1 IThBeg=    0 IThEnd=    7 CPU=   -1 GPU=   -1 NThAct=    2.
 IPart=  1 NShTot=          30 NBatch=          10 AvBLen=         3.0
 PrsmSu-ThDecC:  IPartSL=    1    0 NPrtUSL=    8    1 IThBeg=    0 IThEnd=    7 CPU=   -1 GPU=   -1 NThAct=    1.
 PrSmSu:  NxtVal=              9.
 FFX after D2V 
                1             2             3             4             5 
      1  0.000000D+00
      2  0.000000D+00  0.000000D+00
      3  0.000000D+00  0.000000D+00  0.000000D+00
      4  0.000000D+00  0.000000D+00  0.000000D+00  0.214256D+01
      5  0.000000D+00  0.000000D+00  0.000000D+00  0.000000D+00  0.795737D+00
      6  0.000000D+00  0.000000D+00  0.000000D+00  0.000000D+00  0.108251D+01
      7  0.000000D+00  0.000000D+00  0.000000D+00 -0.218005D+01  0.000000D+00
      8  0.000000D+00  0.000000D+00  0.000000D+00  0.000000D+00 -0.746647D+00
      9  0.000000D+00  0.000000D+00  0.000000D+00  0.000000D+00 -0.105977D+01
     10  0.000000D+00  0.000000D+00  0.000000D+00  0.374888D-01  0.000000D+00
     11  0.000000D+00  0.000000D+00  0.000000D+00  0.000000D+00 -0.490896D-01
     12  0.000000D+00  0.000000D+00  0.000000D+00  0.000000D+00 -0.227410D-01
                6             7             8             9            10 
      6  0.142183D+01
      7  0.000000D+00  0.442393D+01
      8 -0.110580D+01  0.000000D+00  0.158540D+01
      9 -0.148044D+01  0.000000D+00  0.143521D-01  0.303692D+01
     10  0.000000D+00 -0.224388D+01  0.000000D+00  0.000000D+00  0.220639D+01
     11  0.232897D-01  0.000000D+00 -0.838751D+00  0.104542D+01  0.000000D+00
     12  0.586097D-01  0.000000D+00  0.109145D+01 -0.155649D+01  0.000000D+00
               11            12 
     11  0.887840D+00
     12 -0.106871D+01  0.149788D+01
 Second derivatives from L701 IAtSt=0:
                1             2             3             4             5 
      1  0.000000D+00
      2  0.000000D+00  0.000000D+00
      3  0.000000D+00  0.000000D+00  0.000000D+00
      4  0.000000D+00  0.000000D+00  0.000000D+00  0.214256D+01
      5  0.000000D+00  0.000000D+00  0.000000D+00  0.000000D+00  0.795737D+00
      6  0.000000D+00  0.000000D+00  0.000000D+00  0.000000D+00  0.108251D+01
      7  0.000000D+00  0.000000D+00  0.000000D+00 -0.218005D+01  0.000000D+00
      8  0.000000D+00  0.000000D+00  0.000000D+00  0.000000D+00 -0.746647D+00
      9  0.000000D+00  0.000000D+00  0.000000D+00  0.000000D+00 -0.105977D+01
     10  0.000000D+00  0.000000D+00  0.000000D+00  0.374888D-01  0.000000D+00
     11  0.000000D+00  0.000000D+00  0.000000D+00  0.000000D+00 -0.490896D-01
     12  0.000000D+00  0.000000D+00  0.000000D+00  0.000000D+00 -0.227410D-01
                6             7             8             9            10 
      6  0.142183D+01
      7  0.000000D+00  0.442393D+01
      8 -0.110580D+01  0.000000D+00  0.158540D+01
      9 -0.148044D+01  0.000000D+00  0.143521D-01  0.303692D+01
     10  0.000000D+00 -0.224388D+01  0.000000D+00  0.000000D+00  0.220639D+01
     11  0.232897D-01  0.000000D+00 -0.838751D+00  0.104542D+01  0.000000D+00
     12  0.586097D-01  0.000000D+00  0.109145D+01 -0.155649D+01  0.000000D+00
               11            12 
     11  0.887840D+00
     12 -0.106871D+01  0.149788D+01
 Polarizability into L701:
                1             2             3 
      1  0.276025D+01
      2  0.000000D+00  0.708410D+01
      3  0.000000D+00 -0.989909D-01  0.510738D+01
 Polarizability after L701:
                1             2             3 
      1  0.276025D+01
      2  0.000000D+00  0.708410D+01
      3  0.000000D+00 -0.989909D-01  0.510738D+01
 Dipole Derivatives into L701:
                 1             2             3             4             5 
      1   0.389466D+00  0.000000D+00  0.000000D+00 -0.782302D+00  0.000000D+00
      2   0.000000D+00  0.252317D+00  0.113202D+00  0.000000D+00 -0.506351D+00
      3   0.000000D+00  0.646773D-01  0.220174D+00  0.000000D+00 -0.929635D-03
                 6             7             8             9 
      1   0.000000D+00  0.392836D+00  0.000000D+00  0.000000D+00
      2  -0.953623D-02  0.000000D+00  0.254034D+00 -0.103666D+00
      3  -0.442476D+00  0.000000D+00 -0.637477D-01  0.222303D+00
 Dipole Derivatives after L701:
                 1             2             3             4             5 
      1   0.389466D+00  0.000000D+00  0.000000D+00 -0.782302D+00  0.000000D+00
      2   0.000000D+00  0.252317D+00  0.113202D+00  0.000000D+00 -0.506351D+00
      3   0.000000D+00  0.646773D-01  0.220174D+00  0.000000D+00 -0.929635D-03
                 6             7             8             9 
      1   0.000000D+00  0.392836D+00  0.000000D+00  0.000000D+00
      2  -0.953623D-02  0.000000D+00  0.254034D+00 -0.103666D+00
      3  -0.442476D+00  0.000000D+00 -0.637477D-01  0.222303D+00
 Hessian into L701:
                1             2             3             4             5 
      1  0.241972D-01
      2  0.000000D+00  0.136618D+00
      3  0.000000D+00 -0.763747D-01  0.789028D-01
      4 -0.108294D-01  0.000000D+00  0.000000D+00  0.251196D-01
      5  0.000000D+00 -0.118847D+00  0.148539D+00  0.000000D+00  0.242572D+00
      6  0.000000D+00  0.311731D-02 -0.695991D-01  0.000000D+00  0.370340D-02
      7 -0.133678D-01  0.000000D+00  0.000000D+00 -0.142902D-01  0.000000D+00
      8  0.000000D+00 -0.177707D-01 -0.721640D-01  0.000000D+00 -0.123725D+00
      9  0.000000D+00  0.732574D-01 -0.930365D-02  0.000000D+00 -0.152242D+00
                6             7             8             9 
      6  0.143484D+00
      7  0.000000D+00  0.276580D-01
      8 -0.682071D-02  0.000000D+00  0.141495D+00
      9 -0.738852D-01  0.000000D+00  0.789847D-01  0.831889D-01
 Hessian after L701:
                1             2             3             4             5 
      1  0.216676D+01
      2  0.000000D+00  0.932355D+00
      3  0.000000D+00  0.100614D+01  0.150073D+01
      4 -0.219088D+01  0.000000D+00  0.000000D+00  0.444905D+01
      5  0.000000D+00 -0.865494D+00 -0.957263D+00  0.000000D+00  0.182797D+01
      6  0.000000D+00 -0.105665D+01 -0.155004D+01  0.000000D+00  0.180555D-01
      7  0.241210D-01  0.000000D+00  0.000000D+00 -0.225817D+01  0.000000D+00
      8  0.000000D+00 -0.668603D-01 -0.488743D-01  0.000000D+00 -0.962475D+00
      9  0.000000D+00  0.505164D-01  0.493060D-01  0.000000D+00  0.939208D+00
                6             7             8             9 
      6  0.318041D+01
      7  0.000000D+00  0.223405D+01
      8  0.103860D+01  0.000000D+00  0.102934D+01
      9 -0.163037D+01  0.000000D+00 -0.989724D+00  0.158107D+01
 Leave Link  701 at Tue Mar 10 00:06:57 2026, MaxMem=  4294967296 cpu:               0.2 elap:               0.0
 (Enter /Users/vincenzobarone/gdv_j32p/gdv/l702.exe)
 L702 exits ... SP integral derivatives will be done elsewhere.
 Leave Link  702 at Tue Mar 10 00:06:57 2026, MaxMem=  4294967296 cpu:               0.0 elap:               0.0
 (Enter /Users/vincenzobarone/gdv_j32p/gdv/l703.exe)
 GetPMM: IRwPM=    824 LRwPM=      0 LPMAll=      2
 Integral derivatives from FoFJK, PRISM(SPDF).
 Compute integral second derivatives, UseDBF=F ICtDFT=           0.
 ICntrl=    100127.
 Calling FoFJK, ICntrl=    100127 FMM=F ISym2X=0 I1Cent= 0 IOpClX= 0 NMat=1 NMatS=1 NMatT=0.
 FoFJK:  IHMeth= 1 ICntrl=  100127 DoSepK=F KAlg= 0 I1Cent=           0 FoldK=F
 IRaf=         0 NMat=       1 IRICut=       1 DoRegI=T DoRafI=F ISym2E= 0 IDoP0=0 IntGTp=1.
 FoFCou: FMM=F IPFlag=           0 FMFlag=      100000 FMFlg1=         800
         NFxFlg=           0 DoJE=F BraDBF=F KetDBF=F FulRan=T
         wScrn=  0.000000 ICntrl=    100127 IOpCl=  0 I1Cent=           0 NGrid=           0
         NMat0=    1 NMatS0=      1 NMatT0=    0 NMatD0=    1 NMtDS0=    0 NMtDT0=    0
 Symmetry not used in FoFCou.
 FoFCou:  KetSym=F NOpSet=  1 NOpAb=1 NOp=  1.
 FoFCou:  CnvScl= 1.00D+00 Thresh= 1.00D-12 IAcrcy=      10.
 ShPair: Thresh= 1.00D-12 NBox=     0 BxSize= 0.00D+00 RnKept= 2.88D+00
         NSMCal=                   36 NSMKep=                  36
 PrismS was handed  4294959801 working-precision words and    36 shell-pairs
 LenC2 before Schwartz=          37 after=          37 DMx= 1.04D+00.
 FoFCou: LinMIO=F DoNuc=F BraDBF=F KetDBF=F HaveP=T PDBF=F HaveZ=T HaveW=F
         NIJTC =       6 NIJTAt=       0 NIJTCD=       0 NIJTT =       6
         IJTBeg=       1 IJTEnd=       6 KLTBeg=       1 KLTEnd=       6
         IPTBeg=       1 IPTEnd=       6 IPTBCv=       1 IPTECv=       6
         IZTBeg=       1 IZTEnd=       6 IZTBCv=       1 IZTECv=       6
         IWTBeg=       7 IWTEnd=       6 IWTBCv=       7 IWTECv=       6
         INTBeg=       1 INTEnd=       0 IFTBCv=       1 IFTECv=       6
 NCel replicated for PrismC:     1
 CoulSu-InSpLW:  IPartL=    0 NPrtUS=    8 NPrtUL=    1 DoSpLW=F IThBeg=    0 IThEnd=    7 NThAct=    8.
 CoulSu:  IncTry=  1024 NBBP=            666 NTPThr=   100 NPartT=    8 Incr=           1 LDynOK=F GPUOK=F.
 CoulSu:  NPrtUS=   8 ThrOK=T IAlg=2 LenDen=           0 LWGrdD=           0 DoCopy=F ISkipM=0
          DoSpLW=F IThBeg=    0 IThEnd=    7.
 CoulSu:  IPart=    1 IPartR=    1 CPU=   -1 GPU=   -1.
 CoulSu:  IPart=    4 IPartR=    4 CPU=   -1 GPU=   -1.
 CoulSu:  IPart=    7 IPartR=    7 CPU=   -1 GPU=   -1.
 Enter PrismC:  IPart=  1 JobTyp=22 DoJE=F Cont=F.
 CoulSu:  IPart=    0 IPartR=    0 CPU=   -1 GPU=   -1.
 CoulSu:  IPart=    6 IPartR=    6 CPU=   -1 GPU=   -1.
 PrismC:  IPart=     1 DynPar=F LinDyn=F Incr=           1 UseFst=F UseS4=T ISplat=2.
 PrismC was handed   536866518 working-precision words and    36 shell-pairs
 Enter PrismC:  IPart=  4 JobTyp=22 DoJE=F Cont=F.
 PrismC:  IPart=     4 DynPar=F LinDyn=F Incr=           1 UseFst=F UseS4=T ISplat=2.
 PrismC was handed   536866518 working-precision words and    36 shell-pairs
 Enter PrismC:  IPart=  7 JobTyp=22 DoJE=F Cont=F.
 PrismC:  IPart=     7 DynPar=F LinDyn=F Incr=           1 UseFst=F UseS4=T ISplat=2.
 PrismC was handed   536866518 working-precision words and    36 shell-pairs
 CoulSu:  IPart=    5 IPartR=    5 CPU=   -1 GPU=   -1.
 Enter PrismC:  IPart=  0 JobTyp=22 DoJE=F Cont=F.
 PrismC:  IPart=     0 DynPar=F LinDyn=F Incr=           1 UseFst=F UseS4=T ISplat=2.
 Enter PrismC:  IPart=  6 JobTyp=22 DoJE=F Cont=F.
 CoulSu:  IPart=    2 IPartR=    2 CPU=   -1 GPU=   -1.
 Enter PrismC:  IPart=  2 JobTyp=22 DoJE=F Cont=F.
 Enter PrismC:  IPart=  5 JobTyp=22 DoJE=F Cont=F.
 CoulSu:  IPart=    3 IPartR=    3 CPU=   -1 GPU=   -1.
 PrismC was handed   536866518 working-precision words and    36 shell-pairs
 Enter PrismC:  IPart=  3 JobTyp=22 DoJE=F Cont=F.
 PrismC:  IPart=     6 DynPar=F LinDyn=F Incr=           1 UseFst=F UseS4=T ISplat=2.
 PrismC was handed   536866518 working-precision words and    36 shell-pairs
 PrismC:  IPart=     2 DynPar=F LinDyn=F Incr=           1 UseFst=F UseS4=T ISplat=2.
 PrismC was handed   536866518 working-precision words and    36 shell-pairs
 PrismC:  IPart=     5 DynPar=F LinDyn=F Incr=           1 UseFst=F UseS4=T ISplat=2.
 PrismC was handed   536866518 working-precision words and    36 shell-pairs
 PrismC:  IPart=     3 DynPar=F LinDyn=F Incr=           1 UseFst=F UseS4=T ISplat=2.
 PrismC was handed   536866518 working-precision words and    36 shell-pairs
 IPart=  4 NShTot=          30 NShNF=          30 NShFF=           0 MinMC=       7
           NShCPU=          30 NBCPU=          27 AvBCPU=         1.1
           NShGPU=           0 NBGPU=           0 AvBGPU=         0.0
 CoulSu-ThDecC:  IPartSL=    4    0 NPrtUSL=    8    1 IThBeg=    0 IThEnd=    7 CPU=   -1 GPU=   -1 NThAct=    8.
 IPart=  2 NShTot=          90 NShNF=          90 NShFF=           0 MinMC=       7
           NShCPU=          90 NBCPU=          87 AvBCPU=         1.0
           NShGPU=           0 NBGPU=           0 AvBGPU=         0.0
 CoulSu-ThDecC:  IPartSL=    2    0 NPrtUSL=    8    1 IThBeg=    0 IThEnd=    7 CPU=   -1 GPU=   -1 NThAct=    7.
 IPart=  6 NShTot=          21 NShNF=          21 NShFF=           0 MinMC=       7
           NShCPU=          21 NBCPU=          20 AvBCPU=         1.1
           NShGPU=           0 NBGPU=           0 AvBGPU=         0.0
 CoulSu-ThDecC:  IPartSL=    6    0 NPrtUSL=    8    1 IThBeg=    0 IThEnd=    7 CPU=   -1 GPU=   -1 NThAct=    6.
 IPart=  7 NShTot=          21 NShNF=          21 NShFF=           0 MinMC=       7
           NShCPU=          21 NBCPU=          20 AvBCPU=         1.1
           NShGPU=           0 NBGPU=           0 AvBGPU=         0.0
 CoulSu-ThDecC:  IPartSL=    7    0 NPrtUSL=    8    1 IThBeg=    0 IThEnd=    7 CPU=   -1 GPU=   -1 NThAct=    5.
 IPart=  1 NShTot=         160 NShNF=         160 NShFF=           0 MinMC=       7
           NShCPU=         160 NBCPU=         157 AvBCPU=         1.0
           NShGPU=           0 NBGPU=           0 AvBGPU=         0.0
 CoulSu-ThDecC:  IPartSL=    1    0 NPrtUSL=    8    1 IThBeg=    0 IThEnd=    7 CPU=   -1 GPU=   -1 NThAct=    4.
 IPart=  3 NShTot=          78 NShNF=          78 NShFF=           0 MinMC=       7
           NShCPU=          78 NBCPU=          75 AvBCPU=         1.0
           NShGPU=           0 NBGPU=           0 AvBGPU=         0.0
 CoulSu-ThDecC:  IPartSL=    3    0 NPrtUSL=    8    1 IThBeg=    0 IThEnd=    7 CPU=   -1 GPU=   -1 NThAct=    3.
 IPart=  5 NShTot=          29 NShNF=          29 NShFF=           0 MinMC=       7
           NShCPU=          29 NBCPU=          26 AvBCPU=         1.1
           NShGPU=           0 NBGPU=           0 AvBGPU=         0.0
 CoulSu-ThDecC:  IPartSL=    5    0 NPrtUSL=    8    1 IThBeg=    0 IThEnd=    7 CPU=   -1 GPU=   -1 NThAct=    2.
 IPart=  0 NShTot=         237 NShNF=         237 NShFF=           0 MinMC=       7
           NShCPU=         237 NBCPU=         231 AvBCPU=         1.0
           NShGPU=           0 NBGPU=           0 AvBGPU=         0.0
 CoulSu-ThDecC:  IPartSL=    0    0 NPrtUSL=    8    1 IThBeg=    0 IThEnd=    7 CPU=   -1 GPU=   -1 NThAct=    1.
 CoulSu:  NxtVal=              9 LenVP=      536866519 MinMC=       7.
 Hessian from J: 
                1             2             3             4             5 
      1  0.000000D+00
      2  0.000000D+00  0.000000D+00
      3  0.000000D+00  0.000000D+00  0.000000D+00
      4  0.000000D+00  0.000000D+00  0.000000D+00 -0.215071D+01
      5  0.000000D+00  0.000000D+00  0.000000D+00  0.000000D+00 -0.577746D+00
      6  0.000000D+00  0.000000D+00  0.000000D+00  0.000000D+00 -0.121059D+01
      7  0.000000D+00  0.000000D+00  0.000000D+00  0.217363D+01  0.000000D+00
      8  0.000000D+00  0.000000D+00  0.000000D+00  0.000000D+00  0.544875D+00
      9  0.000000D+00  0.000000D+00  0.000000D+00  0.000000D+00  0.122633D+01
     10  0.000000D+00  0.000000D+00  0.000000D+00 -0.229146D-01  0.000000D+00
     11  0.000000D+00  0.000000D+00  0.000000D+00  0.000000D+00  0.328701D-01
     12  0.000000D+00  0.000000D+00  0.000000D+00  0.000000D+00 -0.157417D-01
                6             7             8             9            10 
      6 -0.128031D+01
      7  0.000000D+00 -0.442241D+01
      8  0.119580D+01  0.000000D+00 -0.115622D+01
      9  0.131075D+01  0.000000D+00  0.120841D-01 -0.268436D+01
     10  0.000000D+00  0.224879D+01  0.000000D+00  0.000000D+00 -0.222587D+01
     11  0.147885D-01  0.000000D+00  0.611349D+00 -0.123841D+01  0.000000D+00
     12 -0.304478D-01  0.000000D+00 -0.120788D+01  0.137360D+01  0.000000D+00
               11            12 
     11 -0.644219D+00
     12  0.122362D+01 -0.134315D+01
 Force constants from FoF: 
                1             2             3             4             5 
      1  0.000000D+00
      2  0.000000D+00  0.000000D+00
      3  0.000000D+00  0.000000D+00  0.000000D+00
      4  0.000000D+00  0.000000D+00  0.000000D+00 -0.215071D+01
      5  0.000000D+00  0.000000D+00  0.000000D+00  0.000000D+00 -0.577746D+00
      6  0.000000D+00  0.000000D+00  0.000000D+00  0.000000D+00 -0.121059D+01
      7  0.000000D+00  0.000000D+00  0.000000D+00  0.217363D+01  0.000000D+00
      8  0.000000D+00  0.000000D+00  0.000000D+00  0.000000D+00  0.544875D+00
      9  0.000000D+00  0.000000D+00  0.000000D+00  0.000000D+00  0.122633D+01
     10  0.000000D+00  0.000000D+00  0.000000D+00 -0.229146D-01  0.000000D+00
     11  0.000000D+00  0.000000D+00  0.000000D+00  0.000000D+00  0.328701D-01
     12  0.000000D+00  0.000000D+00  0.000000D+00  0.000000D+00 -0.157417D-01
                6             7             8             9            10 
      6 -0.128031D+01
      7  0.000000D+00 -0.442241D+01
      8  0.119580D+01  0.000000D+00 -0.115622D+01
      9  0.131075D+01  0.000000D+00  0.120841D-01 -0.268436D+01
     10  0.000000D+00  0.224879D+01  0.000000D+00  0.000000D+00 -0.222587D+01
     11  0.147885D-01  0.000000D+00  0.611349D+00 -0.123841D+01  0.000000D+00
     12 -0.304478D-01  0.000000D+00 -0.120788D+01  0.137360D+01  0.000000D+00
               11            12 
     11 -0.644219D+00
     12  0.122362D+01 -0.134315D+01
 Second derivatives from L703 IAtSt=0:
                1             2             3             4             5 
      1  0.000000D+00
      2  0.000000D+00  0.000000D+00
      3  0.000000D+00  0.000000D+00  0.000000D+00
      4  0.000000D+00  0.000000D+00  0.000000D+00 -0.215071D+01
      5  0.000000D+00  0.000000D+00  0.000000D+00  0.000000D+00 -0.577746D+00
      6  0.000000D+00  0.000000D+00  0.000000D+00  0.000000D+00 -0.121059D+01
      7  0.000000D+00  0.000000D+00  0.000000D+00  0.217363D+01  0.000000D+00
      8  0.000000D+00  0.000000D+00  0.000000D+00  0.000000D+00  0.544875D+00
      9  0.000000D+00  0.000000D+00  0.000000D+00  0.000000D+00  0.122633D+01
     10  0.000000D+00  0.000000D+00  0.000000D+00 -0.229146D-01  0.000000D+00
     11  0.000000D+00  0.000000D+00  0.000000D+00  0.000000D+00  0.328701D-01
     12  0.000000D+00  0.000000D+00  0.000000D+00  0.000000D+00 -0.157417D-01
                6             7             8             9            10 
      6 -0.128031D+01
      7  0.000000D+00 -0.442241D+01
      8  0.119580D+01  0.000000D+00 -0.115622D+01
      9  0.131075D+01  0.000000D+00  0.120841D-01 -0.268436D+01
     10  0.000000D+00  0.224879D+01  0.000000D+00  0.000000D+00 -0.222587D+01
     11  0.147885D-01  0.000000D+00  0.611349D+00 -0.123841D+01  0.000000D+00
     12 -0.304478D-01  0.000000D+00 -0.120788D+01  0.137360D+01  0.000000D+00
               11            12 
     11 -0.644219D+00
     12  0.122362D+01 -0.134315D+01
 Polarizability into L703:
                1             2             3 
      1  0.276025D+01
      2  0.000000D+00  0.708410D+01
      3  0.000000D+00 -0.989909D-01  0.510738D+01
 Polarizability after L703:
                1             2             3 
      1  0.276025D+01
      2  0.000000D+00  0.708410D+01
      3  0.000000D+00 -0.989909D-01  0.510738D+01
 Dipole Derivatives into L703:
                 1             2             3             4             5 
      1   0.389466D+00  0.000000D+00  0.000000D+00 -0.782302D+00  0.000000D+00
      2   0.000000D+00  0.252317D+00  0.113202D+00  0.000000D+00 -0.506351D+00
      3   0.000000D+00  0.646773D-01  0.220174D+00  0.000000D+00 -0.929635D-03
                 6             7             8             9 
      1   0.000000D+00  0.392836D+00  0.000000D+00  0.000000D+00
      2  -0.953623D-02  0.000000D+00  0.254034D+00 -0.103666D+00
      3  -0.442476D+00  0.000000D+00 -0.637477D-01  0.222303D+00
 Dipole Derivatives after L703:
                 1             2             3             4             5 
      1   0.389466D+00  0.000000D+00  0.000000D+00 -0.782302D+00  0.000000D+00
      2   0.000000D+00  0.252317D+00  0.113202D+00  0.000000D+00 -0.506351D+00
      3   0.000000D+00  0.646773D-01  0.220174D+00  0.000000D+00 -0.929635D-03
                 6             7             8             9 
      1   0.000000D+00  0.392836D+00  0.000000D+00  0.000000D+00
      2  -0.953623D-02  0.000000D+00  0.254034D+00 -0.103666D+00
      3  -0.442476D+00  0.000000D+00 -0.637477D-01  0.222303D+00
 Hessian into L703:
                1             2             3             4             5 
      1  0.216676D+01
      2  0.000000D+00  0.932355D+00
      3  0.000000D+00  0.100614D+01  0.150073D+01
      4 -0.219088D+01  0.000000D+00  0.000000D+00  0.444905D+01
      5  0.000000D+00 -0.865494D+00 -0.957263D+00  0.000000D+00  0.182797D+01
      6  0.000000D+00 -0.105665D+01 -0.155004D+01  0.000000D+00  0.180555D-01
      7  0.241210D-01  0.000000D+00  0.000000D+00 -0.225817D+01  0.000000D+00
      8  0.000000D+00 -0.668603D-01 -0.488743D-01  0.000000D+00 -0.962475D+00
      9  0.000000D+00  0.505164D-01  0.493060D-01  0.000000D+00  0.939208D+00
                6             7             8             9 
      6  0.318041D+01
      7  0.000000D+00  0.223405D+01
      8  0.103860D+01  0.000000D+00  0.102934D+01
      9 -0.163037D+01  0.000000D+00 -0.989724D+00  0.158107D+01
 Hessian after L703:
                1             2             3             4             5 
      1  0.160494D-01
      2  0.000000D+00  0.354609D+00
      3  0.000000D+00 -0.204449D+00  0.220424D+00
      4 -0.172558D-01  0.000000D+00  0.000000D+00  0.266378D-01
      5  0.000000D+00 -0.320619D+00  0.238534D+00  0.000000D+00  0.671745D+00
      6  0.000000D+00  0.169674D+00 -0.239282D+00  0.000000D+00  0.301396D-01
      7  0.120637D-02  0.000000D+00  0.000000D+00 -0.938205D-02  0.000000D+00
      8  0.000000D+00 -0.339903D-01 -0.340858D-01  0.000000D+00 -0.351126D+00
      9  0.000000D+00  0.347747D-01  0.188582D-01  0.000000D+00 -0.268674D+00
                6             7             8             9 
      6  0.496053D+00
      7  0.000000D+00  0.817568D-02
      8 -0.199814D+00  0.000000D+00  0.385116D+00
      9 -0.256771D+00  0.000000D+00  0.233899D+00  0.237913D+00
 Leave Link  703 at Tue Mar 10 00:06:57 2026, MaxMem=  4294967296 cpu:               0.5 elap:               0.1
 (Enter /Users/vincenzobarone/gdv_j32p/gdv/l716.exe)
 GetPMM: IRwPM=    824 LRwPM=      0 LPMAll=      2
 FrcOut:
 IF    =        40 IFX   =        49 IFXYZ =        58
 IFFX  =        67 IFFFX =       112 IFLen =         9
 IFFLen=        45 IFFFLn=         0 IEDerv=       112
 LEDerv=       485 IFroze=       760 ICStrt=      1562
 Dipole        =-1.37579437D-16 4.02743571D-03-8.85101107D-01
 DipoleDeriv   = 3.89465664D-01 3.18606988D-17 4.97509207D-16
                -1.84706354D-18 2.52317378D-01 6.46773060D-02
                 5.52256900D-18 1.13201835D-01 2.20173791D-01
                -7.82301921D-01-2.29770617D-16-6.83954734D-16
                 3.52248262D-16-5.06351464D-01-9.29635299D-04
                 3.48492220D-16-9.53623106D-03-4.42476338D-01
                 3.92836257D-01 1.97909918D-16 1.86445527D-16
                -3.50401198D-16 2.54034086D-01-6.37476707D-02
                -3.54014789D-16-1.03665604D-01 2.22302547D-01
 Polarizability= 2.76024526D+00-4.52020300D-15 7.08410127D+00
                -3.06943174D-15-9.89909447D-02 5.10738093D+00
 HyperPolar    =-1.77540241D-14-7.33934971D-02 2.59822301D-14
                 6.13327944D-01-1.42323799D-01 1.25703524D-14
                -2.08749556D+01 6.17516389D-15 3.72325637D-01
                -1.02618052D+01
 Quadrupole    =-1.14758419D+00 1.15807871D+00-1.04945208D-02
                 1.08595943D-15 1.92295888D-16-1.54407389D-02
 After rot to inp orien Dipole Moment
                 1 
      1   0.000000D+00
      2   0.402744D-02
      3  -0.885101D+00
 After rot to inp orien Dipole Derivatives
                 1             2             3             4             5 
      1   0.389466D+00  0.000000D+00  0.000000D+00 -0.782302D+00  0.000000D+00
      2   0.000000D+00  0.252317D+00  0.113202D+00  0.000000D+00 -0.506351D+00
      3   0.000000D+00  0.646773D-01  0.220174D+00  0.000000D+00 -0.929635D-03
                 6             7             8             9 
      1   0.000000D+00  0.392836D+00  0.000000D+00  0.000000D+00
      2  -0.953623D-02  0.000000D+00  0.254034D+00 -0.103666D+00
      3  -0.442476D+00  0.000000D+00 -0.637477D-01  0.222303D+00
 After rot to inp orien Polarizability
                 1 
      1   0.276025D+01
      2   0.000000D+00
      3   0.708410D+01
      4   0.000000D+00
      5  -0.989909D-01
      6   0.510738D+01
 After rot to inp orien HyperPolarizability
                 1 
      1   0.000000D+00
      2  -0.733935D-01
      3   0.000000D+00
      4   0.613328D+00
      5  -0.142324D+00
      6   0.000000D+00
      7  -0.208750D+02
      8   0.000000D+00
      9   0.372326D+00
     10  -0.102618D+02
 After rot to inp orien Quadrupole Moment
                 1 
      1  -0.114758D+01
      2   0.115808D+01
      3  -0.104945D-01
      4   0.000000D+00
      5   0.000000D+00
      6  -0.154407D-01
 After rot to inp orien QEq coupling tensors
                 1             2             3 
      1   0.249615D+00  0.195101D+01  0.274948D+00
      2   0.000000D+00  0.000000D+00  0.000000D+00
      3  -0.202757D+00 -0.166987D+01 -0.222859D+00
      4   0.000000D+00  0.000000D+00  0.000000D+00
      5   0.300467D+00  0.261963D-01 -0.334388D+00
      6  -0.468574D-01 -0.281138D+00 -0.520892D-01
 After rot to inp orien force vector number 1
 I=    1 X=   0.000000000000D+00 Y=   2.155684504875D-02 Z=  -1.964147869848D-02
 I=    2 X=   0.000000000000D+00 Y=  -1.163359511280D-02 Z=   3.020147955994D-02
 I=    3 X=   0.000000000000D+00 Y=  -9.923249935949D-03 Z=  -1.056000086145D-02
 After rot to inp orien force vector number 2
 I=    1 X=   0.000000000000D+00 Y=   2.155684504875D-02 Z=  -1.964147869848D-02
 I=    2 X=   0.000000000000D+00 Y=  -1.163359511280D-02 Z=   3.020147955994D-02
 I=    3 X=   0.000000000000D+00 Y=  -9.923249935949D-03 Z=  -1.056000086145D-02
 After rot to inp orien cartesian force constants 
                1             2             3             4             5 
      1  0.160494D-01
      2  0.000000D+00  0.354609D+00
      3  0.000000D+00 -0.204449D+00  0.220424D+00
      4 -0.172558D-01  0.000000D+00  0.000000D+00  0.266378D-01
      5  0.000000D+00 -0.320619D+00  0.238534D+00  0.000000D+00  0.671745D+00
      6  0.000000D+00  0.169674D+00 -0.239282D+00  0.000000D+00  0.301396D-01
      7  0.120637D-02  0.000000D+00  0.000000D+00 -0.938205D-02  0.000000D+00
      8  0.000000D+00 -0.339903D-01 -0.340858D-01  0.000000D+00 -0.351126D+00
      9  0.000000D+00  0.347747D-01  0.188582D-01  0.000000D+00 -0.268674D+00
                6             7             8             9 
      6  0.496053D+00
      7  0.000000D+00  0.817568D-02
      8 -0.199814D+00  0.000000D+00  0.385116D+00
      9 -0.256771D+00  0.000000D+00  0.233899D+00  0.237913D+00
 -------------------------------------------------------------------
 Center     Atomic                   Forces (Hartrees/Bohr)
 Number     Number              X              Y              Z
 -------------------------------------------------------------------
      1        1           0.000000000   -0.021556845    0.019641479
      2        8           0.000000000    0.011633595   -0.030201480
      3        1           0.000000000    0.009923250    0.010560001
 -------------------------------------------------------------------
 Cartesian Forces:  Max     0.030201480 RMS     0.015304101
 Force constants in Cartesian coordinates: 
                1             2             3             4             5 
      1  0.160494D-01
      2  0.000000D+00  0.354609D+00
      3  0.000000D+00 -0.204449D+00  0.220424D+00
      4 -0.172558D-01  0.000000D+00  0.000000D+00  0.266378D-01
      5  0.000000D+00 -0.320619D+00  0.238534D+00  0.000000D+00  0.671745D+00
      6  0.000000D+00  0.169674D+00 -0.239282D+00  0.000000D+00  0.301396D-01
      7  0.120637D-02  0.000000D+00  0.000000D+00 -0.938205D-02  0.000000D+00
      8  0.000000D+00 -0.339903D-01 -0.340858D-01  0.000000D+00 -0.351126D+00
      9  0.000000D+00  0.347747D-01  0.188582D-01  0.000000D+00 -0.268674D+00
                6             7             8             9 
      6  0.496053D+00
      7  0.000000D+00  0.817568D-02
      8 -0.199814D+00  0.000000D+00  0.385116D+00
      9 -0.256771D+00  0.000000D+00  0.233899D+00  0.237913D+00
 Final forces over variables, Energy=-7.60096728D+01:
 -2.18939551D-02-2.18939551D-02 3.93350217D-03
 Leave Link  716 at Tue Mar 10 00:06:57 2026, MaxMem=  4294967296 cpu:               0.0 elap:               0.0
 (Enter /Users/vincenzobarone/gdv_j32p/gdv/l106.exe)
 NDeriv=      3 NFrqRd=  0 NDerD0=      0 MskFDP=       0 MskDFD=       0 MskDF0=       0
 Re-enter D2Numr:  normal mode      3 step-down number 1
 Max difference between Dipole analytic and numerical normal mode 1st derivatives:
 I=     2 ID=     3 Difference=    1.6495981395D-05
 Max difference between Dipole analytic and numerical normal mode 2nd derivatives:
 I=     3 ID=     3 Difference=    2.2386672257D-05
 Max difference between Energy analytic and numerical normal mode 1st derivatives:
 I=     1 ID=     2 Difference=    8.5676259230D-05
 Max difference between Energy analytic and numerical normal mode 2nd derivatives:
 I=     1 ID=     3 Difference=    1.1294853227D-04
 FinFTb:  IFil= 1 IFilD=  777 LTop=  1 LFil=       485 LTop1=  0 IMask=  1
 FinFTb:  IFil= 2 IFilD=  782 LTop=  1 LFil=       148 LTop1=  0 IMask=  1
 Leave Link  106 at Tue Mar 10 00:06:57 2026, MaxMem=  4294967296 cpu:               0.0 elap:               0.0
 (Enter /Users/vincenzobarone/gdv_j32p/gdv/l716.exe)
 GetPMM: IRwPM=    824 LRwPM=      0 LPMAll=      2
 LCrdCa=F IOp= 7
 LCrdCa=F IOp=16
 LCrdCa=F IOp=17
 FrcOut: Internal coordinates from IOZRed, Value= 
                 1 
      1   0.183064D+01
      2   0.183064D+01
      3   0.180906D+01
 FrcOut:
 IF    =   2046743 IFX   =   2046752 IFXYZ =   2046761
 IFFX  =   2046770 IFFFX =   2046815 IFLen =         9
 IFFLen=        45 IFFFLn=       270 IEDerv=   2047085
 LEDerv=       485 IFroze=   2051523 ICStrt=   2052325
 Dipole        =-7.23740249D-17-1.98870949D-15-8.85114812D-01
 DipoleDeriv   = 3.91145224D-01 7.57219788D-17 6.39998195D-17
                -6.00723073D-18 2.53166786D-01 6.42172408D-02
                -2.30770727D-18 1.08478397D-01 2.21255327D-01
                -7.82290444D-01 9.55810971D-16 5.86767957D-16
                 2.60006033D-17-5.06333572D-01-7.01138678D-10
                 2.55078304D-17-1.98324880D-09-4.42510650D-01
                 3.91145223D-01-4.18290279D-16-3.17829667D-16
                 2.32195408D-17 2.53166780D-01-6.42172398D-02
                 1.67077761D-17-1.08478400D-01 2.21255329D-01
 Polarizability= 2.76023965D+00 3.47694867D-16 7.08326751D+00
                 2.33659907D-16 3.24776103D-10 5.10680200D+00
 HyperPolar    = 6.14538910D-17 1.76015945D-08-1.82164307D-15
                -1.79302055D-07-1.42463043D-01-1.53235923D-15
                -2.08727977D+01-8.76383214D-16-1.52255272D-06
                -1.02597477D+01
 Quadrupole    =-1.14755612D+00 1.15805071D+00-1.04945932D-02
                 1.06314450D-16 7.38388375D-17 1.49648218D-15
 Forces in standard orientation:
 -------------------------------------------------------------------
 Center     Atomic                   Forces (Hartrees/Bohr)
 Number     Number              X              Y              Z
 -------------------------------------------------------------------
      1        1           0.000000000    0.015883552   -0.015220873
      2        8           0.000000000    0.000000000    0.030441746
      3        1           0.000000000   -0.015883552   -0.015220873
 -------------------------------------------------------------------
 Cartesian Forces:  Max     0.030441746 RMS     0.014509094
 ***** Axes restored to original set *****
 Rotating derivatives, DoTrsp=F IDiff=-3 LEDeriv=    484 LFDPrp=       0 LDFDPr=       0.
          Cartesian coordinates in L716 (input orientation):          
 ---------------------------------------------------------------------
 Center     Atomic      Atomic             Coordinates (Angstroms)
 Number     Number       Type             X           Y           Z
 ---------------------------------------------------------------------
      1          1           0        0.666244   -0.761554    0.000000
      2          8           0        0.067512    0.000000    0.000000
      3          1           0        0.666244    0.761554    0.000000
 ---------------------------------------------------------------------
 After rot to inp orien Dipole Moment
                 1 
      1   0.885115D+00
      2   0.000000D+00
      3   0.000000D+00
 After rot to inp orien Dipole Derivatives
                 1             2             3             4             5 
      1   0.221255D+00  0.642172D-01  0.000000D+00 -0.442511D+00  0.000000D+00
      2   0.108478D+00  0.253167D+00  0.000000D+00  0.000000D+00 -0.506334D+00
      3   0.000000D+00  0.000000D+00  0.391145D+00  0.000000D+00  0.000000D+00
                 6             7             8             9 
      1   0.000000D+00  0.221255D+00 -0.642172D-01  0.000000D+00
      2   0.000000D+00 -0.108478D+00  0.253167D+00  0.000000D+00
      3  -0.782290D+00  0.000000D+00  0.000000D+00  0.391145D+00
 After rot to inp orien Polarizability
                 1 
      1   0.510680D+01
      2   0.000000D+00
      3   0.708327D+01
      4   0.000000D+00
      5   0.000000D+00
      6   0.276024D+01
 After rot to inp orien HyperPolarizability
                 1 
      1   0.102597D+02
      2   0.152255D-05
      3   0.208728D+02
      4   0.000000D+00
      5   0.000000D+00
      6   0.000000D+00
      7   0.000000D+00
      8   0.142463D+00
      9   0.000000D+00
     10   0.000000D+00
 After rot to inp orien Quadrupole Moment
                 1 
      1  -0.104946D-01
      2   0.115805D+01
      3  -0.114756D+01
      4   0.000000D+00
      5   0.000000D+00
      6   0.000000D+00
 After rot to inp orien Numerical derivative of Dipole Moment
                 1             2             3             4             5 
      1   0.320371D+00 -0.122214D+00  0.000000D+00 -0.972694D-01 -0.205376D+00
      2   0.000000D+00  0.000000D+00  0.213106D+00  0.000000D+00  0.000000D+00
      3   0.000000D+00  0.000000D+00  0.000000D+00  0.000000D+00  0.000000D+00
                 6 
      1  -0.767784D-01
      2   0.000000D+00
      3   0.000000D+00
 After rot to inp orien Numerical derivative of Dipole Derivatives
                 1             2             3             4             5 
      1  -0.101346D+00  0.147848D+00  0.563247D-01  0.341278D-01  0.160101D-01
      2   0.136271D+00 -0.655493D-01 -0.252318D+00  0.404563D-01  0.317564D-01
      3   0.000000D+00  0.000000D+00  0.000000D+00  0.000000D+00  0.000000D+00
      4   0.300842D-01 -0.658823D-01 -0.245971D-01  0.245321D-01  0.348570D-01
      5  -0.126893D+00  0.182598D+00  0.454223D-01  0.141030D+00 -0.546385D-01
      6   0.000000D+00  0.000000D+00  0.000000D+00  0.000000D+00  0.000000D+00
      7   0.000000D+00  0.000000D+00  0.000000D+00  0.000000D+00  0.000000D+00
      8   0.000000D+00  0.000000D+00  0.000000D+00  0.000000D+00  0.000000D+00
      9  -0.669917D-01  0.985165D-01  0.891820D-01  0.284248D-01 -0.139728D-01
     10   0.202693D+00 -0.295697D+00  0.000000D+00 -0.682766D-01 -0.320392D-01
     11   0.000000D+00  0.000000D+00  0.504636D+00  0.142341D-04  0.137155D-04
     12   0.000000D+00  0.000000D+00  0.000000D+00  0.000000D+00  0.000000D+00
     13   0.000000D+00  0.000000D+00  0.491941D-01  0.263860D-05  0.000000D+00
     14   0.253786D+00 -0.365196D+00  0.000000D+00 -0.282056D+00  0.109283D+00
     15   0.000000D+00  0.000000D+00  0.000000D+00  0.000000D+00  0.000000D+00
     16   0.000000D+00  0.000000D+00  0.000000D+00  0.000000D+00  0.000000D+00
     17   0.000000D+00  0.000000D+00  0.000000D+00  0.000000D+00  0.000000D+00
     18   0.133983D+00 -0.197033D+00  0.000000D+00 -0.568720D-01  0.279232D-01
     19  -0.101346D+00  0.147848D+00 -0.563243D-01  0.341147D-01  0.159950D-01
     20  -0.136271D+00  0.655493D-01 -0.252318D+00 -0.404460D-01 -0.317456D-01
     21   0.000000D+00  0.000000D+00  0.000000D+00  0.000000D+00  0.000000D+00
     22  -0.300842D-01  0.658823D-01 -0.245970D-01 -0.245365D-01 -0.348593D-01
     23  -0.126893D+00  0.182598D+00 -0.454223D-01  0.141055D+00 -0.546151D-01
     24   0.000000D+00  0.000000D+00  0.000000D+00  0.000000D+00  0.000000D+00
     25   0.000000D+00  0.000000D+00  0.000000D+00  0.000000D+00  0.000000D+00
     26   0.000000D+00  0.000000D+00  0.000000D+00  0.000000D+00  0.000000D+00
     27  -0.669917D-01  0.985165D-01 -0.891820D-01  0.284299D-01 -0.139677D-01
                 6 
      1  -0.960622D-01
      2  -0.250223D+00
      3   0.000000D+00
      4  -0.266171D-01
      5   0.501139D-01
      6   0.000000D+00
      7   0.000000D+00
      8   0.000000D+00
      9   0.321272D-01
     10   0.192123D+00
     11   0.689183D-05
     12   0.000000D+00
     13  -0.159518D-05
     14  -0.100209D+00
     15   0.000000D+00
     16   0.000000D+00
     17   0.000000D+00
     18  -0.642768D-01
     19  -0.960947D-01
     20   0.250241D+00
     21   0.000000D+00
     22   0.266170D-01
     23   0.501245D-01
     24   0.000000D+00
     25   0.000000D+00
     26   0.000000D+00
     27   0.321323D-01
 After rot to inp orien Numerical derivative of Polarizability
                 1             2             3             4             5 
      1   0.268026D+01 -0.377296D+01  0.000000D+00  0.231093D+01  0.245174D+01
      2   0.000000D+00  0.000000D+00  0.523837D+01 -0.987245D-05 -0.120446D-04
      3  -0.791777D+00 -0.827404D+01  0.000000D+00  0.197847D+01  0.963150D+01
      4   0.000000D+00  0.000000D+00  0.000000D+00  0.000000D+00  0.000000D+00
      5   0.000000D+00  0.000000D+00  0.000000D+00  0.000000D+00  0.000000D+00
      6  -0.756620D-01  0.282378D+00  0.000000D+00 -0.144532D-01 -0.857217D-01
                 6 
      1   0.324230D+01
      2  -0.302128D-04
      3   0.466955D+01
      4   0.000000D+00
      5   0.000000D+00
      6   0.314554D-01
 After rot to inp orien Numerical derivative of HyperPolarizability
                 1             2             3             4             5 
      1   0.119767D+02 -0.105360D+02  0.465062D-04  0.820801D+01  0.864716D+00
      2  -0.216891D-04  0.340506D-04  0.197027D+02 -0.623193D-02 -0.492520D-02
      3   0.441077D+01 -0.369524D+02  0.265545D-04  0.647705D+01  0.419474D+02
      4   0.000000D+00  0.000000D+00  0.324559D+02 -0.106396D-02 -0.976014D-03
      5   0.000000D+00  0.000000D+00  0.000000D+00  0.000000D+00  0.000000D+00
      6   0.000000D+00  0.000000D+00  0.000000D+00  0.000000D+00  0.000000D+00
      7   0.000000D+00  0.000000D+00  0.000000D+00  0.000000D+00  0.000000D+00
      8  -0.268358D+00  0.219480D+01  0.606859D-05 -0.108759D+01  0.482274D+00
      9   0.000000D+00  0.000000D+00 -0.388381D+01  0.847444D-04  0.187233D-03
     10   0.000000D+00  0.000000D+00  0.000000D+00  0.000000D+00  0.000000D+00
                 6 
      1   0.115280D+02
      2   0.212567D-02
      3   0.120888D+02
      4  -0.175861D-03
      5   0.000000D+00
      6   0.000000D+00
      7   0.000000D+00
      8  -0.779204D+00
      9   0.412694D-03
     10   0.000000D+00
 After rot to inp orien Numerical derivative of Quadrupole Moment
                 1             2             3             4             5 
      1   0.126860D+01 -0.164592D-01  0.000000D+00  0.213715D+00  0.997032D-01
      2  -0.140344D+01 -0.557632D+00  0.000000D+00  0.586665D-01 -0.617236D-01
      3   0.134841D+00  0.574091D+00  0.000000D+00 -0.272382D+00 -0.379796D-01
      4   0.000000D+00  0.000000D+00  0.817089D+00  0.000000D+00  0.000000D+00
      5   0.000000D+00  0.000000D+00  0.000000D+00  0.000000D+00  0.000000D+00
      6   0.000000D+00  0.000000D+00  0.000000D+00  0.000000D+00  0.000000D+00
                 6 
      1   0.405760D-03
      2   0.156784D+00
      3  -0.157190D+00
      4   0.000000D+00
      5   0.000000D+00
      6   0.000000D+00
 After rot to inp orien QEq coupling tensors
                 1             2             3 
      1  -0.494074D-01 -0.281170D+00 -0.494074D-01
      2   0.317005D+00  0.000000D+00 -0.317005D+00
      3  -0.212569D+00 -0.166982D+01 -0.212569D+00
      4   0.000000D+00  0.000000D+00  0.000000D+00
      5   0.000000D+00  0.000000D+00  0.000000D+00
      6   0.261977D+00  0.195099D+01  0.261977D+00
 After rot to inp orien Numerical derivative of QEq coupling tensors
                 1             2             3             4             5 
      1  -0.189868D+00 -0.100062D+00 -0.138426D+00  0.196851D+00 -0.224115D+00
      2  -0.201039D-01  0.866454D+00  0.897530D+00 -0.470617D+00  0.223496D+01
      3   0.210989D+00 -0.555038D+00 -0.531865D+00  0.541787D-01 -0.138935D+01
      4   0.000000D+00  0.000000D+00  0.000000D+00  0.000000D+00  0.000000D+00
      5   0.000000D+00  0.000000D+00  0.000000D+00  0.000000D+00  0.000000D+00
      6  -0.211207D-01  0.655101D+00  0.670291D+00 -0.251030D+00  0.161346D+01
      7  -0.117521D+01  0.587306D+00  0.000000D+00 -0.642947D+00 -0.458789D+00
      8   0.000000D+00  0.000000D+00 -0.138625D+01  0.000000D+00  0.000000D+00
      9   0.761780D+00  0.470233D+00  0.000000D+00  0.493745D+00  0.135993D+00
     10   0.000000D+00  0.000000D+00  0.000000D+00  0.000000D+00  0.000000D+00
     11   0.000000D+00  0.000000D+00  0.000000D+00  0.000000D+00  0.000000D+00
     12   0.413434D+00 -0.105754D+01  0.000000D+00  0.149203D+00  0.322795D+00
     13  -0.189868D+00 -0.100062D+00  0.138426D+00  0.196851D+00 -0.224115D+00
     14   0.201039D-01 -0.866454D+00  0.897530D+00  0.470617D+00 -0.223496D+01
     15   0.210989D+00 -0.555038D+00  0.531865D+00  0.541787D-01 -0.138935D+01
     16   0.000000D+00  0.000000D+00  0.000000D+00  0.000000D+00  0.000000D+00
     17   0.000000D+00  0.000000D+00  0.000000D+00  0.000000D+00  0.000000D+00
     18  -0.211207D-01  0.655101D+00 -0.670291D+00 -0.251030D+00  0.161346D+01
                 6 
      1  -0.368935D+00
      2   0.236402D+01
      3  -0.133907D+01
      4   0.000000D+00
      5   0.000000D+00
      6   0.170800D+01
      7   0.178976D+00
      8   0.000000D+00
      9  -0.268024D+00
     10   0.000000D+00
     11   0.000000D+00
     12   0.890482D-01
     13  -0.368935D+00
     14  -0.236402D+01
     15  -0.133907D+01
     16   0.000000D+00
     17   0.000000D+00
     18   0.170800D+01
 After rot to inp orien force vector number 1
 I=    1 X=   1.522087306899D-02 Y=  -1.588355156909D-02 Z=   0.000000000000D+00
 I=    2 X=  -3.044174613798D-02 Y=   0.000000000000D+00 Z=   0.000000000000D+00
 I=    3 X=   1.522087306898D-02 Y=   1.588355156909D-02 Z=   0.000000000000D+00
 After rot to inp orien force vector number 2
 I=    1 X=   1.522087306899D-02 Y=  -1.588355156909D-02 Z=   0.000000000000D+00
 I=    2 X=  -3.044174613798D-02 Y=   0.000000000000D+00 Z=   0.000000000000D+00
 I=    3 X=   1.522087306898D-02 Y=   1.588355156909D-02 Z=   0.000000000000D+00
 After rot to inp orien cartesian force constants 
                1             2             3             4             5 
      1  0.228985D+00
      2 -0.218801D+00  0.369540D+00
      3  0.000000D+00  0.000000D+00  0.122448D-01
      4 -0.247845D+00  0.184373D+00  0.000000D+00  0.495691D+00
      5  0.253230D+00 -0.335546D+00  0.000000D+00  0.000000D+00  0.671093D+00
      6  0.000000D+00  0.000000D+00 -0.134527D-01  0.000000D+00  0.000000D+00
      7  0.188599D-01  0.344285D-01  0.000000D+00 -0.247845D+00 -0.253230D+00
      8 -0.344285D-01 -0.339934D-01  0.000000D+00 -0.184373D+00 -0.335546D+00
      9  0.000000D+00  0.000000D+00  0.120786D-02  0.000000D+00  0.000000D+00
                6             7             8             9 
      6  0.269053D-01
      7  0.000000D+00  0.228985D+00
      8  0.000000D+00  0.218801D+00  0.369540D+00
      9 -0.134527D-01  0.000000D+00  0.000000D+00  0.122448D-01
 fter rot to inp orien normal mode 3rd          0 for IMat=    1:
                1             2             3             4             5 
      1  0.105811D+00
      2  0.201507D-01 -0.159659D+00
      3  0.000000D+00  0.000000D+00  0.105579D-01
      4 -0.978826D-01 -0.227710D-01  0.000000D+00  0.195765D+00
      5 -0.175304D-01  0.229825D+00  0.000000D+00  0.000000D+00 -0.459651D+00
      6  0.000000D+00  0.000000D+00 -0.572231D-01  0.000000D+00  0.000000D+00
      7 -0.792851D-02  0.262031D-02  0.000000D+00 -0.978827D-01  0.175304D-01
      8 -0.262036D-02 -0.701661D-01  0.000000D+00  0.227710D-01  0.229825D+00
      9  0.000000D+00  0.000000D+00  0.466652D-01  0.000000D+00  0.000000D+00
                6             7             8             9 
      6  0.114446D+00
      7  0.000000D+00  0.105811D+00
      8  0.000000D+00 -0.201507D-01 -0.159659D+00
      9 -0.572231D-01  0.000000D+00  0.000000D+00  0.105579D-01
 fter rot to inp orien normal mode 3rd          0 for IMat=    2:
                1             2             3             4             5 
      1  0.418372D+00
      2 -0.741473D+00  0.839793D+00
      3  0.000000D+00  0.000000D+00 -0.197943D+00
      4 -0.434549D+00  0.703384D+00  0.000000D+00  0.869098D+00
      5  0.779561D+00 -0.805735D+00  0.000000D+00  0.000000D+00  0.161147D+01
      6  0.000000D+00  0.000000D+00  0.184171D+00  0.000000D+00  0.000000D+00
      7  0.161767D-01  0.380883D-01  0.000000D+00 -0.434549D+00 -0.779561D+00
      8 -0.380882D-01 -0.340585D-01  0.000000D+00 -0.703384D+00 -0.805735D+00
      9  0.000000D+00  0.000000D+00  0.137718D-01  0.000000D+00  0.000000D+00
                6             7             8             9 
      6 -0.368343D+00
      7  0.000000D+00  0.418372D+00
      8  0.000000D+00  0.741473D+00  0.839793D+00
      9  0.184171D+00  0.000000D+00  0.000000D+00 -0.197943D+00
 fter rot to inp orien normal mode 3rd          0 for IMat=    3:
                1             2             3             4             5 
      1  0.462748D+00
      2 -0.779232D+00  0.807191D+00
      3  0.000000D+00  0.000000D+00 -0.208330D+00
      4 -0.462748D+00  0.797460D+00  0.000000D+00  0.000000D+00
      5  0.797460D+00 -0.807191D+00  0.000000D+00 -0.159492D+01  0.000000D+00
      6  0.000000D+00  0.000000D+00  0.208330D+00  0.000000D+00  0.000000D+00
      7  0.000000D+00 -0.182284D-01  0.000000D+00  0.462748D+00  0.797460D+00
      8 -0.182284D-01  0.000000D+00  0.000000D+00  0.797460D+00  0.807191D+00
      9  0.000000D+00  0.000000D+00  0.000000D+00  0.000000D+00  0.000000D+00
                6             7             8             9 
      6  0.000000D+00
      7  0.000000D+00 -0.462748D+00
      8  0.000000D+00 -0.779232D+00 -0.807191D+00
      9 -0.208330D+00  0.000000D+00  0.000000D+00  0.208330D+00
 fter rot to inp orien normal mode diagonal 4th          0 for IMat=    1:
                1             2             3             4             5 
      1 -0.352765D+00
      2  0.360615D+00 -0.230308D+00
      3  0.000000D+00  0.000000D+00 -0.249784D-02
      4  0.422910D+00 -0.276102D+00  0.000000D+00 -0.845818D+00
      5 -0.445119D+00  0.247613D+00  0.000000D+00 -0.275496D-05 -0.495229D+00
      6  0.000000D+00  0.000000D+00  0.442226D-03  0.000000D+00  0.000000D+00
      7 -0.701521D-01 -0.844965D-01  0.000000D+00  0.422919D+00  0.445118D+00
      8  0.845019D-01 -0.173025D-01  0.000000D+00  0.276105D+00  0.247612D+00
      9  0.000000D+00  0.000000D+00  0.205834D-02  0.000000D+00  0.000000D+00
                6             7             8             9 
      6 -0.883955D-03
      7  0.000000D+00 -0.352770D+00
      8  0.000000D+00 -0.360620D+00 -0.230308D+00
      9  0.439249D-03  0.000000D+00  0.000000D+00 -0.249784D-02
 fter rot to inp orien normal mode diagonal 4th          0 for IMat=    2:
                1             2             3             4             5 
      1  0.879012D+00
      2 -0.194071D+01  0.187010D+01
      3  0.000000D+00  0.000000D+00 -0.697238D+00
      4 -0.914002D+00  0.189085D+01  0.000000D+00  0.182801D+01
      5  0.199058D+01 -0.185404D+01  0.000000D+00 -0.221487D-05  0.370807D+01
      6  0.000000D+00  0.000000D+00  0.666425D+00  0.000000D+00  0.000000D+00
      7  0.349825D-01  0.498805D-01  0.000000D+00 -0.913992D+00 -0.199058D+01
      8 -0.498740D-01 -0.160573D-01  0.000000D+00 -0.189084D+01 -0.185404D+01
      9  0.000000D+00  0.000000D+00  0.308151D-01  0.000000D+00  0.000000D+00
                6             7             8             9 
      6 -0.133285D+01
      7  0.000000D+00  0.879007D+00
      8  0.000000D+00  0.194071D+01  0.187010D+01
      9  0.666422D+00  0.000000D+00  0.000000D+00 -0.697238D+00
 fter rot to inp orien normal mode diagonal 4th          0 for IMat=    3:
                1             2             3             4             5 
      1  0.102506D+01
      2 -0.208858D+01  0.180890D+01
      3  0.000000D+00  0.000000D+00 -0.740700D+00
      4 -0.101592D+01  0.207857D+01  0.000000D+00  0.203183D+01
      5  0.209860D+01 -0.182637D+01  0.000000D+00 -0.190115D-05  0.365275D+01
      6  0.000000D+00  0.000000D+00  0.749064D+00  0.000000D+00  0.000000D+00
      7 -0.915330D-02  0.100334D-01  0.000000D+00 -0.101590D+01 -0.209860D+01
      8 -0.100193D-01  0.174771D-01  0.000000D+00 -0.207856D+01 -0.182638D+01
      9  0.000000D+00  0.000000D+00 -0.836126D-02  0.000000D+00  0.000000D+00
                6             7             8             9 
      6 -0.149813D+01
      7  0.000000D+00  0.102505D+01
      8  0.000000D+00  0.208857D+01  0.180890D+01
      9  0.749061D+00  0.000000D+00  0.000000D+00 -0.740700D+00
 -------------------------------------------------------------------
 Center     Atomic                   Forces (Hartrees/Bohr)
 Number     Number              X              Y              Z
 -------------------------------------------------------------------
      1        1          -0.015220873    0.015883552    0.000000000
      2        8           0.030441746    0.000000000    0.000000000
      3        1          -0.015220873   -0.015883552    0.000000000
 -------------------------------------------------------------------
 Cartesian Forces:  Max     0.030441746 RMS     0.014509094
 Force constants in Cartesian coordinates: 
                1             2             3             4             5 
      1  0.228985D+00
      2 -0.218801D+00  0.369540D+00
      3  0.000000D+00  0.000000D+00  0.122448D-01
      4 -0.247845D+00  0.184373D+00  0.000000D+00  0.495691D+00
      5  0.253230D+00 -0.335546D+00  0.000000D+00  0.000000D+00  0.671093D+00
      6  0.000000D+00  0.000000D+00 -0.134527D-01  0.000000D+00  0.000000D+00
      7  0.188599D-01  0.344285D-01  0.000000D+00 -0.247845D+00 -0.253230D+00
      8 -0.344285D-01 -0.339934D-01  0.000000D+00 -0.184373D+00 -0.335546D+00
      9  0.000000D+00  0.000000D+00  0.120786D-02  0.000000D+00  0.000000D+00
                6             7             8             9 
      6  0.269053D-01
      7  0.000000D+00  0.228985D+00
      8  0.000000D+00  0.218801D+00  0.369540D+00
      9 -0.134527D-01  0.000000D+00  0.000000D+00  0.122448D-01
 Cartesian forces in FCRed:
 I=    1 X=  -1.522087306899D-02 Y=   1.588355156909D-02 Z=   0.000000000000D+00
 I=    2 X=   3.044174613798D-02 Y=   0.000000000000D+00 Z=   0.000000000000D+00
 I=    3 X=  -1.522087306898D-02 Y=  -1.588355156909D-02 Z=   0.000000000000D+00
 Cartesian force constants in FCRed: 
                1             2             3             4             5 
      1  0.228985D+00
      2 -0.218801D+00  0.369540D+00
      3  0.000000D+00  0.000000D+00  0.122448D-01
      4 -0.247845D+00  0.184373D+00  0.000000D+00  0.495691D+00
      5  0.253230D+00 -0.335546D+00  0.000000D+00  0.000000D+00  0.671093D+00
      6  0.000000D+00  0.000000D+00 -0.134527D-01  0.000000D+00  0.000000D+00
      7  0.188599D-01  0.344285D-01  0.000000D+00 -0.247845D+00 -0.253230D+00
      8 -0.344285D-01 -0.339934D-01  0.000000D+00 -0.184373D+00 -0.335546D+00
      9  0.000000D+00  0.000000D+00  0.120786D-02  0.000000D+00  0.000000D+00
                6             7             8             9 
      6  0.269053D-01
      7  0.000000D+00  0.228985D+00
      8  0.000000D+00  0.218801D+00  0.369540D+00
      9 -0.134527D-01  0.000000D+00  0.000000D+00  0.122448D-01
 Enter LenRIC.
 Enter LenRIC.
 Enter LenRIC.
 Enter LenRIC.
 Internal coordinates in FCRed: 
                 1 
      1   0.183064D+01
      2   0.183064D+01
      3   0.180906D+01
 Enter LenRIC.
 Enter LenRIC.
 CrdBG: NAtInp=     3 NAtoms=     3 NAtNew=     3 NPDir= 0 LGicZM=F NAtDZM=     0 NZG=     0
 Enter Routine CrBGMt.
 CrBGMt: DEBUG = .True.
 CrBGMt Memory Allocations:
    NAt3  =         9 NCoord=         3 LenBSp=        21 LenBFl=        27
    LenGFl=         9 LenBxS=         0 MDV   =4292914701
    IBXTmp=         4 IBFull=        25 IGFull=        79 IBxMat=        88
    IBxQTm=        88 IV    =        88
 CrBGMt: i=         1 IPrim=        16 Idq=         1 Idx=         1 NCoord=         3 NAt3=         9
 CrBGMt: i=         2 IPrim=        19 Idq=         1 Idx=         2 NCoord=         3 NAt3=         9
 CrBGMt: i=         3 IPrim=        22 Idq=         1 Idx=         3 NCoord=         3 NAt3=         9
 CrBGMt: i=         4 IPrim=        25 Idq=         1 Idx=         4 NCoord=         3 NAt3=         9
 CrBGMt: i=         5 IPrim=        27 Idq=         1 Idx=         5 NCoord=         3 NAt3=         9
 CrBGMt: i=         6 IPrim=        29 Idq=         1 Idx=         6 NCoord=         3 NAt3=         9
 CrBGMt: i=         7 IPrim=        31 Idq=         2 Idx=         4 NCoord=         3 NAt3=         9
 CrBGMt: i=         8 IPrim=        34 Idq=         2 Idx=         5 NCoord=         3 NAt3=         9
 CrBGMt: i=         9 IPrim=        37 Idq=         2 Idx=         6 NCoord=         3 NAt3=         9
 CrBGMt: i=        10 IPrim=        40 Idq=         2 Idx=         7 NCoord=         3 NAt3=         9
 CrBGMt: i=        11 IPrim=        42 Idq=         2 Idx=         8 NCoord=         3 NAt3=         9
 CrBGMt: i=        12 IPrim=        44 Idq=         2 Idx=         9 NCoord=         3 NAt3=         9
 CrBGMt: i=        13 IPrim=        46 Idq=         3 Idx=         1 NCoord=         3 NAt3=         9
 CrBGMt: i=        14 IPrim=        58 Idq=         3 Idx=         2 NCoord=         3 NAt3=         9
 CrBGMt: i=        15 IPrim=        65 Idq=         3 Idx=         3 NCoord=         3 NAt3=         9
 CrBGMt: i=        16 IPrim=        72 Idq=         3 Idx=         4 NCoord=         3 NAt3=         9
 CrBGMt: i=        17 IPrim=        81 Idq=         3 Idx=         5 NCoord=         3 NAt3=         9
 CrBGMt: i=        18 IPrim=        90 Idq=         3 Idx=         6 NCoord=         3 NAt3=         9
 CrBGMt: i=        19 IPrim=        99 Idq=         3 Idx=         7 NCoord=         3 NAt3=         9
 CrBGMt: i=        20 IPrim=       105 Idq=         3 Idx=         8 NCoord=         3 NAt3=         9
 CrBGMt: i=        21 IPrim=       111 Idq=         3 Idx=         9 NCoord=         3 NAt3=         9
 CrBGMt: IBMtQ= 
              1
     1            1
     2            1
     3            1
     4            1
     5            1
     6            1
     7            2
     8            2
     9            2
    10            2
    11            2
    12            2
    13            3
    14            3
    15            3
    16            3
    17            3
    18            3
    19            3
    20            3
    21            3
 CrBGMt: IBXTmp= 
              1
     1            1
     2            1
     3            2
     4            2
     5            3
     6            3
     7            4
     8            4
     9            4
    10            5
    11            5
    12            5
    13            6
    14            6
    15            6
    16            7
    17            7
    18            8
    19            8
    20            9
    21            9
 CrBGMt: IBMtX= 
              1
     1            1
     2           13
     3            2
     4           14
     5            3
     6           15
     7            4
     8            7
     9           16
    10            5
    11            8
    12           17
    13            6
    14            9
    15           18
    16           10
    17           19
    18           11
    19           20
    20           12
    21           21
 CrBGMt: IBMtJX= 
              1
     1            1
     2            3
     3            5
     4            7
     5           10
     6           13
     7           16
     8           18
     9           20
    10           22
 CrBGMt: Full (IOp=1) B-matrix= 
                 1             2             3             4             5 
      1   0.618057D+00 -0.786133D+00  0.000000D+00 -0.618057D+00  0.786133D+00
      2   0.000000D+00  0.000000D+00  0.000000D+00 -0.618057D+00 -0.786133D+00
      3  -0.429431D+00 -0.337618D+00  0.000000D+00  0.858861D+00  0.000000D+00
                 6             7             8             9 
      1   0.000000D+00  0.000000D+00  0.000000D+00  0.000000D+00
      2   0.000000D+00  0.618057D+00  0.786133D+00  0.000000D+00
      3   0.000000D+00 -0.429431D+00  0.337618D+00  0.000000D+00
 CrBGMt: Full (IOp=11) B-matrix= 
                 1             2             3 
      1   0.618057D+00  0.000000D+00 -0.429431D+00
      2  -0.786133D+00  0.000000D+00 -0.337618D+00
      3   0.000000D+00  0.000000D+00  0.000000D+00
      4  -0.618057D+00 -0.618057D+00  0.858861D+00
      5   0.786133D+00 -0.786133D+00  0.000000D+00
      6   0.000000D+00  0.000000D+00  0.000000D+00
      7   0.000000D+00  0.618057D+00 -0.429431D+00
      8   0.000000D+00  0.786133D+00  0.337618D+00
      9   0.000000D+00  0.000000D+00  0.000000D+00
 CrBGMt: G-matrix= 
                 1             2             3 
      1   0.200000D+01 -0.236012D+00 -0.530825D+00
      2  -0.236012D+00  0.200000D+01 -0.530825D+00
      3  -0.530825D+00 -0.530825D+00  0.133444D+01
 CrBGMt: Low-triangle G-matrix= 
                1             2             3 
      1  0.200000D+01
      2 -0.236012D+00  0.200000D+01
      3 -0.530825D+00 -0.530825D+00  0.133444D+01
 Jacobi:  N=     3 NSweep=     1 Done= 1.00D-13 Thrsh= 2.89D-02 NDid=           2  66.7%
 Jacobi:  N=     3 NSweep=     2 Done= 1.00D-13 Thrsh= 8.22D-05 NDid=           3 100.0%
 Jacobi:  N=     3 NSweep=     3 Done= 1.00D-13 Thrsh= 9.90D-14 NDid=           3 100.0%
 Jacobi:  N=     3 NO=     0 IConv= 0 OffTop= 5.31D-01 ATop= 2.00D+00 Done= 1.00D-13 NSweep=     3 NTot=         8
 CrBGMt: G-matrix eigenvalues from Jacobi= 
                 1 
      1   0.233003D+01
      2   0.223601D+01
      3   0.768392D+00
 CrdBG: Low-triangle G-matrix= 
                1             2             3 
      1  0.200000D+01
      2 -0.236012D+00  0.200000D+01
      3 -0.530825D+00 -0.530825D+00  0.133444D+01
 Sparse B in FormBX: 
                 1 
      1   0.618057D+00
      2  -0.786133D+00
      3   0.000000D+00
      4  -0.618057D+00
      5   0.786133D+00
      6   0.000000D+00
      7  -0.618057D+00
      8  -0.786133D+00
      9   0.000000D+00
     10   0.618057D+00
     11   0.786133D+00
     12   0.000000D+00
     13  -0.429431D+00
     14  -0.337618D+00
     15   0.000000D+00
     16   0.858861D+00
     17   0.000000D+00
     18   0.000000D+00
     19  -0.429431D+00
     20   0.337618D+00
     21   0.000000D+00
 IB in FormBX: 
              1
     1            1
     2            1
     3            1
     4            1
     5            1
     6            1
     7            2
     8            2
     9            2
    10            2
    11            2
    12            2
    13            3
    14            3
    15            3
    16            3
    17            3
    18            3
    19            3
    20            3
    21            3
    22            1
    23           13
    24            2
    25           14
    26            3
    27           15
    28            4
    29            7
    30           16
    31            5
    32            8
    33           17
    34            6
    35            9
    36           18
    37           10
    38           19
    39           11
    40           20
    41           12
    42           21
    43            1
    44            3
    45            5
    46            7
    47           10
    48           13
    49           16
    50           18
    51           20
    52           22
 LCrdCa=F IOp= 1
 FormGI is forming the generalized inverse of G from B-inverse, IUseBI=4.
 Rank of G is          3
 NTrRot=    -1 NTRed=     3 NAtoms=     3 NSkip=     0 NRank=     3 IsLin=F EigSml=7.6839D-01
 G-Inverse: 
                1             2             3 
      1  0.596281D+00
      2  0.149056D+00  0.596281D+00
      3  0.296488D+00  0.296488D+00  0.985260D+00
 Enter LenRIC.
 Enter LenRIC.
 Enter CrX2Q.
 CrX2Q: Cartesian forces or gradients, FX= 
                 1 
      1  -0.152209D-01
      2   0.158836D-01
      3   0.000000D+00
      4   0.304417D-01
      5   0.000000D+00
      6   0.000000D+00
      7  -0.152209D-01
      8  -0.158836D-01
      9   0.000000D+00
 CrX2Q: Sparse B Matrix, BMat= 
                 1 
      1   0.618057D+00
      2  -0.786133D+00
      3   0.000000D+00
      4  -0.618057D+00
      5   0.786133D+00
      6   0.000000D+00
      7  -0.618057D+00
      8  -0.786133D+00
      9   0.000000D+00
     10   0.618057D+00
     11   0.786133D+00
     12   0.000000D+00
     13  -0.429431D+00
     14  -0.337618D+00
     15   0.000000D+00
     16   0.858861D+00
     17   0.000000D+00
     18   0.000000D+00
     19  -0.429431D+00
     20   0.337618D+00
     21   0.000000D+00
 CrX2Q: LT G-Matrix inverse, GInv= 
                1             2             3 
      1  0.596281D+00
      2  0.149056D+00  0.596281D+00
      3  0.296488D+00  0.296488D+00  0.985260D+00
 CrX2Q: Internal forces or gradients, F= 
                 1 
      1  -0.218940D-01
      2  -0.218940D-01
      3   0.393350D-02
 Enter LenRIC.
 Enter LenRIC.
 CrdBx: NAtInp=     3 NAtoms=     3 NAtNew=     3 NPDir= 0 LGicZM=F NAtDZM=     0 NZG=     0
 Enter Routine CrBxMt.


 Indices of the available Bx terms...
 q=    1  x1=    1  x2=    1
 q=    1  x1=    1  x2=    2
 q=    1  x1=    2  x2=    2
 q=    1  x1=    1  x2=    3
 q=    1  x1=    2  x2=    3
 q=    1  x1=    3  x2=    3
 q=    1  x1=    1  x2=    4
 q=    1  x1=    2  x2=    4
 q=    1  x1=    3  x2=    4
 q=    1  x1=    4  x2=    4
 q=    1  x1=    1  x2=    5
 q=    1  x1=    2  x2=    5
 q=    1  x1=    3  x2=    5
 q=    1  x1=    4  x2=    5
 q=    1  x1=    5  x2=    5
 q=    1  x1=    1  x2=    6
 q=    1  x1=    2  x2=    6
 q=    1  x1=    3  x2=    6
 q=    1  x1=    4  x2=    6
 q=    1  x1=    5  x2=    6
 q=    1  x1=    6  x2=    6
 q=    2  x1=    4  x2=    4
 q=    2  x1=    4  x2=    5
 q=    2  x1=    5  x2=    5
 q=    2  x1=    4  x2=    6
 q=    2  x1=    5  x2=    6
 q=    2  x1=    6  x2=    6
 q=    2  x1=    4  x2=    7
 q=    2  x1=    5  x2=    7
 q=    2  x1=    6  x2=    7
 q=    2  x1=    7  x2=    7
 q=    2  x1=    4  x2=    8
 q=    2  x1=    5  x2=    8
 q=    2  x1=    6  x2=    8
 q=    2  x1=    7  x2=    8
 q=    2  x1=    8  x2=    8
 q=    2  x1=    4  x2=    9
 q=    2  x1=    5  x2=    9
 q=    2  x1=    6  x2=    9
 q=    2  x1=    7  x2=    9
 q=    2  x1=    8  x2=    9
 q=    2  x1=    9  x2=    9
 q=    3  x1=    1  x2=    1
 q=    3  x1=    1  x2=    2
 q=    3  x1=    2  x2=    2
 q=    3  x1=    1  x2=    3
 q=    3  x1=    2  x2=    3
 q=    3  x1=    3  x2=    3
 q=    3  x1=    1  x2=    4
 q=    3  x1=    2  x2=    4
 q=    3  x1=    3  x2=    4
 q=    3  x1=    4  x2=    4
 q=    3  x1=    1  x2=    5
 q=    3  x1=    2  x2=    5
 q=    3  x1=    3  x2=    5
 q=    3  x1=    4  x2=    5
 q=    3  x1=    5  x2=    5
 q=    3  x1=    1  x2=    6
 q=    3  x1=    2  x2=    6
 q=    3  x1=    3  x2=    6
 q=    3  x1=    4  x2=    6
 q=    3  x1=    5  x2=    6
 q=    3  x1=    6  x2=    6
 q=    3  x1=    1  x2=    7
 q=    3  x1=    2  x2=    7
 q=    3  x1=    3  x2=    7
 q=    3  x1=    4  x2=    7
 q=    3  x1=    5  x2=    7
 q=    3  x1=    6  x2=    7
 q=    3  x1=    7  x2=    7
 q=    3  x1=    1  x2=    8
 q=    3  x1=    2  x2=    8
 q=    3  x1=    3  x2=    8
 q=    3  x1=    4  x2=    8
 q=    3  x1=    5  x2=    8
 q=    3  x1=    6  x2=    8
 q=    3  x1=    7  x2=    8
 q=    3  x1=    8  x2=    8
 q=    3  x1=    1  x2=    9
 q=    3  x1=    2  x2=    9
 q=    3  x1=    3  x2=    9
 q=    3  x1=    4  x2=    9
 q=    3  x1=    5  x2=    9
 q=    3  x1=    6  x2=    9
 q=    3  x1=    7  x2=    9
 q=    3  x1=    8  x2=    9
 q=    3  x1=    9  x2=    9
 Enter CrX2Q.
 Internal forces in FCRed: 
                 1 
      1  -0.218940D-01
      2  -0.218940D-01
      3   0.393350D-02
 Internal force constants in FCRed: 
                1             2             3 
      1  0.528469D+00
      2 -0.524341D-02  0.528469D+00
      3  0.283356D-01  0.283356D-01  0.194696D+00
 After FrcRed: V(IForce)= 
                 1 
      1  -0.218940D-01
      2  -0.218940D-01
      3   0.393350D-02
 After FrcRed: V(IFrcns)= 
                1             2             3 
      1  0.528469D+00
      2 -0.524341D-02  0.528469D+00
      3  0.283356D-01  0.283356D-01  0.194696D+00
 Force constants in internal coordinates: 
                1             2             3 
      1  0.528469D+00
      2 -0.524341D-02  0.528469D+00
      3  0.283356D-01  0.283356D-01  0.194696D+00
 Final forces over variables, Energy=-7.60097748D+01:
 -2.18939551D-02-2.18939551D-02 3.93350217D-03
 Leave Link  716 at Tue Mar 10 00:06:57 2026, MaxMem=  4294967296 cpu:               0.0 elap:               0.0
 (Enter /Users/vincenzobarone/gdv_j32p/gdv/l717.exe)

 **********************************************************************

             Second-order Perturbative Anharmonic Analysis

 **********************************************************************

 Development version: 2025.08.12

     ==================================================
            Settings for Anharmonic Calculations
     ==================================================
 Default settings used.

 Work units
 ----------
 Conversion from  Hartrees  Bohrs Rad  
             to   attoJoule Angs. Rad  
 Scaling Factors
  Distances:   0.5291772  Angles:   1.0000000  Energies:      4.3597443

 Tolerances cut-off on input data
 --------------------------------
 - Coordinates:       .52918D-05 Angs.
 - Angles:            .10000D-04 Rad  
 - Energies:          .19619D-07 attoJoule
 - 1st derivs.:       .37074D-02
 - 2nd derivs.:       .37074D-04
 - 3rd derivs.:       .37074D-04
 - 4th derivs.:       .37074D-04
 - Coriolis Couplings:.10000D-02
 - Inertia Moments:   .10000D-03 amu Angs.^2
 - Num. degeneracy:   .20000D-01 cm^-1

 Thresholds for resonance analysis
 ---------------------------------
 FERMI RESONANCES:
 - Test 1: Martin [J. Chem. Phys. 103, 2589 (1995)]
 - Test 2: Wave function coefficient [J. Phys. Chem. A, ASAP (2022)]
 - Max. Freq. Diff.                       0.2D+03 cm-1
 - Threshold (min.) for Test. 1           0.1D+01 cm-1
 - Threshold (min.) for Test. 2           0.1D+00
 1-1 DARLING-DENNISON RESONANCES:
 - Test 1: <r|H|s> [Mol. Phys. 112, 261 (2014)]
 - Test 2: Wave function coefficient [J. Phys. Chem. A, ASAP (2022)]
 - Max. Freq. Diff.                       0.1D+03 cm-1
 - Threshold (min.) for Test. 1           0.1D+02 cm-1
 - Threshold (min.) for Test. 2           0.3D+00
 2-2 DARLING-DENNISON RESONANCES:
 - Test 1: <r|H|s> [Mol. Phys. 112, 261 (2014)]
 - Max. Freq. Diff.                       0.1D+03 cm-1
 - Threshold (min.) for Test. 1           0.1D+02 cm-1

     ==================================================
                      Reference System
     ==================================================

 NOTE: The system is set in Eckart orientation for the anharmonic
       treatment.
 Symm:  InNGrp=     InAxis=0 RotPrA=T RotCs=F.
 PtGrp-- Translation vector:    0.000000    0.000000    0.000000
 PtGrp-- Principal moments and axes of charge:
         Moments:        2.2915689        4.1745937        6.4661625
         Axes   :         0.000000         0.000000         1.000000
                          1.000000         0.000000         0.000000
                          0.000000         1.000000         0.000000
 The molecule is not linear, ITop=1.
 Principal inertia moments (amu-bohr**2):
 Iaa = 0.229157D+01 Ibb= 0.417459D+01 Icc= 0.646616D+01
 Rotation matrix to Principal Axis frame: 
                 1             2             3 
      1   0.000000D+00  0.000000D+00  0.100000D+01
      2   0.100000D+01  0.000000D+00  0.000000D+00
      3   0.000000D+00  0.100000D+01  0.000000D+00
 PtGrp-- Principal moments and axes of charge:
         Moments:        2.2915689        4.1745937        6.4661625
         Axes   :         0.000000         0.000000         1.000000
                          1.000000         0.000000         0.000000
                          0.000000         1.000000         0.000000
 Coordinates after PtGrp: 
                 1             2             3 
      1  -0.189411D-15  0.143913D+01 -0.100482D+01
      2  -0.775354D-17  0.226257D-15  0.126625D+00
      3   0.312465D-15 -0.143913D+01 -0.100482D+01
 Rotation matrix after PtGrp: 
                 1             2             3 
      1   0.100000D+01  0.269630D-15  0.139116D-15
      2  -0.235600D-15  0.100000D+01 -0.639788D-15
      3  -0.139116D-15  0.639788D-15  0.100000D+01
 Coordinates at top of FWGrp:
                 1             2             3 
      1  -0.189411D-15  0.143913D+01 -0.100482D+01
      2  -0.775354D-17  0.226257D-15  0.126625D+00
      3   0.312465D-15 -0.143913D+01 -0.100482D+01
 PG Mult Table 
              1            2            3            4
     1            1            2            3            4
     2            2            1            4            3
     3            3            4            1            2
     4            4            3            2            1
 PGChTb: Point group = "C2V " input group "C2V "
 PGChTb: Point group character table below.
         NOpAll=   4 NCls=   4 NReps=   4
 Class #   -->    1    2    3    4
 Operations-->    1    2    3    4
 NOper/Class->    1    1    1    1
               ~~~~ ~~~~ ~~~~ ~~~~
        A1   |    1    1    1    1 z
        A2   |    1    1   -1   -1 Rz
        B1   |    1   -1   -1    1 x,Ry
        B2   |    1   -1    1   -1 y,Rx
 Class # 1 Size:  1 Name: E          Oper:  1
 Class # 2 Size:  1 Name: C2         Oper:  2
 Class # 3 Size:  1 Name: Sgm        Oper:  3
 Class # 4 Size:  1 Name: Sgm'       Oper:  4
 LisGen=   2   3
 DidUR= T T T T
 PG Generators 
              1
     1            2
     2            3
 
 Atom           X                  Y                  Z
 ----------------------------------------------------------------
  H       0.0000000000000    0.7615539378037   -0.5317252924255
  O       0.0000000000000    0.0000000000000    0.0670070550014
  H       0.0000000000000   -0.7615539378037   -0.5317252924255
 ----------------------------------------------------------------

     ==================================================
               Analysis of the Rotor Symmetry
     ==================================================

 Quantities are given in atomic units.

 Framework Group : C2V 
 Rotor Type      : Asymmetric Top
 Asymm. param.   : Kappa = -0.397347
 Inertia moments : X=     6.46616 , Y=     2.29157 , Z=     4.17459
 Representation  : IIr Representation, Iy < Iz < Ix

 Axes Definition for the Symmetric-Top Representation
 ----------------------------------------------------
 Axis Z set to be collinear with Z from Eckart orient.
 NOTE: In Vibro-rotational analysis, this will be referred to as the
       spectroscopic orientation.

     ==================================================
                   Data Source Definition
     ==================================================

 Main data sources
 -----------------
 Harmonic data taken from: current calculation
 Anharmonic data taken from: current calculation

     ==================================================
           Input Data Extraction and Preparation
     ==================================================

 Data for Harmonic Potential Energy Surface
 ------------------------------------------
 Read normal modes, IRwNMS=100765 IRotNM= 0 NVibU=     3.
 Normal modes: 
                 1             2             3 
      1  -0.557255D+00  0.400742D+00  0.435964D+00
      2  -0.432437D+00 -0.581490D+00 -0.554521D+00
      3   0.000000D+00  0.000000D+00  0.000000D+00
      4   0.702242D-01 -0.505008D-01  0.000000D+00
      5   0.000000D+00  0.000000D+00  0.698798D-01
      6   0.000000D+00  0.000000D+00  0.000000D+00
      7  -0.557255D+00  0.400742D+00 -0.435964D+00
      8   0.432437D+00  0.581490D+00 -0.554521D+00
      9   0.000000D+00  0.000000D+00  0.000000D+00

 Definition of the model system: Active modes
 --------------------------------------------
 The 3 Active Modes are:
     1     2     3

 Data for Anharmonic Potential Energy Surface
 --------------------------------------------
 Read normal modes, IRwNMS=100765 IRotNM= 0 NVibU=     3.
 Normal modes: 
                 1             2             3 
      1  -0.557255D+00  0.400742D+00  0.435964D+00
      2  -0.432437D+00 -0.581490D+00 -0.554521D+00
      3   0.000000D+00  0.000000D+00  0.000000D+00
      4   0.702242D-01 -0.505008D-01  0.000000D+00
      5   0.000000D+00  0.000000D+00  0.698798D-01
      6   0.000000D+00  0.000000D+00  0.000000D+00
      7  -0.557255D+00  0.400742D+00 -0.435964D+00
      8   0.432437D+00  0.581490D+00 -0.554521D+00
      9   0.000000D+00  0.000000D+00  0.000000D+00
 Third  Der.      2      2      2          223.17209642
 Fourth Der.      2      2      2      2   -93.20471464
 Third  Der.      2      1      2         -217.48944332
 Fourth Der.      2      2      1      2   133.93882541
 Third  Der.      2      1      1          -75.07748541
 Fourth Der.      2      2      1      1  -257.85592430
 Fourth Der.      2      2      3      2     0.00029101
 Fourth Der.      2      2      3      1     0.00154027
 Third  Der.      2      3      3         -246.39202744
 Fourth Der.      2      2      3      3  -315.03971122
 Third  Der.      1      2      2         -217.83775174
 Fourth Der.      1      1      2      2  -258.00134695
 Third  Der.      1      1      2          -75.20743119
 Fourth Der.      1      1      1      2   -62.31852093
 Third  Der.      1      1      1         1792.33383085
 Fourth Der.      1      1      1      1   770.84159830
 Fourth Der.      1      1      3      2     0.00022958
 Fourth Der.      1      1      3      1     0.00081663
 Third  Der.      1      3      3         1829.29030950
 Fourth Der.      1      1      3      3   787.35117874
 Fourth Der.      3      3      2      2  -315.17288127
 Fourth Der.      3      3      1      2  -109.42775077
 Fourth Der.      3      3      1      1   787.35243330
 Third  Der.      3      3      2         -246.56456274
 Fourth Der.      3      3      3      2     0.00079009
 Third  Der.      3      3      1         1829.31585947
 Fourth Der.      3      3      3      1     0.00167611
 Fourth Der.      3      3      3      3   800.19448600

 Data for Electric Dipole
 ------------------------
 Property available.
 Read normal modes, IRwNMS=100765 IRotNM= 0 NVibU=     3.
 Normal modes: 
                 1             2             3 
      1  -0.557255D+00  0.400742D+00  0.435964D+00
      2  -0.432437D+00 -0.581490D+00 -0.554521D+00
      3   0.000000D+00  0.000000D+00  0.000000D+00
      4   0.702242D-01 -0.505008D-01  0.000000D+00
      5   0.000000D+00  0.000000D+00  0.698798D-01
      6   0.000000D+00  0.000000D+00  0.000000D+00
      7  -0.557255D+00  0.400742D+00 -0.435964D+00
      8   0.432437D+00  0.581490D+00 -0.554521D+00
      9   0.000000D+00  0.000000D+00  0.000000D+00

     ==================================================
        Vibro-Rotational Analysis Based on Symmetry
     ==================================================

 Representation A1
 -----------------
    Z Translation
    2 Vibrations with frequencies:
   3785.73   1888.36

 Representation A2
 -----------------
    Y Rotation
 No Vibration

 Representation B1
 -----------------
    X Translation
    X Rotation
 No Vibration

 Representation B2
 -----------------
    Y Translation
    Z Rotation
    1 Vibrations with frequencies:
   3884.37

 Input/Output information
 ------------------------
 Normal modes will be PRINTED in DESCENDING order (imag. freq. first)
   and sorted by irreducible representation
 The connection between this new numbering (A) and the one used before
   (H) is reported in the present equivalency table:
 ----+------+------+------+
 (H) |     1|     2|     3|
 (A) |     2|     1|     3|
 ----+------+------+------+
 
 Normal modes will be READ in ASCENDING order (imag. freq. first)

 TIP: To use the same numbering as in the whole output, use the option
      "Print=NMOrder=AscNoIrrep" in the special option section

 TIP: To use the same numbering for reading and printing, use the option
      "DataSrc=NMOrder=Print" in the special option section"

 Analysis of symmetry-allowed terms
 ----------------------------------
 Multiplication table 
              1            2            3            4
     1            1            2            3            4
     2            2            1            4            3
     3            3            4            1            2
     4            4            3            2            1
 Symmetry allowed Coriolis couplings
  Z     3     1  B2  B2  A1  
  Z     3     2  B2  B2  A1  

 Symmetry allowed third derivatives
     1     1     1  A1  A1  A1  
     2     1     1  A1  A1  A1  
     2     2     1  A1  A1  A1  
     2     2     2  A1  A1  A1  
     3     3     1  B2  B2  A1  
     3     3     2  B2  B2  A1  

 Symmetry allowed (iijk) fourth derivatives
     1     1     1     1  A1  A1  A1  A1  
     2     1     1     1  A1  A1  A1  A1  
     2     2     1     1  A1  A1  A1  A1  
     2     2     2     1  A1  A1  A1  A1  
     2     2     2     2  A1  A1  A1  A1  
     3     3     1     1  B2  B2  A1  A1  
     3     3     2     1  B2  B2  A1  A1  
     3     3     2     2  B2  B2  A1  A1  
     3     3     3     3  B2  B2  B2  B2  

                             Possible   Symmetry allowed
 Coriolis couplings:            18            2
 Third derivatives :            10            6
 Fourth derivatives: total      15            9
                     (ii|jj)     6            6
                     (ii|jk)     9            3

 Eckart Orientation
 ------------------
 Atom           X                  Y                  Z
 ----------------------------------------------------------------
  H       0.0000000000000    0.7615539378037   -0.5317252924255
  O       0.0000000000000    0.0000000000000    0.0670070550014
  H       0.0000000000000   -0.7615539378037   -0.5317252924255
 ----------------------------------------------------------------

     ==================================================
                   Coriolis Couplings
     ==================================================

 Coriolis Couplings along the X axis
 -----------------------------------
                1             2             3 
      1   0.000000D+00
      2   0.000000D+00  0.000000D+00
      3   0.622555D-02  0.999981D+00  0.000000D+00

 Coriolis Couplings along the Y axis
 -----------------------------------
                1             2             3 
      1   0.000000D+00
      2   0.000000D+00  0.000000D+00
      3   0.000000D+00  0.000000D+00  0.000000D+00

 Coriolis Couplings along the Z axis
 -----------------------------------
                1             2             3 
      1   0.000000D+00
      2   0.000000D+00  0.000000D+00
      3   0.000000D+00  0.000000D+00  0.000000D+00
 
    2 Coriolis couplings larger than .100D-02 along the X axis
    No Coriolis coupling larger than .100D-02 along the Y axis
    No Coriolis coupling larger than .100D-02 along the Z axis

     ==================================================
                    Computational Setup
     ==================================================

 Thermochemistry
 ---------------

     ==================================================
     Printing Energy derivatives and Coriolis Couplings
     ==================================================

 ........................................................
 :   Reference Energy (a.u.): -0.760097748066D+02       :
 :                    (cm-1): -0.166822173034D+08       :
 :......................................................:

 ........................................................
 :             GRADIENT IN NORMAL MODES                 :
 :                                                      :
 : FI =  Reduced values [cm-1]  (default input)         :
 : k  =  Gradient [AttoJ*amu(-1/2)*Ang(-1)]             :
 : K  =  Gradient [Hartree*amu(-1/2)*Bohr(-1)]          :
 :......................................................:

      I                          FI(I)         k(I)         K(I)

      1                        1232.59798      0.25945      0.03149
      2                        -285.82900     -0.04249     -0.00516

 Num. of 1st derivatives larger than  0.371D-02: 2 over 3

 ........................................................
 :                   CORIOLIS COUPLINGS                 :
 :......................................................:

    Ax       I      J          Zeta(I,J)

     x       3      1             0.00623
     x       3      2             0.99998

 Num. of Coriolis couplings larger than  0.100D-02: 2 over 18

 ........................................................
 :      QUADRATIC FORCE CONSTANTS IN NORMAL MODES       :
 :                                                      :
 : FI =  Frequency [cm-1]                               :
 : k  =  Force Const.[ attoJ * amu(-1) * ang(-2) ]      :
 : K  =  Force Const.[ Hartrees * amu(-1) * bohr(-2) ]  :
 :......................................................:

      I      J                  FI(I,J)       k(I,J)       K(I,J)

      1      1                 3785.73255      8.44404      0.54236
      2      2                 1888.36415      2.10098      0.13495
      3      3                 3884.36842      8.88978      0.57099

 Num. of 2nd derivatives larger than  0.371D-04: 3 over 6

 ........................................................
 :        CUBIC FORCE CONSTANTS IN NORMAL MODES         :
 :                                                      :
 : FI =  Reduced values [cm-1]  (default input)         :
 : k  =  Cubic Force Const.[AttoJ*amu(-3/2)*Ang(-3)]    :
 : K  =  Cubic Force Const.[Hartree*amu(-3/2)*Bohr(-3)] :
 :......................................................:

      I      J      K          FI(I,J,K)     k(I,J,K)     K(I,J,K)

      1      1      1          1792.33383     42.36242      1.43987
      2      1      1           -75.14246     -1.25434     -0.04263
      2      2      1          -217.66360     -2.56616     -0.08722
      2      2      2           223.17210      1.85826      0.06316
      3      3      1          1829.30308     44.36270      1.50786
      3      3      2          -246.47830     -4.22162     -0.14349

 Num. of 3rd derivatives larger than  0.371D-04: 6 over 10

 ........................................................
 :                                                      :
 :       QUARTIC FORCE CONSTANTS IN NORMAL MODES        :
 :                                                      :
 : FI =  Reduced values [cm-1]  (default input)         :
 : k  =  Quartic Force Const.[AttoJ*amu(-2)*Ang(-4)]    :
 : K  =  Quartic Force Const.[Hartree*amu(-2)*Bohr(-4)] :
 :......................................................:

      I      J      K      L  FI(I,J,K,L)   k(I,J,K,L)   K(I,J,K,L)

      1      1      1      1    770.84160    193.05840      3.47242
      2      1      1      1    -62.31852    -11.02322     -0.19827
      2      2      1      1   -257.92864    -32.22248     -0.57957
      2      2      2      1    133.93883     11.81772      0.21256
      2      2      2      2    -93.20471     -5.80809     -0.10447
      3      3      1      1    787.35181    202.33121      3.63920
      3      3      2      1   -109.42775    -19.86047     -0.35722
      3      3      2      2   -315.10630    -40.39122     -0.72649
      3      3      3      3    800.19449    210.98914      3.79493

 Num. of 4th derivatives larger than  0.371D-04: 9 over 15

 ........................................................
 :                                                      :
 :      ELECTRIC-FIELD PROPERTIES AND DERIVATIVES       :
 :                                                      :
 :......................................................:

 Electric Dipole
 ---------------

 Unit of the property: Debye
 ------------------------------------------------------------------------------
    |    i      j      k   |              X              Y              Z
 ------------------------------------------------------------------------------
 P0 |                      |        -0.185476D-15  -0.505357D-14  -0.224974D+01
 P1 |      1               |         0.121911D-15  -0.118730D-07   0.310638D+00
 P1 |      2               |        -0.783263D-16  -0.380475D-08  -0.814301D+00
 P1 |      3               |        -0.107956D-15  -0.541662D+00  -0.402724D-08
 P2 |      1      1        |         0.394970D-13  -0.201178D-06   0.522013D+00
 P2 |      2      1        |        -0.180287D-13   0.510842D-07  -0.314221D+00
 P2 |      2      2        |         0.394956D-14   0.686228D-07   0.247234D+00
 P2 |      3      1        |         0.620933D-15  -0.697180D+00   0.260940D-06
 P2 |      3      2        |        -0.560168D-14   0.677846D+00  -0.265008D-06
 P2 |      3      3        |         0.829058D-14  -0.286311D-07   0.195151D+00
 P3 |      1      1      1 |         0.129492D-16   0.319447D-17  -0.648519D-01
 P3 |      1      1      2 |         0.245121D-16   0.604695D-17  -0.122761D+00
 P3 |      1      1      3 |        -0.131076D-15   0.234454D+00   0.115487D-16
 P3 |      2      2      1 |         0.000000D+00   0.000000D+00   0.000000D+00
 P3 |      2      2      2 |         0.312506D-16   0.770931D-17  -0.156509D+00
 P3 |      2      2      3 |         0.192520D-15  -0.344358D+00  -0.169624D-16
 P3 |      3      3      1 |         0.276658D-16   0.682494D-17  -0.138555D+00
 P3 |      3      3      2 |        -0.700687D-16  -0.172854D-16   0.350916D+00
 P3 |      3      3      3 |         0.383737D-15  -0.686388D+00  -0.338101D-16

     ==================================================
                     Input for POLYMODE
     ==================================================

 ***************** cut here for POLYMODE input *****************
        3,        1,        3,        6,        9,        0,        2,        5,        0
SCF-CI
          Input generated by DiNa
     1,    1,  0.370146D-04 /
     2,    2,  0.148765D-03 /
     3,    3,  0.156618D-03 /
     1,    1,    1, 0.135256D-06 /
     1,    1,    2, -.560345D-06 /
     1,    2,    2, -.273897D-06 /
     2,    2,    2, 0.308341D-05 /
     1,    3,    3, -.921831D-06 /
     2,    3,    3, 0.968702D-05 /
     1,    1,    1,    1, -.130992D-08 /
     1,    1,    2,    2, -.436036D-07 /
     1,    2,    2,    2, -.994445D-08 /
     2,    2,    2,    2, 0.435412D-07 /
     1,    1,    3,    3, -.546576D-07 /
     1,    2,    3,    3, -.537505D-07 /
     2,    2,    3,    3, 0.273795D-06 /
     3,    3,    3,    3, 0.475852D-07 /
 0.117871D+05,0.417727D+04,0.760982D+04 /
     3,    4,    1, -.999981D+00 /
     3,    4,    2, -.622555D-02 /
 ***************** cut here for POLYMODE input *****************

     ==================================================
      Inertia Moments Derivatives w.r.t. Normal Modes
     ==================================================

 Units: amu^1/2.Ang

                 Ixx        Ixy        Iyy        Ixz        Iyz        Izz
 Q(     1)    -2.69120    0.00000   -0.94573    0.00000    0.00000   -1.74547
 Q(     2)     0.01675    0.00000    1.29322    0.00000    0.00000   -1.27646
 Q(     3)     0.00000    0.00000    0.00000    0.00000   -1.28730    0.00000

     ==================================================
               Vibro-rotational Alpha Matrix
     ==================================================

 Coriolis contributions to Vibro-Rot Alpha Matrix (in cm^-1)
 -----------------------------------------------------------
                     X              Y              Z 
 Q(     1)        0.00014        0.00000        0.00000
 Q(     2)        0.20543        0.00000        0.00000
 Q(     3)       -0.18926        0.00000        0.00000

 Inertia contributions to Vibro-Rot Alpha Matrix (in cm^-1)
 ----------------------------------------------------------
                     X              Y              Z 
 Q(     1)       -0.13737       -0.38112       -0.21474
 Q(     2)       -0.00001       -1.42868       -0.23023
 Q(     3)        0.00000       -0.37778       -0.20738

 Anharmonic contributions to Vibro-Rot Alpha Matrix (in cm^-1)
 -------------------------------------------------------------
                     X              Y              Z 
 Q(     1)        0.30935        1.00566        0.43915
 Q(     2)       -0.03822       -0.52305        0.06591
 Q(     3)        0.31624        1.34442        0.35362

 Vibro-Rot alpha Matrix (in cm^-1)
 ---------------------------------
                 A(y)           B(z)           C(x)
 Q(     1)        0.62453        0.22441        0.17212
 Q(     2)       -1.95174       -0.16432        0.16720
 Q(     3)        0.96664        0.14624        0.12699

 Vibro-Rot alpha Matrix (in MHz)
 -------------------------------
                 A(y)           B(z)           C(x)
 Q(     1)    18723.08016     6727.62389     5159.89287
 Q(     2)   -58511.54754    -4926.16229     5012.53405
 Q(     3)    28979.09865     4384.26520     3806.95511

     ==================================================
          Quartic Centrifugal Distortion Constants
     ==================================================

 NOTE: Values in Cartesian coords. refer to the structure in Eckart orientation.

 Dump from QCENT
 ---------------
 Inertia Moments:     1.81071     0.64170     1.16901
 Rotat.Constants:     9.30996    26.27008    14.42049
 Frequencies:
  3785.73255  1888.36415  3884.36842

 Derivatives of Inertia Moments w.r.t. Normal Modes (in amu^1/2.Ang)
 -------------------------------------------------------------------
                 Ixx         Ixy         Iyy         Ixz         Iyz         Izz
 Q(     1)    -2.69120     0.00000    -0.94573     0.00000     0.00000    -1.74547
 Q(     2)     0.01675     0.00000     1.29322     0.00000     0.00000    -1.27646
 Q(     3)     0.00000     0.00000     0.00000     0.00000    -1.28730     0.00000

 Quartic Centrifugal Distortion Constants Tau (in cm^-1)
 -------------------------------------------------------

 IXYZ = 1 JXYZ = 1
                 1             2             3
      1  -0.900977D-03  0.861929D-19  0.398391D-19
      2   0.861929D-19 -0.260679D-02 -0.837387D-13
      3   0.398391D-19 -0.837387D-13 -0.137612D-02

 IXYZ = 1 JXYZ = 2
                 1             2             3
      1   0.861929D-19 -0.365711D-34  0.775496D-35
      2  -0.365711D-34 -0.741682D-18 -0.189685D-18
      3   0.775496D-35 -0.189685D-18  0.430282D-18

 IXYZ = 2 JXYZ = 2
                 1             2             3
      1  -0.260679D-02 -0.741682D-18  0.917780D-18
      2  -0.741682D-18 -0.600531D-01 -0.273320D-11
      3   0.917780D-18 -0.273320D-11  0.118414D-01

 IXYZ = 1 JXYZ = 3
                 1             2             3
      1   0.398391D-19  0.775496D-35 -0.153585D-34
      2   0.775496D-35  0.917780D-18 -0.705863D-19
      3  -0.153585D-34 -0.705863D-19 -0.180970D-18

 IXYZ = 2 JXYZ = 3
                 1             2             3
      1  -0.837387D-13 -0.189685D-18 -0.705863D-19
      2  -0.189685D-18 -0.273320D-11 -0.373997D-02
      3  -0.705863D-19 -0.373997D-02  0.622682D-12

 IXYZ = 3 JXYZ = 3
                 1             2             3
      1  -0.137612D-02  0.430282D-18 -0.180970D-18
      2   0.430282D-18  0.118414D-01  0.622682D-12
      3  -0.180970D-18  0.622682D-12 -0.686971D-02

 Quartic Centrifugal Distortion Constants Tau Prime
 --------------------------------------------------
                      cm^-1                    MHz
 - Eckart orientation -
 TauP xxxx     -0.9009771595D-03        -0.2701061572D+02
 TauP xxyy     -0.2606789719D-02        -0.7814958973D+02
 TauP yyyy     -0.6005307331D-01        -0.1800345846D+04
 TauP xxzz     -0.1376121277D-02        -0.4125507802D+02
 TauP yyzz      0.4361459749D-02         0.1307532739D+03
 TauP zzzz     -0.6869705867D-02        -0.2059486008D+03

 - Spectroscopic orientation -
 TauP aaaa     -0.6005307331D-01        -0.1800345846D+04
 TauP aabb      0.4361459749D-02         0.1307532739D+03
 TauP aacc     -0.2606789719D-02        -0.7814958973D+02
 TauP bbbb     -0.6869705867D-02        -0.2059486008D+03
 TauP bbcc     -0.1376121277D-02        -0.4125507802D+02
 TauP cccc     -0.9009771595D-03        -0.2701061572D+02

 Quartic Centrifugal Distortion Constants Tau Prime (Spectroscopic orient.)
 --------------------------------------------------------------------------
                      cm^-1                    MHz
 TauP xxxx     -0.9009771595D-03        -0.2701061572D+02
 TauP xxyy     -0.2606789719D-02        -0.7814958973D+02
 TauP yyyy     -0.6005307331D-01        -0.1800345846D+04
 TauP xxzz     -0.1376121277D-02        -0.4125507802D+02
 TauP yyzz      0.4361459749D-02         0.1307532739D+03
 TauP zzzz     -0.6869705867D-02        -0.2059486008D+03

 Asymmetric Top Reduction
 ------------------------
       Asymmetry parameter     | Reference formula
  Kappa :        -0.3973468856 |    [2B-A-C]/[A-C]
  Delta :         0.3013265572 |       [B-C]/[A-C]
  Sigma :         0.3969618209 | [2A'-B'-C']/[B'-C']

 (A,B,C)   : equilibrium rotational constants
 (A',B',C'): effective rotational constants

 Constants in the Asymmetrically reduced Hamiltonian
 ---------------------------------------------------
                        cm^-1                   MHz
  DELTA J  :    0.7619256308D-02         0.2284195577D+03
  DELTA K  :    0.1705057627D-01         0.5111634171D+03
  DELTA JK :   -0.2295240611D-01        -0.6880958246D+03
  delta J  :   -0.3697006009D-02        -0.1108334519D+03
  delta K  :    0.5797131067D-02         0.1737936172D+03

 Effective Rotational Constants
 (Include Terms due to Quartic Centrifugal Distortion Constants)
 ---------------------------------------------------------------
           Be in cm^-1             B(A) in cm^-1            B(A) in MHz
 a         26.270075257            26.274276961             787683.00724
 b         14.420490133            14.406555015             431897.65393
 c          9.309955696             9.319689110             279397.25061

 Nielsen Centrifugal Distortion Constants
 ----------------------------------------
                cm^-1                    MHz
 DJ     0.5877366589D-02         0.1761990176D+03
 DJK   -0.1250106780D-01        -0.3747725842D+03
 DK     0.8341127673D-02         0.2500607168D+03
 dJ    -0.3697006009D-02        -0.1108334519D+03
 R5    -0.2207101819D-02        -0.6616724793D+02
 R6    -0.8709448598D-03        -0.2611027003D+02

 Constants in the Symmetrically Reduced Hamiltonian
 --------------------------------------------------
                    cm^-1                     MHz
  D J  :    0.3173814653D-03         0.9514856962D+01
  D JK :    0.2085884294D-01         0.6253323797D+03
  D K  :   -0.1945879794D-01        -0.5833600865D+03
  d 1  :    0.3697006009D-02         0.1108334519D+03
  d 2  :   -0.3650937421D-02        -0.1094523504D+03


 Effective Rotational Constants
 (Include Terms due to Quartic Centrifugal Distortion Constants)
 ---------------------------------------------------------------
           Be in cm^-1             B(S) in cm^-1            B(S) in MHz
 a         26.270075257            26.271267474             787592.78507
 b         14.420490133            14.443064389             432992.17743
 c          9.309955696             9.293491098             278611.85397

 Wilson Centrifugal Distortion Constants
 ---------------------------------------
                cm^-1                    MHz
 DJ     0.2252442899D-03         0.6752653931D+01
 DJK    0.2375720590D-03         0.7122231151D+01
 DK     0.1254610118D-02         0.3761226511D+02

 Nielsen Centrifugal Distortion Constants
 ----------------------------------------
                cm^-1                    MHz
 DJ     0.5877366589D-02         0.1761990176D+03
 DJK   -0.1250106780D-01        -0.3747725842D+03
 DK     0.8341127673D-02         0.2500607168D+03
 dJ    -0.3697006009D-02        -0.1108334519D+03
 R5    -0.2207101819D-02        -0.6616724793D+02
 R6    -0.8709448598D-03        -0.2611027003D+02

 Rotational Constants (in cm^-1)
 -------------------------------
 equilibrium (e), ground vibr.state (00), and 00 + centr. dist.(0)
 Ae=  26.2700753     A00=  26.4503561     A0=  26.4515483
 Be=  14.4204901     B00=  14.3173233     B0=  14.3398976
 Ce=   9.3099557     C00=   9.0768047     C0=   9.0603401

 Rotational Constants (in MHz)
 -----------------------------
 equilibrium (e), ground vibr.state (00), and 00 + centr. dist.(0)
 Ae=  787557.043     A00=  792961.728     A0=  792997.469
 Be=  432315.418     B00=  429222.555     B0=  429899.314
 Ce=  279105.450     C00=  272115.759     C0=  271622.163

     ==================================================
          Sextic Centrifugal Distortion Constants
     ==================================================

 Dump from SEXTIC
 ----------------
 Inertia Moments:     1.81071     0.64170     1.16901
 Rotat.Constants:     9.30996    26.27008    14.42049
 Frequencies:
  3785.73255  1888.36415  3884.36842

 Derivatives of Inertia Moments w.r.t. Normal Modes (in amu^1/2.Ang)
 -------------------------------------------------------------------
             Ixx         Ixy         Iyy         Ixz         Iyz         Izz
 Q(     1)    -2.69120     0.00000    -0.94573     0.00000     0.00000    -1.74547
 Q(     2)     0.01675     0.00000     1.29322     0.00000     0.00000    -1.27646
 Q(     3)     0.00000     0.00000     0.00000     0.00000    -1.28730     0.00000

 Quartic Centrifugal Distortion Constants Tau (in cm^-1)
 -------------------------------------------------------

 IXYZ = 1 JXYZ = 1
                 1             2             3
      1  -0.900977D-03  0.861929D-19  0.398391D-19
      2   0.861929D-19 -0.260679D-02 -0.837387D-13
      3   0.398391D-19 -0.837387D-13 -0.137612D-02

 IXYZ = 1 JXYZ = 2
                 1             2             3
      1   0.861929D-19 -0.365711D-34  0.775496D-35
      2  -0.365711D-34 -0.741682D-18 -0.189685D-18
      3   0.775496D-35 -0.189685D-18  0.430282D-18

 IXYZ = 2 JXYZ = 2
                 1             2             3
      1  -0.260679D-02 -0.741682D-18  0.917780D-18
      2  -0.741682D-18 -0.600531D-01 -0.273320D-11
      3   0.917780D-18 -0.273320D-11  0.118414D-01

 IXYZ = 1 JXYZ = 3
                 1             2             3
      1   0.398391D-19  0.775496D-35 -0.153585D-34
      2   0.775496D-35  0.917780D-18 -0.705863D-19
      3  -0.153585D-34 -0.705863D-19 -0.180970D-18

 IXYZ = 2 JXYZ = 3
                 1             2             3
      1  -0.837387D-13 -0.189685D-18 -0.705863D-19
      2  -0.189685D-18 -0.273320D-11 -0.373997D-02
      3  -0.705863D-19 -0.373997D-02  0.622682D-12

 IXYZ = 3 JXYZ = 3
                 1             2             3
      1  -0.137612D-02  0.430282D-18 -0.180970D-18
      2   0.430282D-18  0.118414D-01  0.622682D-12
      3  -0.180970D-18  0.622682D-12 -0.686971D-02

 Quartic Centrifugal Distortion Constants Tau Prime (Spectroscopic orient.)
 --------------------------------------------------------------------------
                      cm^-1                    MHz
 TauP xxxx     -0.9009771595D-03        -0.2701061572D+02
 TauP xxyy     -0.2606789719D-02        -0.7814958973D+02
 TauP yyyy     -0.6005307331D-01        -0.1800345846D+04
 TauP xxzz     -0.1376121277D-02        -0.4125507802D+02
 TauP yyzz      0.4361459749D-02         0.1307532739D+03
 TauP zzzz     -0.6869705867D-02        -0.2059486008D+03

 Dimensionless C_i^ab Matrix
 ---------------------------
 REF:  Table 1 in "HIGHER-ORDER EFFECTS IN THE VIBRATION-ROTATION OF
       SEMIRIGID MOLECULES" by M.R. Aliev, J.K.G. Watson, p.1-67 in
       "Molecular Spectroscopy: Modern Research, Vol. III" by K.N. Rao
 NOTE: The matrix elements are reported as "C(i,a,b)"
      1   X   X      -0.3449316965D-03
      1   Y   X       0.3361854751D-19
      1   Y   Y      -0.9651216908D-03
      1   Z   X       0.1474977274D-19
      1   Z   Y      -0.6082868593D-12
      1   Z   Z      -0.5367402088D-03
      2   X   X       0.6095585234D-05
      2   Y   X       0.6978646857D-19
      2   Y   Y       0.3746125707D-02
      2   Z   X      -0.5725133256D-19
      2   Z   Y       0.2323437456D-12
      2   Z   Z      -0.1114182689D-02
      3   X   X       0.2801788760D-12
      3   Y   X      -0.3519043950D-19
      3   Y   Y       0.9274153270D-12
      3   Z   X      -0.1309516795D-19
      3   Z   Y      -0.6938392233D-03
      3   Z   Z       0.3927477162D-12

 Dimensionless C_i^abc Matrix
 ----------------------------
 REF:  Table 6 in "HIGHER-ORDER EFFECTS IN THE VIBRATION-ROTATION OF
       SEMIRIGID MOLECULES" by M.R. Aliev, J.K.G. Watson, p.1-67 in
       "Molecular Spectroscopy: Modern Research, Vol. III" by K.N. Rao
 NOTE: The matrix elements are reported as "C(i,a,b,c)"
      1   X   X   X      -0.1822669701D-13
      1   Y   X   X       0.1526180912D-20
      1   Y   Y   X      -0.2011062649D-13
      1   Y   Y   Y       0.0000000000D+00
      1   Z   X   X       0.5679268473D-21
      1   Z   Y   X       0.1504562309D-04
      1   Z   Y   Y       0.0000000000D+00
      1   Z   Z   X      -0.8516575470D-14
      1   Z   Z   Y       0.0000000000D+00
      1   Z   Z   Z       0.0000000000D+00
      2   X   X   X      -0.2630253658D-16
      2   Y   X   X       0.2202397353D-23
      2   Y   Y   X      -0.2902119284D-16
      2   Y   Y   Y       0.0000000000D+00
      2   Z   X   X       0.8195624618D-24
      2   Z   Y   X       0.2171200034D-07
      2   Z   Y   Y       0.0000000000D+00
      2   Z   Z   X      -0.1229007854D-16
      2   Z   Z   Y       0.0000000000D+00
      2   Z   Z   Z       0.0000000000D+00
      3   X   X   X       0.3147966184D-07
      3   Y   X   X       0.4729986604D-21
      3   Y   Y   X       0.1261431605D-04
      3   Y   Y   Y       0.0000000000D+00
      3   Z   X   X      -0.3855644255D-21
      3   Z   Y   X       0.7663461777D-15
      3   Z   Y   Y       0.0000000000D+00
      3   Z   Z   X      -0.3775853186D-05
      3   Z   Z   Y       0.0000000000D+00
      3   Z   Z   Z       0.0000000000D+00

 Quartic Centrifugal Distortion Constants Tau Prime (Spectroscopic orient.)
 --------------------------------------------------------------------------
                      cm^-1                    MHz
 TauP xxxx     -0.9009771595D-03        -0.2701061572D+02
 TauP xxyy     -0.2606789719D-02        -0.7814958973D+02
 TauP yyyy     -0.6005307331D-01        -0.1800345846D+04
 TauP xxzz     -0.1376121277D-02        -0.4125507802D+02
 TauP yyzz      0.4361459749D-02         0.1307532739D+03
 TauP zzzz     -0.6869705867D-02        -0.2059486008D+03

 Sextic Distortion Constants
 ---------------------------
                       in cm-1                  in Hz
 Phi aaa         0.2876988675D-04         0.8624995066D+06
 Phi aab        -0.4218527356D-05        -0.1264682685D+06
 Phi aac        -0.1252826565D-06        -0.3755879554D+04
 Phi abb        -0.7044941817D-06        -0.2112020424D+05
 Phi abc        -0.3737397628D-05        -0.1120443622D+06
 Phi acc         0.1020345675D-07         0.3058919379D+03
 Phi bbb         0.6005548077D-06         0.1800418020D+05
 Phi bbc         0.3900024908D-08         0.1169198053D+03
 Phi bcc         0.1155120047D-07         0.3462962782D+03
 Phi ccc         0.4061518536D-08         0.1217612625D+03

 Sextic Centrifugal Distortion Constants Phi (Spectroscopic orient.)
 -------------------------------------------------------------------
                       cm^-1                    MHz
 Phi xxx         0.4061518536D-08         0.1217612625D-03
 Phi yxx         0.1020345675D-07         0.3058919379D-03
 Phi yyx        -0.1252826565D-06        -0.3755879554D-02
 Phi yyy         0.2876988675D-04         0.8624995066D+00
 Phi zxx         0.1155120047D-07         0.3462962782D-03
 Phi zyx        -0.3737397628D-05        -0.1120443622D+00
 Phi zyy        -0.4218527356D-05        -0.1264682685D+00
 Phi zzx         0.3900024908D-08         0.1169198053D-03
 Phi zzy        -0.7044941817D-06        -0.2112020424D-01
 Phi zzz         0.6005548077D-06         0.1800418020D-01

 Asymmetric Top Reduction
 ------------------------
       Asymmetry parameter     | Reference formula
  Kappa :        -0.3973468856 |    [2B-A-C]/[A-C]
  Delta :         0.3013265572 |       [B-C]/[A-C]
  Sigma :         0.3969618209 | [2A'-B'-C']/[B'-C']

 (A,B,C)   : equilibrium rotational constants
 (A',B',C'): effective rotational constants

 Constants in the A reduced Hamiltonian
 --------------------------------------
                       in cm^-1                 in Hz
 Phi J  :         0.1438697414D-04         0.4313106339D+06
 Phi K  :        -0.4831126161D-04        -0.1448335187D+07
 Phi JK :        -0.7914129958D-04        -0.2372596473D+07
 Phi KJ :         0.1136661419D-03         0.3407625206D+07
 phi j  :        -0.7191456308D-05        -0.2155944363D+06
 phi k  :        -0.2477734359D-04        -0.7428060739D+06
 phi jk :         0.2978336418D-04         0.8928827955D+06

 rho    :        -0.2779992562D-02
 mu     :        -0.3777712671D-05
 nu     :        -0.3792571218D-05
 lambda :        -0.1539722321D-05

 Constants in the S reduced Hamiltonian
 --------------------------------------
                       in cm^-1                 in Hz
 H J  :           0.1051719626D-04         0.3152976117D+06
 H K  :           0.1467808220D-04         0.4400378342D+06
 H JK :          -0.2892719924D-04        -0.8672156164D+06
 H KJ :           0.4332475594D-05         0.1298843508D+06
 h  1 :          -0.2945185130D-05        -0.8829442895D+05
 h  2 :           0.1934888940D-05         0.5800651112D+05
 h  3 :          -0.4246271178D-05        -0.1273000074D+06

     ==================================================
       Average Coordinates and Mean Square Amplitudes
     ==================================================

 NOTE: Temperature is given in K between parentheses
       For Cartesian and internal coords., units are given between
       parentheses next to each label

 Mean Square Amplitudes of Normal Coordinates (in amu.bohr^2)
 -----------------------------------------------------------
 Mode    <Q^2> (0)    <Q^2> (298.15)    <Q^2> (298.15) class.
    1     0.015902       0.015902          0.068727
    2     0.031879       0.031886          0.276219
    3     0.015498       0.015498          0.065281

 Average Normal Coordinates (in amu^1/2.bohr)
 --------------------------------------------
   Mode    <Q> (0)       <Q> (298.15)
      1    -0.040088       -0.040087
      2     0.003291        0.003289
      3     0.000000        0.000000

 Mean Square Amplitudes of Cartesian Coordinates
 -----------------------------------------------
    Label        <(S-Se)^2>^1/2 (0)    <(S-Se)^2>^1/2 (298.15)
 X(1)  (Angs)        0.000000              0.000000
 Y(1)  (Angs)        0.064939              0.064942
 Z(1)  (Angs)        0.063320              0.063324
 X(2)  (Angs)        0.000000              0.000000
 Y(2)  (Angs)        0.004428              0.004428
 Z(2)  (Angs)        0.007180              0.007181
 X(3)  (Angs)        0.000000              0.000000
 Y(3)  (Angs)        0.064939              0.064942
 Z(3)  (Angs)        0.063320              0.063324

 Average Cartesian Coordinates
 -----------------------------
    Label              Se         <S> = Sz (0)   <S> = Sz (298.15)
 X(1)  (Angs)       0.000000        0.000000        0.000000
 Y(1)  (Angs)       0.761554        0.772891        0.772891
 Z(1)  (Angs)      -0.531725       -0.540970       -0.540970
 X(2)  (Angs)       0.000000        0.000000        0.000000
 Y(2)  (Angs)       0.000000        0.000000        0.000000
 Z(2)  (Angs)       0.067007        0.068172        0.068172
 X(3)  (Angs)       0.000000        0.000000        0.000000
 Y(3)  (Angs)      -0.761554       -0.772891       -0.772891
 Z(3)  (Angs)      -0.531725       -0.540970       -0.540970

 Internal coordinates for the Equilibrium structure (Se)
                           Interatomic distances:
                    1          2          3
     1  H    0.000000
     2  O    0.968734   0.000000
     3  H    1.523108   0.968734   0.000000
                           Interatomic angles:
       H1-O2-H3=103.6513

 Internal coordinates for the vibrationally average structure at 0K (Sz)
                           Interatomic distances:
                    1          2          3
     1  H    0.000000
     2  O    0.984081   0.000000
     3  H    1.545782   0.984081   0.000000
                           Interatomic angles:
       H1-O2-H3=103.5142

 Internal coordinates for the vibr. average structure at 298.15K (Sa)
                           Interatomic distances:
                    1          2          3
     1  H    0.000000
     2  O    0.984080   0.000000
     3  H    1.545782   0.984080   0.000000
                           Interatomic angles:
       H1-O2-H3=103.5143

     ==================================================
      Vibrational Average of Electric-Field Properties
     ==================================================

 Electric dipole
 ---------------
 P1(diag): diagonal term (k_iii P_i) for the vibrational contribution
 P1(vib) : vibrational contribution to P1 (k_ijj P_i)
 P1(rot) : rotation contribution to P1
   ## Vibrational contributions to averages at    0K (Unit: Debye) ##
 ---------------------------------------------------------------------------
          Mode |   P1(diag)     P1(vib)    P1(rot)        P2     |  P1(tot)+P2
 ---------------------------------------------------------------------------
 X           1 |  -0.257D-17  -0.489D-17   0.000D+00   0.314D-15 |   0.309D-15
 X           2 |   0.584D-18  -0.258D-18   0.000D+00   0.630D-16 |   0.627D-16
 X           3 |   0.000D+00   0.000D+00   0.000D+00   0.642D-16 |   0.642D-16
 Y           1 |   0.251D-09   0.476D-09   0.000D+00  -0.160D-08 |  -0.112D-08
 Y           2 |   0.284D-10  -0.125D-10   0.000D+00   0.109D-08 |   0.108D-08
 Y           3 |   0.000D+00   0.000D+00   0.000D+00  -0.222D-09 |  -0.222D-09
 Z           1 |  -0.656D-02  -0.125D-01   0.000D+00   0.415D-02 |  -0.830D-02
 Z           2 |   0.608D-02  -0.268D-02   0.000D+00   0.394D-02 |   0.126D-02
 Z           3 |   0.000D+00   0.000D+00   0.000D+00   0.151D-02 |   0.151D-02
 ---------------------------------------------------------------------------

   ## Contributions from 1st and 2nd derivatives (Unit:Debye, T=    0K) ##
 ----------------------------------------------------------------------
                P_0             P_1             P_2              <P>
 ----------------------------------------------------------------------
 X      |    -0.1855D-15    -0.5145D-17     0.4412D-15 |     0.2506D-15
 Y      |    -0.5054D-14     0.4634D-09    -0.7276D-09 |    -0.2641D-09
 Z      |    -0.2250D+01    -0.1513D-01     0.9603D-02 |    -0.2255D+01
 ----------------------------------------------------------------------

   ## Vibrational contributions to averages at  298K (Unit: Debye) ##
 ---------------------------------------------------------------------------
          Mode |   P1(diag)     P1(vib)    P1(rot)        P2     |  P1(tot)+P2
 ---------------------------------------------------------------------------
 X           1 |  -0.257D-17  -0.489D-17  -0.250D-18   0.314D-15 |   0.309D-15
 X           2 |   0.584D-18  -0.258D-18  -0.135D-18   0.630D-16 |   0.626D-16
 X           3 |   0.000D+00   0.000D+00  -0.182D-27   0.642D-16 |   0.642D-16
 Y           1 |   0.251D-09   0.476D-09   0.244D-10  -0.160D-08 |  -0.110D-08
 Y           2 |   0.284D-10  -0.125D-10  -0.657D-11   0.109D-08 |   0.107D-08
 Y           3 |   0.000D+00   0.000D+00  -0.915D-12  -0.222D-09 |  -0.223D-09
 Z           1 |  -0.656D-02  -0.125D-01  -0.637D-03   0.415D-02 |  -0.894D-02
 Z           2 |   0.608D-02  -0.268D-02  -0.141D-02   0.394D-02 |  -0.143D-03
 Z           3 |   0.000D+00   0.000D+00  -0.681D-20   0.151D-02 |   0.151D-02
 ---------------------------------------------------------------------------

   ## Contributions from 1st and 2nd derivatives (Unit:Debye, T=  298K) ##
 ----------------------------------------------------------------------
                P_0             P_1             P_2              <P>
 ----------------------------------------------------------------------
 X      |    -0.1855D-15    -0.5530D-17     0.4412D-15 |     0.2502D-15
 Y      |    -0.5054D-14     0.4803D-09    -0.7273D-09 |    -0.2470D-09
 Z      |    -0.2250D+01    -0.1717D-01     0.9604D-02 |    -0.2257D+01
 ----------------------------------------------------------------------

 ------------------------------------------------------------------------
  Property at reference geometry, Unit: Debye
 ------------------------------------------------------------------------
     X=     0.00000000     Y=     0.00000000     Z=    -2.24973735
 ------------------------------------------------------------------------
  Temperature:     0K, Unit: Debye
 ------------------------------------------------------------------------
     X=     0.00000000     Y=     0.00000000     Z=    -2.25526659
 ------------------------------------------------------------------------
  Temperature:   298K, Unit: Debye
 ------------------------------------------------------------------------
     X=     0.00000000     Y=     0.00000000     Z=    -2.25730728

     ==================================================
                     Resonance Analysis
     ==================================================

 Thresholds
 ----------
 1-2 Fermi resonances:
     * Maximum Frequency difference (cm^-1)            :    200.000
     * Test 1: Martin's test (cm^-1)                   :      1.000
               J. Chem. Phys. 103, 2589 (1995)
     * Test 2: Wave-function coefficients (no unit)    :      0.100
               J. Phys. Chem. A, ASAP (2022)
 2-2 Darling-Dennison resonances:
     * Maximum Frequency difference (cm^-1)            :    100.000
     * Test: Magnitude of off-diagonal term (cm^-1)    :     10.000
             Mol. Phys. 112, 261 (2014)
 1-1 Darling-Dennison resonances:
     * Maximum Frequency difference (cm^-1)            :    100.000
     * Test 1: Magnitude of off-diagonal term (cm^-1)  :     10.000
               Mol. Phys. 112, 261 (2014)
     * Test 2: Wave-function coefficients (no unit)    :      0.300
               J. Phys. Chem. A, ASAP (2022)

 1-2 Fermi resonances
 --------------------
     I  |     J  +   K  | Freq.Diff. |   K (Test 1)   |   K (Test 2)   | Status
      1 |      2      2 |     9.0042 |      12010.495 |          6.043 | Active

     1 active resonances out of     1

 2-2 Darling-Dennison resonances
 -------------------------------
  No resonances found.

 1-1 Darling-Dennison resonances
 -------------------------------
  No resonances found.

     ==================================================
                    Anharmonic X Matrix
     ==================================================

 PT2 model: Deperturbed VPT2 (DVPT2)
 Ref.: V. Barone, J. Chem. Phys. 122, 1, 014108 (2005)

 Coriolis contributions to X Matrix (in cm^-1)
 ---------------------------------------------
                1             2             3
      1  0.000000D+00
      2  0.000000D+00  0.000000D+00
      3  0.721899D-03  0.236757D+02  0.000000D+00

 3rd Deriv. contributions to X Matrix (in cm^-1)
 -----------------------------------------------
                1             2             3
      1 -0.887541D+02
      2  0.270011D+02 -0.450752D+01
      3 -0.360192D+03  0.314989D+02 -0.971829D+02

 4th Deriv. contributions to X Matrix (in cm^-1)
 -----------------------------------------------
                1             2             3
      1  0.481776D+02
      2 -0.644822D+02 -0.582529D+01
      3  0.196838D+03 -0.787766D+02  0.500122D+02

 Total Anharmonic X Matrix (in cm^-1)
 ------------------------------------
                1             2             3
      1 -0.405765D+02
      2 -0.374810D+02 -0.103328D+02
      3 -0.163353D+03 -0.236020D+02 -0.471707D+02

     ==================================================
       Variational Correction to Deperturbed Energies
     ==================================================

 Polyad num. 1
 -------------
                        1             2
 1        |1(1)>   0.360416D+04 -0.544159D+02
 2        |2(2)>  -0.544159D+02  0.365365D+04

 NOTE: Some variational states have low overlap on harmonic states.
       Reassignment on harmonic states may fail.

 Projection of DVPT2 states on New Variational States
 ----------------------------------------------------

 NOTE: Only states with projection lower than 80% are shown below.

   ### LOW CHANGES WITH RESPECT TO THE DEPERTURBED STATES (<=50%) ###
  State |1(1)>        has overlap of 70.7% with state 2
  State |2(2)>        has overlap of 70.7% with state 4

 Vibrational Energies (cm^-1)
 ----------------------------
   Mode(n)     Mode(n)        E(depert.)    E(after diag.)
      1(1)                       3604.162        3569.128
      2(2)                       3653.648        3688.683

     ==================================================
          Computation of Wavefunction Coefficients
     ==================================================

 Final coefficients
 ------------------
                 1             2             3             4             5
      1  -0.504803D-02  0.840809D+00  0.000000D+00 -0.541332D+00  0.100000D+01
      2   0.100000D+01  0.864575D+00  0.000000D+00  0.185717D+01  0.979672D+00
      3   0.000000D+00  0.000000D+00  0.100000D+01  0.000000D+00  0.000000D+00
                 6             7             8             9
      1   0.200000D+01  0.000000D+00  0.100000D+01  0.114819D+00
      2  -0.330552D-02  0.100000D+01  0.000000D+00 -0.104789D-01
      3   0.000000D+00  0.953853D+00  0.117084D+01  0.200000D+01

     ==================================================
                Anharmonic Zero Point Energy
     ==================================================

 Anharmonic X0 Term
 ------------------
 U term         : cm-1 =   -12.50013 ; Kcal/mol =  -0.036 ; KJ/mol =  -0.150
 Coriolis       : cm-1 =    -4.65498 ; Kcal/mol =  -0.013 ; KJ/mol =  -0.056
 Anharmonic     : cm-1 =    25.31859 ; Kcal/mol =   0.072 ; KJ/mol =   0.303
 Total X0       : cm-1 =     8.16348 ; Kcal/mol =   0.023 ; KJ/mol =   0.098

 Anharmonic Zero Point Energy
 ----------------------------
 Harmonic       : cm-1 =  4779.23256 ; Kcal/mol =  13.665 ; KJ/mol =  57.172
 Anharmonic Pot.: cm-1 =   -61.22958 ; Kcal/mol =  -0.175 ; KJ/mol =  -0.732
 Watson+Coriolis: cm-1 =   -11.23601 ; Kcal/mol =  -0.032 ; KJ/mol =  -0.134
 Total Anharm   : cm-1 =  4706.76697 ; Kcal/mol =  13.457 ; KJ/mol =  56.305

 Comparison between old and new code
 -----------------------------------
 DZPE = ZPE(total) - ZPE(harmonic) [in cm^-1]
 Old DZPE: -0.81224D+02, New DZPE: -0.72466D+02
 Percentage: |old DZPE - New DZPE|/|old DZPE| =   -10.78%


     ==================================================
          Vibrational Energies at Anharmonic Level
     ==================================================

 Units: Vibrational energies and rotational constants in cm^-1.
 NOTE: Transition energies are given with respect to the ground state.

 Reference Data
 --------------
                              E(harm)  E(anharm)     Aa(y)      Ba(z)      Ca(x)
 Equilibrium Geometry                             26.271267  14.443064   9.293491
 Ground State                 4779.233  4706.767  26.451548  14.339898   9.060340

 NOTE: H and L indicates if there is a high or low overlap with the
       state to which it is assigned. In absence of indicator, the state
       is unchanged or nearly unchanged after variational correction.

 Fundamental Bands
 -----------------
     Mode(n)      Status      E(harm)  E(anharm)     Aa(y)      Ba(z)      Ca(x)
 H      1(1)      active      3785.733  3569.128  25.827014  14.115488   8.888225
        2(1)      active      1888.364  1837.157  28.403283  14.504217   8.893140
        3(1)      active      3884.368  3696.549  25.484910  14.193654   8.933354

 Overtones
 ---------
     Mode(n)                  E(harm)  E(anharm)     Aa(y)      Ba(z)      Ca(x)
        1(2)                  7571.465  7127.172  25.202479  13.891079   8.716109
 H      2(2)                  3776.728  3688.683  30.355019  14.668536   8.725940
        3(2)                  7768.737  7298.757  24.518271  14.047411   8.806367

 Combination Bands
 -----------------
     Mode(n)     Mode(n)      E(harm)  E(anharm)     Aa(y)      Ba(z)      Ca(x)
        2(1)        1(1)      5674.097  5403.838  27.778749  14.279807   8.721024
        3(1)        1(1)      7670.101  7137.359  24.860375  13.969245   8.761238
        3(1)        2(1)      5772.733  5510.104  27.436645  14.357973   8.766154

     ==================================================
      Thermodynamic properties and Partition Functions
     ==================================================

 ZPE(harm) = 0.57172D+02 kJ/mol        ZPE(anh)= 0.56305D+02 kJ/mol

 Simple Perturbation Theory (SPT)
 --------------------------------

 T =  298.15 K;  P =   1.00 atm
                    Harmonic value     SPT anharmonic value
 Qvib               0.96359D-10          0.13670D-09
 QZvib              0.10001D+01          0.10001D+01
 Energy             0.64612D+02          0.63745D+02         kJ/mol
 Enthalpy           0.67091D+02          0.66224D+02         kJ/mol
 Entropy            0.18884D+03          0.18884D+03         J/(mol K)
 Sp.Heat(V)         0.25020D+02          0.25036D+02         J/(mol K)
 Sp.Heat(P)         0.33334D+02          0.33350D+02         J/(mol K)

 T =  500.00 K;  P =   1.00 atm
                    Harmonic value     SPT anharmonic value
 Qvib               0.10697D-05          0.13187D-05
 QZvib              0.10044D+01          0.10051D+01
 Energy             0.69745D+02          0.68891D+02         kJ/mol
 Enthalpy           0.73902D+02          0.73049D+02         kJ/mol
 Entropy            0.20627D+03          0.20630D+03         J/(mol K)
 Sp.Heat(V)         0.26058D+02          0.26184D+02         J/(mol K)
 Sp.Heat(P)         0.34372D+02          0.34498D+02         J/(mol K)

 T = 1000.00 K;  P =   1.00 atm
                    Harmonic value     SPT anharmonic value
 Qvib               0.11140D-02          0.12465D-02
 QZvib              0.10794D+01          0.10883D+01
 Energy             0.84084D+02          0.83402D+02         kJ/mol
 Enthalpy           0.92399D+02          0.91717D+02         kJ/mol
 Entropy            0.23168D+03          0.23194D+03         J/(mol K)
 Sp.Heat(V)         0.31644D+02          0.32202D+02         J/(mol K)
 Sp.Heat(P)         0.39958D+02          0.40517D+02         J/(mol K)

 T = 1500.00 K;  P =   1.00 atm
                    Harmonic value     SPT anharmonic value
 Qvib               0.12849D-01          0.14067D-01
 QZvib              0.12582D+01          0.12850D+01
 Energy             0.10138D+03          0.10103D+03         kJ/mol
 Enthalpy           0.11385D+03          0.11350D+03         kJ/mol
 Entropy            0.24900D+03          0.24952D+03         J/(mol K)
 Sp.Heat(V)         0.37298D+02          0.37995D+02         J/(mol K)
 Sp.Heat(P)         0.45612D+02          0.46309D+02         J/(mol K)

 T = 2000.00 K;  P =   1.00 atm
                    Harmonic value     SPT anharmonic value
 Qvib               0.49292D-01          0.53751D-01
 QZvib              0.15344D+01          0.15882D+01
 Energy             0.12108D+03          0.12106D+03         kJ/mol
 Enthalpy           0.13771D+03          0.13769D+03         kJ/mol
 Entropy            0.26271D+03          0.26341D+03         J/(mol K)
 Sp.Heat(V)         0.41231D+02          0.41838D+02         J/(mol K)
 Sp.Heat(P)         0.49545D+02          0.50153D+02         J/(mol K)

     ==================================================
               Anharmonic Transition Moments
     ==================================================

 Electric dipole : 1 quantum
 ------------------------------------------------------------------------

 ---------------------------------------------------------------------------
  FUNDAMENTAL:      1(1)           - Harm. Freq.:   3785.733 cm^-1
 ---------------------------------------------------------------------------
      Term                  X                Y                Z
     + HARMONIC        0.604830D-17    -0.589048D-09     0.154115D-01
     + ELECTRIC        0.157439D-19     0.388391D-20    -0.788483D-04
        + MIXED       -0.117034D-15     0.579981D-09    -0.161506D-02
 + CUBIC    (1)        0.165754D-18    -0.213856D-10     0.140463D-03
 + QUARTIC  (2)       -0.120714D-18     0.130879D-10    -0.235998D-03
 + CORIOLIS (3)       -0.158457D-21    -0.769604D-14    -0.164730D-05
    (1)+(2)+(3)        0.448810D-19    -0.830540D-11    -0.971820D-04
        = TOTAL       -0.110925D-15    -0.173724D-10     0.136204D-01
 ---------------------------------------------------------------------------
  FUNDAMENTAL:      2(1)           - Harm. Freq.:   1888.364 cm^-1
 ---------------------------------------------------------------------------
      Term                  X                Y                Z
     + HARMONIC       -0.550212D-17    -0.267269D-09    -0.572014D-01
     + ELECTRIC        0.105408D-19     0.260035D-20    -0.527904D-04
        + MIXED        0.469580D-16    -0.144952D-09     0.797129D-03
 + CUBIC    (1)       -0.457700D-19     0.922705D-11     0.139815D-03
 + QUARTIC  (2)       -0.101224D-18    -0.785130D-11    -0.121012D-02
 + CORIOLIS (3)        0.104311D-19     0.539015D-12     0.110182D-03
    (1)+(2)+(3)       -0.136563D-18     0.191477D-11    -0.960118D-03
        = TOTAL        0.413299D-16    -0.410306D-09    -0.574172D-01
 ---------------------------------------------------------------------------
  FUNDAMENTAL:      3(1)           - Harm. Freq.:   3884.368 cm^-1
 ---------------------------------------------------------------------------
      Term                  X                Y                Z
     + HARMONIC       -0.528752D-17    -0.265297D-01    -0.197248D-09
     + ELECTRIC        0.244897D-18    -0.438045D-03    -0.215772D-19
        + MIXED       -0.569460D-17     0.278184D-02    -0.104846D-08
 + CUBIC    (1)       -0.169851D-18    -0.852217D-03    -0.633621D-11
 + QUARTIC  (2)        0.108255D-18     0.543163D-03     0.403840D-11
 + CORIOLIS (3)       -0.497668D-20    -0.249701D-04    -0.185652D-12
    (1)+(2)+(3)       -0.665729D-19    -0.334025D-03    -0.248346D-11
        = TOTAL       -0.108038D-16    -0.245200D-01    -0.124819D-08
 -----------------------------------------------------------------------

 Electric dipole : 2 quanta
 ------------------------------------------------------------------------

 ---------------------------------------------------------------------------
  OVERTONE   :      1(2)           - Harm. Freq.:   7571.465 cm^-1
 ---------------------------------------------------------------------------
      Term                  X                Y                Z
     + ELECTRIC        0.174727D-15    -0.889973D-09     0.230929D-02
     + MECHANIC        0.484517D-18    -0.461275D-10     0.129157D-02
        = TOTAL        0.175212D-15    -0.936101D-09     0.360086D-02
 ---------------------------------------------------------------------------
  COMBINATION:      2(1),     1(1) - Harm. Freq.:   5674.097 cm^-1
 ---------------------------------------------------------------------------
      Term                  X                Y                Z
     + ELECTRIC       -0.159701D-15     0.452512D-09    -0.278342D-02
     + MECHANIC       -0.122494D-19     0.934614D-11     0.407159D-03
        = TOTAL       -0.159714D-15     0.461858D-09    -0.237626D-02
 ---------------------------------------------------------------------------
  OVERTONE   :      2(2)           - Harm. Freq.:   3776.728 cm^-1
 ---------------------------------------------------------------------------
      Term                  X                Y                Z
     + ELECTRIC        0.350275D-16     0.608597D-09     0.219265D-02
     + MECHANIC       -0.648552D-19    -0.950294D-11    -0.101581D-02
        = TOTAL        0.349627D-16     0.599094D-09     0.117684D-02
 ---------------------------------------------------------------------------
  COMBINATION:      3(1),     1(1) - Harm. Freq.:   7670.101 cm^-1
 ---------------------------------------------------------------------------
      Term                  X                Y                Z
     + ELECTRIC        0.383506D-17    -0.430598D-02     0.161163D-08
     + MECHANIC       -0.607356D-18    -0.304736D-02    -0.226570D-10
        = TOTAL        0.322770D-17    -0.735334D-02     0.158898D-08
 ---------------------------------------------------------------------------
  COMBINATION:      3(1),     2(1) - Harm. Freq.:   5772.733 cm^-1
 ---------------------------------------------------------------------------
      Term                  X                Y                Z
     + ELECTRIC       -0.489866D-16     0.592775D-02    -0.231749D-08
     + MECHANIC        0.196292D-18     0.984883D-03     0.732257D-11
        = TOTAL       -0.487903D-16     0.691264D-02    -0.231017D-08
 ---------------------------------------------------------------------------
  OVERTONE   :      3(2)           - Harm. Freq.:   7768.737 cm^-1
 ---------------------------------------------------------------------------
      Term                  X                Y                Z
     + ELECTRIC        0.357447D-16    -0.123443D-09     0.841392D-03
     + MECHANIC        0.477618D-18    -0.432243D-10     0.139397D-02
        = TOTAL        0.362223D-16    -0.166667D-09     0.223536D-02
 -----------------------------------------------------------------------

     ==================================================
              Anharmonic Infrared Spectroscopy
     ==================================================

 Units: Transition energies (E) in cm^-1
        Integrated intensity (I) in km.mol^-1

 Fundamental Bands
 -----------------
   Mode(n)                  E(harm)   E(anharm)        I(harm)       I(anharm)
      1(1)                  3785.733   3569.128     14.56118181      8.44726300
      2(1)                  1888.364   1837.157    100.05908767     98.08158105
      3(1)                  3884.368   3696.549     44.27346535     35.99097401

 Overtones
 ---------
   Mode(n)                  E(harm)   E(anharm)                      I(anharm)
      1(2)                  7571.465   7127.172                      1.49653344
      2(2)                  3776.728   3688.683                      2.43426070
      3(2)                  7768.737   7298.757                      0.59060977

 Combination Bands
 -----------------
   Mode(n)     Mode(n)      E(harm)   E(anharm)                      I(anharm)
      2(1)        1(1)      5674.097   5403.838                      0.49413720
      3(1)        1(1)      7670.101   7137.359                      6.24976871
      3(1)        2(1)      5772.733   5510.104                      4.26387494

 Units: Transition energies (E) in cm^-1
        Dipole strengths (DS) in 10^-40 esu^2.cm^2

 Fundamental Bands
 -----------------
   Mode(n)                  E(harm)   E(anharm)       DS(harm)      DS(anharm)
      1(1)                  3785.733   3569.128     15.34454794      9.44194060
      2(1)                  1888.364   1837.157    211.38696073    212.98478980
      3(1)                  3884.368   3696.549     45.47058111     38.84226021

 Overtones
 ---------
   Mode(n)                  E(harm)   E(anharm)                     DS(anharm)
      1(2)                  7571.465   7127.172                      0.83767702
      2(2)                  3776.728   3688.683                      2.63271115
      3(2)                  7768.737   7298.757                      0.32281901

 Combination Bands
 -----------------
   Mode(n)     Mode(n)      E(harm)   E(anharm)                     DS(anharm)
      2(1)        1(1)      5674.097   5403.838                      0.36479813
      3(1)        1(1)      7670.101   7137.359                      3.49328349
      3(1)        2(1)      5772.733   5510.104                      3.08710953
 Write normal modes, IRwNMS=   797 IRotNM=-1 NVibU=     9.
 Normal modes: 
                 1             2             3             4             5 
      1   0.000000D+00  0.000000D+00  0.000000D+00  0.000000D+00  0.000000D+00
      2  -0.412909D+00 -0.837512D+00 -0.533339D+00 -0.464399D+00 -0.975874D+00
      3  -0.537767D+00 -0.133781D+00  0.419310D+00 -0.120716D+01 -0.133075D+00
      4   0.000000D+00  0.000000D+00  0.000000D+00  0.000000D+00  0.000000D+00
      5   0.000000D+00  0.000000D+00  0.672104D-01  0.000000D+00  0.000000D+00
      6   0.677684D-01  0.168589D-01  0.000000D+00  0.152124D+00  0.167698D-01
      7   0.000000D+00  0.000000D+00  0.000000D+00  0.000000D+00  0.000000D+00
      8   0.412909D+00  0.837512D+00 -0.533339D+00  0.464399D+00  0.975874D+00
      9  -0.537767D+00 -0.133781D+00 -0.419310D+00 -0.120716D+01 -0.133075D+00
                 6             7             8             9 
      1   0.000000D+00  0.000000D+00  0.000000D+00  0.000000D+00
      2  -0.113572D+01 -0.924506D+00 -0.119300D+01 -0.112760D+01
      3   0.785417D+00 -0.135829D+00  0.882768D+00  0.889224D+00
      4   0.000000D+00  0.000000D+00  0.000000D+00  0.000000D+00
      5   0.000000D+00  0.641088D-01  0.786927D-01  0.134421D+00
      6  -0.989768D-01  0.675191D-01 -0.493768D-01 -0.637693D-02
      7   0.000000D+00  0.000000D+00  0.000000D+00  0.000000D+00
      8   0.113572D+01 -0.929481D-01 -0.559081D-01 -0.100576D+01
      9   0.785417D+00 -0.935749D+00 -0.991227D-01 -0.788017D+00

 Leave Link  717 at Tue Mar 10 00:06:57 2026, MaxMem=  4294967296 cpu:               0.0 elap:               0.0
 (Enter /Users/vincenzobarone/gdv_j32p/gdv/l103.exe)

 GradGradGradGradGradGradGradGradGradGradGradGradGradGradGradGradGradGrad
 Berny optimization.
 Internal  Forces:  Max     0.021893955 RMS     0.018020016
 Search for a local minimum.
 Step number     1 out of a maximum of     2
 All quantities printed in internal units (Hartrees-Bohrs-Radians)
 Second derivative matrix not updated -- analytic derivatives used.
 The second derivative matrix:
                          R1        R2        A1
           R1           0.52847
           R2          -0.00524   0.52847
           A1           0.02834   0.02834   0.19470
 ITU=  0
     Eigenvalues ---    0.18988   0.52804   0.53371
 Angle between quadratic step and forces=  20.83 degrees.
 Linear search not attempted -- first point.
 GrdOpt: GIC=T ITstSp= 0 NP=   1 DidLin=F DidDIS=F IRisen=  0
         ISwap=1 XLin= 0.000 DXMaxT= 0.300 DidEig=F Rises=F
 Iteration  1 RMS(Cart)=  0.01562383 RMS(Int)=  0.00050406
 Iteration  2 RMS(Cart)=  0.00032222 RMS(Int)=  0.00000013
 Iteration  3 RMS(Cart)=  0.00000005 RMS(Int)=  0.00000000
 ClnCor:  largest displacement from symmetrization is 2.01D-11 for atom     3.
 Variable       Old X    -DE/DX   Delta X   Delta X   Delta X     New X
                                 (Linear)    (Quad)   (Total)
    R1        1.83064  -0.02189   0.00000  -0.04363  -0.04363   1.78702
    R2        1.83064  -0.02189   0.00000  -0.04363  -0.04363   1.78702
    A1        1.80906   0.00393   0.00000   0.03290   0.03290   1.84196
         Item               Value     Threshold  Converged?
 Maximum Force            0.021894     0.000450     NO 
 RMS     Force            0.018020     0.000300     NO 
 Maximum Displacement     0.033482     0.001800     NO 
 RMS     Displacement     0.027166     0.001200     NO 
 Predicted change in Energy=-1.019856D-03
                           ----------------------------
                           ! Non-Optimized Parameters !
                           ! (Angstroms and Degrees)  !
 --------------------------                            --------------------------
 ! Name  Definition              Value          Derivative Info.                !
 --------------------------------------------------------------------------------
 ! R1    R(1,2)                  0.9456         -DE/DX =   -0.0219              !
 ! R2    R(2,3)                  0.9456         -DE/DX =   -0.0219              !
 ! A1    A(1,2,3)              105.5364         -DE/DX =    0.0039              !
 --------------------------------------------------------------------------------
 GradGradGradGradGradGradGradGradGradGradGradGradGradGradGradGradGradGrad

 Leave Link  103 at Tue Mar 10 00:06:57 2026, MaxMem=  4294967296 cpu:               0.0 elap:               0.0
 (Enter /Users/vincenzobarone/gdv_j32p/gdv/l9999.exe)

 ----------------------------------------------------------------------

 Electric dipole moment (input orientation):
 (Debye = 10**-18 statcoulomb cm , SI units = C m)
                  (au)            (Debye)         (10**-30 SI)
   Tot        0.885115D+00      0.224974D+01      0.750432D+01
   x          0.885115D+00      0.224974D+01      0.750432D+01
   y          0.000000D+00      0.000000D+00      0.000000D+00
   z          0.000000D+00      0.000000D+00      0.000000D+00

 Dipole polarizability, Alpha (input orientation).
 (esu units = cm**3 , SI units = C**2 m**2 J**-1)
 Alpha(0;0):
               (au)            (10**-24 esu)      (10**-40 SI)
   iso        0.498344D+01      0.738469D+00      0.821658D+00
   aniso      0.374842D+01      0.555459D+00      0.618031D+00
   xx         0.510680D+01      0.756750D+00      0.841998D+00
   yx         0.000000D+00      0.000000D+00      0.000000D+00
   yy         0.708327D+01      0.104963D+01      0.116787D+01
   zx         0.000000D+00      0.000000D+00      0.000000D+00
   zy         0.000000D+00      0.000000D+00      0.000000D+00
   zz         0.276024D+01      0.409025D+00      0.455102D+00

 First dipole hyperpolarizability, Beta (input orientation).
 ||, _|_  parallel and perpendicular components, (z) with respect to z axis,
 vector components x,y,z.  Values do not include the 1/n! factor of 1/2.
 (esu units = statvolt**-1 cm**4 , SI units = C**3 m**3 J**-2)
 Beta(0;0,0):
               (au)            (10**-30 esu)      (10**-50 SI)
   || (z)     0.000000D+00      0.000000D+00      0.000000D+00
   _|_(z)     0.000000D+00      0.000000D+00      0.000000D+00
   x          0.938250D+02      0.810575D+00      0.300837D+00
   y          0.505276D-05      0.436519D-07      0.162010D-07
   z          0.000000D+00      0.000000D+00      0.000000D+00
   ||         0.187650D+02      0.162115D+00      0.601674D-01
   xxx        0.102597D+02      0.886362D-01      0.328965D-01
   xxy        0.152255D-05      0.131537D-07      0.488185D-08
   yxy        0.208728D+02      0.180325D+00      0.669257D-01
   yyy        0.000000D+00      0.000000D+00      0.000000D+00
   xxz        0.000000D+00      0.000000D+00      0.000000D+00
   yxz        0.000000D+00      0.000000D+00      0.000000D+00
   yyz        0.000000D+00      0.000000D+00      0.000000D+00
   zxz        0.142463D+00      0.123077D-02      0.456788D-03
   zyz        0.000000D+00      0.000000D+00      0.000000D+00
   zzz        0.000000D+00      0.000000D+00      0.000000D+00

 ----------------------------------------------------------------------

 Dipole orientation:
     1          0.00000000         -1.43912837          1.25901891
     8          0.00000000          0.00000000          0.12757875
     1          0.00000000          1.43912837          1.25901891

 Electric dipole moment (dipole orientation):
 (Debye = 10**-18 statcoulomb cm , SI units = C m)
                  (au)            (Debye)         (10**-30 SI)
   Tot        0.885115D+00      0.224974D+01      0.750432D+01
   x          0.000000D+00      0.000000D+00      0.000000D+00
   y          0.000000D+00      0.000000D+00      0.000000D+00
   z          0.885115D+00      0.224974D+01      0.750432D+01

 Dipole polarizability, Alpha (dipole orientation).
 (esu units = cm**3 , SI units = C**2 m**2 J**-1)
 Alpha(0;0):
               (au)            (10**-24 esu)      (10**-40 SI)
   iso        0.498344D+01      0.738469D+00      0.821658D+00
   aniso      0.374842D+01      0.555459D+00      0.618031D+00
   xx         0.276024D+01      0.409025D+00      0.455102D+00
   yx         0.000000D+00      0.000000D+00      0.000000D+00
   yy         0.708327D+01      0.104963D+01      0.116787D+01
   zx         0.000000D+00      0.000000D+00      0.000000D+00
   zy         0.000000D+00      0.000000D+00      0.000000D+00
   zz         0.510680D+01      0.756750D+00      0.841998D+00

 First dipole hyperpolarizability, Beta (dipole orientation).
 ||, _|_  parallel and perpendicular components, (z) with respect to z axis,
 vector components x,y,z.  Values do not include the 1/n! factor of 1/2.
 (esu units = statvolt**-1 cm**4 , SI units = C**3 m**3 J**-2)
 Beta(0;0,0):
               (au)            (10**-30 esu)      (10**-50 SI)
   || (z)     0.187650D+02      0.162115D+00      0.601674D-01
   _|_(z)     0.625500D+01      0.540383D-01      0.200558D-01
   x          0.000000D+00      0.000000D+00      0.000000D+00
   y          0.505276D-05      0.436519D-07      0.162010D-07
   z          0.938250D+02      0.810575D+00      0.300837D+00
   ||         0.187650D+02      0.162115D+00      0.601674D-01
   xxx        0.000000D+00      0.000000D+00      0.000000D+00
   xxy        0.000000D+00      0.000000D+00      0.000000D+00
   yxy        0.000000D+00      0.000000D+00      0.000000D+00
   yyy        0.000000D+00      0.000000D+00      0.000000D+00
   xxz        0.142463D+00      0.123077D-02      0.456788D-03
   yxz        0.000000D+00      0.000000D+00      0.000000D+00
   yyz        0.208728D+02      0.180325D+00      0.669257D-01
   zxz        0.000000D+00      0.000000D+00      0.000000D+00
   zyz        0.152255D-05      0.131537D-07      0.488185D-08
   zzz        0.102597D+02      0.886362D-01      0.328965D-01

 ----------------------------------------------------------------------

 Job not archived.
 1\1\GINC-MACBOOK-PRO-DI-VINCENZO\Freq\RHF\Gen\H2O1\VINCENZOBARONE\10-M
 ar-2026\0\\#P Freq=ANHARM SYMM=COM geom=checkpoint guess=read chkbas i
 op(7/8=10,7/33=2)\\H20\\0,1\H,0.6662441158,-0.7615539378,0.\O,0.067511
 7684,0.,0.\H,0.6662441158,0.7615539378,0.\\Version=AppleM1-GDVRevJ.32+
 \State=1-A1\HF=-76.0097748\RMSD=1.155e-09\RMSF=1.451e-02\ZeroPoint=0.0
 217758\Thermal=0.0246093\ETot=-75.9851655\HTot=-75.9842213\GTot=-76.00
 56661\Dipole=0.8851148,0.,0.\DipoleDeriv=0.2212553,0.1084784,0.,0.0642
 172,0.2531668,0.,0.,0.,0.3911452,-0.4425106,0.,0.,0.,-0.5063336,0.,0.,
 0.,-0.7822904,0.2212553,-0.1084784,0.,-0.0642172,0.2531668,0.,0.,0.,0.
 3911452\Polar=5.106802,0.,7.0832675,0.,0.,2.7602396\HyperPolar=10.2597
 477,0.0000015,20.8727977,0.0000002,0.,0.,0.,0.142463,0.,0.\Quadrupole=
 -0.0104946,1.1580507,-1.1475561,0.,0.,0.\PG=C02V [C2(O1),SGV(H2)]\NIma
 g=0\\0.22898540,-0.21880104,0.36953978,0.,0.,0.01224479,-0.24784527,0.
 18437256,0.,0.49569054,0.25322952,-0.33554639,0.,0.,0.67109278,0.,0.,-
 0.01345265,0.,0.,0.02690530,0.01885987,0.03442848,0.,-0.24784527,-0.25
 322952,0.,0.22898540,-0.03442848,-0.03399339,0.,-0.18437256,-0.3355463
 9,0.,0.21880104,0.36953978,0.,0.,0.00120786,0.,0.,-0.01345265,0.,0.,0.
 01224479\\0.01522087,-0.01588355,0.,-0.03044175,0.,0.,0.01522087,0.015
 88355,0.\\0.10581112,0.02015074,-0.15965926,0.,0.,0.01055787,-0.097882
 61,-0.02277104,0.,0.19576527,-0.01753038,0.22982536,0.,0.,-0.45965071,
 0.,0.,-0.05722305,0.,0.,0.11444610,-0.00792851,0.00262031,0.,-0.097882
 66,0.01753038,0.,0.10581117,-0.00262036,-0.07016610,0.,0.02277105,0.22
 982536,0.,-0.02015069,-0.15965926,0.,0.,0.04666518,0.,0.,-0.05722305,0
 .,0.,0.01055787,0.41837212,-0.74147277,0.83979331,0.,0.,-0.19794320,-0
 .43454883,0.70338449,0.,0.86909761,0.77956100,-0.80573477,0.,0.,1.6114
 6953,0.,0.,0.18417138,0.,0.,-0.36834276,0.01617671,0.03808829,0.,-0.43
 454878,-0.77956100,0.,0.41837207,-0.03808822,-0.03405855,0.,-0.7033844
 9,-0.80573477,0.,0.74147272,0.83979331,0.,0.,0.01377182,0.,0.,0.184171
 38,0.,0.,-0.19794320,0.46274814,-0.77923162,0.80719052,0.,0.,-0.208329
 59,-0.46274819,0.79746001,0.,0.00000019,0.79745998,-0.80719052,0.,-1.5
 9491995,0.,0.,0.,0.20832959,0.,0.,0.,0.00000004,-0.01822840,0.,0.46274
 800,0.79745998,0.,-0.46274805,-0.01822836,0.,0.,0.79745994,0.80719052,
 0.,-0.77923158,-0.80719051,0.,0.,0.,0.,0.,-0.20832959,0.,0.,0.20832959
 ,-0.35276518,0.36061481,-0.23030832,0.,0.,-0.00249784,0.42290967,-0.27
 610224,0.,-0.84581767,-0.44511884,0.24761331,0.,-0.00000275,-0.4952294
 4,0.,0.,0.00044223,0.,0.,-0.00088396,-0.07015210,-0.08449649,0.,0.4229
 1884,0.44511829,0.,-0.35276996,0.08450192,-0.01730250,0.,0.27610530,0.
 24761225,0.,-0.36062000,-0.23030836,0.,0.,0.00205834,0.,0.,0.00043925,
 0.,0.,-0.00249784,0.87901179,-1.94071130,1.87009643,0.,0.,-0.69723775,
 -0.91400193,1.89084689,0.,1.82800501,1.99058321,-1.85403668,0.,-0.0000
 0221,3.70807080,0.,0.,0.66642539,0.,0.,-1.33285028,0.03498252,0.049880
 49,0.,-0.91399226,-1.99058431,0.,0.87900653,-0.04987402,-0.01605725,0.
 ,-1.89084437,-1.85403801,0.,1.94070562,1.87009665,0.,0.,0.03081509,0.,
 0.,0.66642241,0.,0.,-0.69723775,1.02506357,-2.08858428,1.80889997,0.,0
 .,-0.74069975,-1.01591789,2.07856701,0.,2.03183357,2.09860149,-1.82637
 459,0.,-0.00000190,3.65274650,0.,0.,0.74906374,0.,0.,-1.49812700,-0.00
 915330,0.01003336,0.,-1.01590484,-2.09860290,0.,1.02505492,-0.01001932
 ,0.01747711,0.,-2.07856480,-1.82637578,0.,2.08857135,1.80890006,0.,0.,
 -0.00836126,0.,0.,0.74906077,0.,0.,-0.74069975\\@


 MANHOOD BEGINS BY TRYING TO SHAVE FACE,
 AND ENDS BY TRYING TO SAVE FACE.
 Job cpu time:       0 days  0 hours  0 minutes  3.0 seconds.
 Elapsed time:       0 days  0 hours  0 minutes  2.8 seconds.
 File lengths (MBytes):  RWF=     67 Int=      0 D2E=      0 Chk=     61 Scr=      1
 Normal termination of Gaussian DV at Tue Mar 10 00:06:57 2026.
