BF3                                                                     
Freq      RB3LYP                                                      6-31G(d)            
Number of atoms                            I                4
Info1-9                                    I   N=           9
          13          13           0           0           0         100
           6          18        -502
Full Title                                 C   N=           1
BF3         
Route                                      C   N=           5
#B3LYP 6-31G* symm=com freq=anharm output=pickett           
Point Group                                C   N=           2
C02V                    
Point Group NOp                            I                4
Point Group Abelian NOp                    I                4
Point Group NClass                         I                4
Point Group NIrrep                         I                4
Point Group NGen                           I                2
Point Group NOp symm assign                I                2
Point Group Irrep Names                    H   N=           4
A1      A2      B1      B2      
Point Group Class Names                    H   N=           4
E       C2      Sgm     Sgm'    
Point Group Generators                     I   N=           2
           2           3
Point Group Class of Operators             I   N=           4
           1           2           3           4
Point Group Rotations                      R   N=          48
  1.00000000E+00  0.00000000E+00 -4.93038066E-32  0.00000000E+00  1.00000000E+00
  3.86295131E-17 -7.39557099E-32  3.86295131E-17  1.00000000E+00  0.00000000E+00
  0.00000000E+00  0.00000000E+00 -1.00000000E+00 -1.22464680E-16  0.00000000E+00
  1.22464680E-16 -1.00000000E+00 -4.83182340E-32  2.46519033E-32  6.76452973E-32
  1.00000000E+00  0.00000000E+00  0.00000000E+00  0.00000000E+00 -1.00000000E+00
  0.00000000E+00  2.46519033E-32  0.00000000E+00  1.00000000E+00  3.86295131E-17
  0.00000000E+00  3.86295131E-17  1.00000000E+00  0.00000000E+00  0.00000000E+00
  0.00000000E+00  1.00000000E+00 -1.22464680E-16 -7.39557099E-32 -1.22464680E-16
 -1.00000000E+00 -8.69723606E-32 -7.39557099E-32  6.76452973E-32  1.00000000E+00
  0.00000000E+00  0.00000000E+00  0.00000000E+00
Point Group Cell Trans                     I   N=          12
           0           0           0           0           0           0
           0           0           0           0           0           0
Point Group Char Table                     R   N=          16
  1.00000000E+00  1.00000000E+00  1.00000000E+00  1.00000000E+00  1.00000000E+00
  1.00000000E+00 -1.00000000E+00 -1.00000000E+00  1.00000000E+00 -1.00000000E+00
 -1.00000000E+00  1.00000000E+00  1.00000000E+00 -1.00000000E+00  1.00000000E+00
 -1.00000000E+00
Point Group Atom Permutations              I   N=          16
           1           2           3           4           1           2
           4           3           1           2           3           4
           1           2           4           3
Charge                                     I                0
Multiplicity                               I                1
Number of electrons                        I               32
Number of alpha electrons                  I               16
Number of beta electrons                   I               16
Number of basis functions                  I               60
Number of independent functions            I               60
Number of point charges in /Mol/           I                0
Number of translation vectors              I                0
Atomic numbers                             I   N=           4
           5           9           9           9
Nuclear charges                            R   N=           4
  5.00000000E+00  9.00000000E+00  9.00000000E+00  9.00000000E+00
Current cartesian coordinates              R   N=          12
 -3.31697469E-33 -2.03937671E-23 -5.27932284E-07 -1.47911420E-31  9.61931426E-17
  2.49014639E+00  0.00000000E+00  2.15654600E+00 -1.24507304E+00 -2.64100716E-16
 -2.15654600E+00 -1.24507304E+00
Number of symbols in /Mol/                 I                0
Int Atom Types                             I   N=           4
           0           0           0           0
Force Field                                I                0
Atom Types                                 C   N=           4
                                                
MM charges                                 R   N=           4
  0.00000000E+00  0.00000000E+00  0.00000000E+00  0.00000000E+00
Integer atomic weights                     I   N=           4
          11          19          19          19
Real atomic weights                        R   N=           4
  1.10093053E+01  1.89984032E+01  1.89984032E+01  1.89984032E+01
Atom fragment info                         I   N=           4
           0           0           0           0
Atom residue num                           I   N=           4
           0           0           0           0
Nuclear spins                              I   N=           4
           3           1           1           1
Nuclear ZEff                               R   N=           4
 -2.75000000E+00 -6.75000000E+00 -6.75000000E+00 -6.75000000E+00
Nuclear ZNuc                               R   N=           4
  5.00000000E+00  9.00000000E+00  9.00000000E+00  9.00000000E+00
Nuclear QMom                               R   N=           4
  4.05900000E+00  0.00000000E+00  0.00000000E+00  0.00000000E+00
Nuclear GFac                               R   N=           4
  2.68863700E+00  2.62886700E+00  2.62886700E+00  2.62886700E+00
MicOpt                                     I   N=           4
          -1          -1          -1          -1
Number of residues                         I                0
Number of secondary structures             I                0
SymInf integers                            I   N=          26
           2           4           1           1           1          -1
          -1           1          -1           1           1           1
          -1           1           0           0           0           0
           0           0           0           0           0           0
           0           0
RotTr to input orientation                 R   N=          12
  4.28630028E-16  1.57817448E-16  1.00000000E+00 -1.00000000E+00 -2.08890312E-11
  4.28630028E-16  2.08890119E-11 -1.00000000E+00  1.57817448E-16  1.04484641E-16
 -5.27932284E-07 -7.37817469E-17
Number of contracted shells                I               16
Number of primitive shells                 I               44
Pure/Cartesian d shells                    I                1
Pure/Cartesian f shells                    I                0
Highest angular momentum                   I                2
Largest degree of contraction              I                6
Shell types                                I   N=          16
           0          -1          -1           2           0          -1
          -1           2           0          -1          -1           2
           0          -1          -1           2
Number of primitives per shell             I   N=          16
           6           3           1           1           6           3
           1           1           6           3           1           1
           6           3           1           1
Shell to atom map                          I   N=          16
           1           1           1           1           2           2
           2           2           3           3           3           3
           4           4           4           4
Primitive exponents                        R   N=          44
  2.06888225E+03  3.10649570E+02  7.06830330E+01  1.98610803E+01  6.29930484E+00
  2.12702697E+00  4.72797107E+00  1.19033774E+00  3.59411683E-01  1.26751247E-01
  6.00000000E-01  7.00171309E+03  1.05136609E+03  2.39285690E+02  6.73974453E+01
  2.15199573E+01  7.40310130E+00  2.08479528E+01  4.80830834E+00  1.34406986E+00
  3.58151393E-01  8.00000000E-01  7.00171309E+03  1.05136609E+03  2.39285690E+02
  6.73974453E+01  2.15199573E+01  7.40310130E+00  2.08479528E+01  4.80830834E+00
  1.34406986E+00  3.58151393E-01  8.00000000E-01  7.00171309E+03  1.05136609E+03
  2.39285690E+02  6.73974453E+01  2.15199573E+01  7.40310130E+00  2.08479528E+01
  4.80830834E+00  1.34406986E+00  3.58151393E-01  8.00000000E-01
Contraction coefficients                   R   N=          44
  1.86627459E-03  1.42514817E-02  6.95516185E-02  2.32572933E-01  4.67078712E-01
  3.63431440E-01 -1.30393797E-01 -1.30788951E-01  1.13094448E+00  1.00000000E+00
  1.00000000E+00  1.81961690E-03  1.39160796E-02  6.84053245E-02  2.33185760E-01
  4.71267439E-01  3.56618546E-01 -1.08506975E-01 -1.46451658E-01  1.12868858E+00
  1.00000000E+00  1.00000000E+00  1.81961690E-03  1.39160796E-02  6.84053245E-02
  2.33185760E-01  4.71267439E-01  3.56618546E-01 -1.08506975E-01 -1.46451658E-01
  1.12868858E+00  1.00000000E+00  1.00000000E+00  1.81961690E-03  1.39160796E-02
  6.84053245E-02  2.33185760E-01  4.71267439E-01  3.56618546E-01 -1.08506975E-01
 -1.46451658E-01  1.12868858E+00  1.00000000E+00  1.00000000E+00
P(S=P) Contraction coefficients            R   N=          44
  0.00000000E+00  0.00000000E+00  0.00000000E+00  0.00000000E+00  0.00000000E+00
  0.00000000E+00  7.45975799E-02  3.07846677E-01  7.43456834E-01  1.00000000E+00
  0.00000000E+00  0.00000000E+00  0.00000000E+00  0.00000000E+00  0.00000000E+00
  0.00000000E+00  0.00000000E+00  7.16287242E-02  3.45912103E-01  7.22469956E-01
  1.00000000E+00  0.00000000E+00  0.00000000E+00  0.00000000E+00  0.00000000E+00
  0.00000000E+00  0.00000000E+00  0.00000000E+00  7.16287242E-02  3.45912103E-01
  7.22469956E-01  1.00000000E+00  0.00000000E+00  0.00000000E+00  0.00000000E+00
  0.00000000E+00  0.00000000E+00  0.00000000E+00  0.00000000E+00  7.16287242E-02
  3.45912103E-01  7.22469956E-01  1.00000000E+00  0.00000000E+00
Coordinates of each shell                  R   N=          48
  1.30145356E-38 -1.01968835E-23 -5.27932284E-07  1.30145356E-38 -1.01968835E-23
 -5.27932284E-07  1.30145356E-38 -1.01968835E-23 -5.27932284E-07  1.30145356E-38
 -1.01968835E-23 -5.27932284E-07 -6.13868479E-32  4.80965713E-17  2.49014639E+00
 -6.13868479E-32  4.80965713E-17  2.49014639E+00 -6.13868479E-32  4.80965713E-17
  2.49014639E+00 -6.13868479E-32  4.80965713E-17  2.49014639E+00  1.53467101E-32
  2.15654600E+00 -1.24507304E+00  1.53467101E-32  2.15654600E+00 -1.24507304E+00
  1.53467101E-32  2.15654600E+00 -1.24507304E+00  1.53467101E-32  2.15654600E+00
 -1.24507304E+00 -2.64100716E-16 -2.15654600E+00 -1.24507304E+00 -2.64100716E-16
 -2.15654600E+00 -1.24507304E+00 -2.64100716E-16 -2.15654600E+00 -1.24507304E+00
 -2.64100716E-16 -2.15654600E+00 -1.24507304E+00
Constraint Structure                       R   N=          12
  7.37818302E-17  9.34566473E-17 -5.27932284E-07 -3.19206802E-16  5.20168501E-11
  2.49014639E+00 -6.54084377E-16  2.15654600E+00 -1.24507304E+00  1.19463637E-15
 -2.15654600E+00 -1.24507304E+00
Constraint Force Constants                 R   N=          12
  0.00000000E+00  0.00000000E+00  0.00000000E+00  0.00000000E+00  0.00000000E+00
  0.00000000E+00  0.00000000E+00  0.00000000E+00  0.00000000E+00  0.00000000E+00
  0.00000000E+00  0.00000000E+00
Num ILSW                                   I              100
ILSW                                       I   N=         100
           0           1           0           1           2           0
           0           0           0           0        4002          -1
           5           0           0           0           2          -1
           0           0           0           0           1           0
           1           0           0           0           0           0
           0           0      100000           0          -1           0
           0           0           0           0           0           0
           0           0           0           1           0           0
           0 -2000000000           1           0           0           0
           0           0        2004          68           0           0
           0           0           5           0           0           0
           0           0           0           0           0           1
           0           0           0           0           0           0
           0           0           0           0           0           0
           0           0           0           0           0           0
           0           0           1           0           0           0
           0           0           0           0
Num RLSW                                   I               68
RLSW                                       R   N=          68
  8.00000000E-01  7.20000000E-01  1.00000000E+00  8.10000000E-01  2.00000000E-01
  0.00000000E+00  0.00000000E+00  1.00000000E+00  0.00000000E+00  0.00000000E+00
  0.00000000E+00  0.00000000E+00  1.00000000E+00  0.00000000E+00  0.00000000E+00
  0.00000000E+00  0.00000000E+00  1.00000000E+00  0.00000000E+00  0.00000000E+00
  0.00000000E+00  0.00000000E+00  1.00000000E+00  0.00000000E+00  0.00000000E+00
  0.00000000E+00  0.00000000E+00  1.00000000E+00  0.00000000E+00  0.00000000E+00
  0.00000000E+00  0.00000000E+00  1.00000000E+00  0.00000000E+00  0.00000000E+00
  0.00000000E+00  0.00000000E+00  0.00000000E+00  1.00000000E+00  1.00000000E+00
  0.00000000E+00  1.00000000E+00  0.00000000E+00  0.00000000E+00  0.00000000E+00
  0.00000000E+00  0.00000000E+00  0.00000000E+00  0.00000000E+00  0.00000000E+00
  0.00000000E+00  0.00000000E+00  1.00000000E+00  1.00000000E+00  1.00000000E+00
  1.00000000E+00  1.00000000E+00  1.00000000E+00  0.00000000E+00  0.00000000E+00
  0.00000000E+00  0.00000000E+00  0.00000000E+00  0.00000000E+00  0.00000000E+00
  0.00000000E+00  2.00000000E-10  1.00000000E-02
MxBond                                     I                3
NBond                                      I   N=           4
           3           1           1           1
IBond                                      I   N=          12
           2           3           4           1           0           0
           1           0           0           1           0           0
RBond                                      R   N=          12
  1.00000000E+00  1.00000000E+00  1.00000000E+00  1.00000000E+00  0.00000000E+00
  0.00000000E+00  1.00000000E+00  0.00000000E+00  0.00000000E+00  1.00000000E+00
  0.00000000E+00  0.00000000E+00
Virial Ratio                               R      2.006968040583300E+00
SCF Energy                                 R     -3.245532399052893E+02
Total Energy                               R     -3.245532399052893E+02
RMS Force                                  R      1.829921335655912E-06
RMS Density                                R      7.432658037335363E-09
NImag                                      I                0
Zero-point Energy                          R      1.255657633180020E-02
Job Status                                 I                1
Nuclear derivative order                   I                3
Energy with zero-point                     R     -3.245406833289575E+02
Thermal Energy                             R     -3.245371857327704E+02
Thermal Enthalpy                           R     -3.245362415479568E+02
Thermal Free Energy                        R     -3.245661869881843E+02
External E-field                           R   N=         105
  0.00000000E+00  0.00000000E+00  0.00000000E+00  0.00000000E+00  0.00000000E+00
  0.00000000E+00  0.00000000E+00  0.00000000E+00  0.00000000E+00  0.00000000E+00
  0.00000000E+00  0.00000000E+00  0.00000000E+00  0.00000000E+00  0.00000000E+00
  0.00000000E+00  0.00000000E+00  0.00000000E+00  0.00000000E+00  0.00000000E+00
  0.00000000E+00  0.00000000E+00  0.00000000E+00  0.00000000E+00  0.00000000E+00
  0.00000000E+00  0.00000000E+00  0.00000000E+00  0.00000000E+00  0.00000000E+00
  0.00000000E+00  0.00000000E+00  0.00000000E+00  0.00000000E+00  0.00000000E+00
  0.00000000E+00  0.00000000E+00  0.00000000E+00  0.00000000E+00  0.00000000E+00
  0.00000000E+00  0.00000000E+00  0.00000000E+00  0.00000000E+00  0.00000000E+00
  0.00000000E+00  0.00000000E+00  0.00000000E+00  0.00000000E+00  0.00000000E+00
  0.00000000E+00  0.00000000E+00  0.00000000E+00  0.00000000E+00  0.00000000E+00
  0.00000000E+00  0.00000000E+00  0.00000000E+00  0.00000000E+00  0.00000000E+00
  0.00000000E+00  0.00000000E+00  0.00000000E+00  0.00000000E+00  0.00000000E+00
  0.00000000E+00  0.00000000E+00  0.00000000E+00  0.00000000E+00  0.00000000E+00
  0.00000000E+00  0.00000000E+00  0.00000000E+00  0.00000000E+00  0.00000000E+00
  0.00000000E+00  0.00000000E+00  0.00000000E+00  0.00000000E+00  0.00000000E+00
  0.00000000E+00  0.00000000E+00  0.00000000E+00  0.00000000E+00  0.00000000E+00
  0.00000000E+00  0.00000000E+00  0.00000000E+00  0.00000000E+00  0.00000000E+00
  0.00000000E+00  0.00000000E+00  0.00000000E+00  0.00000000E+00  0.00000000E+00
  0.00000000E+00  0.00000000E+00  0.00000000E+00  0.00000000E+00  0.00000000E+00
  0.00000000E+00  0.00000000E+00  0.00000000E+00  0.00000000E+00  0.00000000E+00
IOpCl                                      I                0
IROHF                                      I                0
Alpha Orbital Energies                     R   N=          60
 -2.47312954E+01 -2.47295188E+01 -2.47295168E+01 -6.91294358E+00 -1.26198644E+00
 -1.22477907E+00 -1.22270709E+00 -5.97139137E-01 -5.59279570E-01 -5.58540534E-01
 -5.20708934E-01 -4.55615746E-01 -4.55171820E-01 -4.45865046E-01 -4.44425677E-01
 -4.14064400E-01  3.59456232E-02  9.05774524E-02  2.49894462E-01  2.50475893E-01
  3.61003662E-01  5.01336197E-01  5.05116065E-01  5.29533146E-01  1.05687540E+00
  1.05766716E+00  1.06508376E+00  1.10215783E+00  1.10346575E+00  1.27129906E+00
  1.27199830E+00  1.30079857E+00  1.30153800E+00  1.30289844E+00  1.38244319E+00
  1.39185786E+00  1.58417644E+00  1.58490423E+00  1.76885344E+00  1.79000772E+00
  1.79107565E+00  1.79443926E+00  1.79522531E+00  1.81553569E+00  1.86871380E+00
  1.86983417E+00  1.93042973E+00  2.00979602E+00  2.12098092E+00  2.47941580E+00
  2.48354580E+00  2.83673531E+00  2.83896576E+00  3.05941326E+00  3.06105355E+00
  3.34436461E+00  3.52141267E+00  4.42583367E+00  4.44015120E+00  4.44928395E+00
Alpha MO coefficients                      R   N=        3600
  9.60740560E-05  1.94746288E-03  0.00000000E+00  0.00000000E+00 -1.59194585E-05
 -1.56884705E-03  0.00000000E+00  0.00000000E+00  1.92284525E-05 -3.64699821E-04
  4.18323920E-04  4.09268526E-04  0.00000000E+00  0.00000000E+00  0.00000000E+00
  5.61692166E-01  1.12452657E-02  0.00000000E+00  0.00000000E+00 -4.28785924E-04
  8.22527176E-03  0.00000000E+00  0.00000000E+00  7.06355208E-04 -4.39530588E-03
 -4.50061961E-03 -5.01373193E-03  0.00000000E+00  0.00000000E+00  0.00000000E+00
  5.79024428E-01  1.15785464E-02  0.00000000E+00 -3.81189411E-04  2.20597838E-04
  8.51785394E-03  0.00000000E+00  6.18378316E-04 -3.59508720E-04 -4.54275803E-03
 -5.03902121E-03 -4.77636447E-03  0.00000000E+00  0.00000000E+00  2.60620109E-04
  5.79024428E-01  1.15785464E-02  0.00000000E+00  3.81189411E-04  2.20597838E-04
  8.51785394E-03  0.00000000E+00 -6.18378316E-04 -3.59508720E-04 -4.54275803E-03
 -5.03902121E-03 -4.77636447E-03  0.00000000E+00  0.00000000E+00 -2.60620109E-04
  0.00000000E+00  0.00000000E+00  0.00000000E+00  1.11826969E-03  0.00000000E+00
  0.00000000E+00  0.00000000E+00 -1.34938522E-03  0.00000000E+00  0.00000000E+00
  0.00000000E+00  0.00000000E+00  0.00000000E+00  0.00000000E+00 -3.65779749E-04
  0.00000000E+00  0.00000000E+00  0.00000000E+00 -3.65210227E-05  0.00000000E+00
  0.00000000E+00  0.00000000E+00  1.74354649E-04  0.00000000E+00  0.00000000E+00
  0.00000000E+00  0.00000000E+00  0.00000000E+00  0.00000000E+00  8.27876347E-05
  7.02075130E-01  1.35002502E-02  0.00000000E+00 -4.17291008E-04  2.19835848E-04
  1.18516094E-02  0.00000000E+00  3.57240936E-04 -1.05586097E-04 -5.97286450E-03
 -6.15875775E-03 -6.03558431E-03  0.00000000E+00  0.00000000E+00  2.05953252E-04
 -7.02075130E-01 -1.35002502E-02  0.00000000E+00 -4.17291008E-04 -2.19835848E-04
 -1.18516094E-02  0.00000000E+00  3.57240936E-04  1.05586097E-04  5.97286450E-03
  6.15875775E-03  6.03558431E-03  0.00000000E+00  0.00000000E+00  2.05953252E-04
  1.37277681E-06  2.77869482E-05  0.00000000E+00  0.00000000E+00  1.11815810E-03
 -2.23817690E-05  0.00000000E+00  0.00000000E+00 -1.34923533E-03 -5.20243689E-06
 -3.10843373E-04  3.22620770E-04  0.00000000E+00  0.00000000E+00  0.00000000E+00
  8.18775587E-01  1.57506338E-02  0.00000000E+00  0.00000000E+00 -5.50386131E-04
  1.38036845E-02  0.00000000E+00  0.00000000E+00  4.28316234E-04 -6.96022033E-03
 -6.89133234E-03 -7.32652537E-03  0.00000000E+00  0.00000000E+00  0.00000000E+00
 -3.97130684E-01 -7.63012814E-03  0.00000000E+00  2.14428275E-04 -1.60315414E-04
 -6.72176715E-03  0.00000000E+00 -9.67881665E-05  2.30210592E-04  3.38401997E-03
  3.55598427E-03  3.34520002E-03  0.00000000E+00  0.00000000E+00 -6.73993471E-05
 -3.97130684E-01 -7.63012814E-03  0.00000000E+00 -2.14428275E-04 -1.60315414E-04
 -6.72176715E-03  0.00000000E+00  9.67881665E-05  2.30210592E-04  3.38401997E-03
  3.55598427E-03  3.34520002E-03  0.00000000E+00  0.00000000E+00  6.73993471E-05
  9.93045732E-01  5.49794721E-02  0.00000000E+00  0.00000000E+00  4.11711981E-08
 -6.18473406E-03  0.00000000E+00  0.00000000E+00  3.38507591E-08 -1.06995489E-02
 -7.08443384E-03 -7.08445189E-03  0.00000000E+00  0.00000000E+00  0.00000000E+00
 -8.37599829E-05  1.67830092E-03  0.00000000E+00  0.00000000E+00 -8.52652261E-04
 -5.95323132E-03  0.00000000E+00  0.00000000E+00  3.30539203E-03  9.69011317E-04
  7.92042159E-04  8.64282182E-04  0.00000000E+00  0.00000000E+00  0.00000000E+00
 -8.37485573E-05  1.67825798E-03  0.00000000E+00 -7.38389655E-04  4.26305868E-04
 -5.95309940E-03  0.00000000E+00  2.86254214E-03 -1.65268370E-03  9.69006476E-04
  8.46185099E-04  8.10085424E-04  0.00000000E+00  0.00000000E+00 -3.60923059E-05
 -8.37485573E-05  1.67825798E-03  0.00000000E+00  7.38389655E-04  4.26305868E-04
 -5.95309940E-03  0.00000000E+00 -2.86254214E-03 -1.65268370E-03  9.69006476E-04
  8.46185099E-04  8.10085424E-04  0.00000000E+00  0.00000000E+00  3.60923059E-05
 -1.07148395E-01  1.35975888E-01  0.00000000E+00  0.00000000E+00  7.05713889E-06
  2.20460015E-02  0.00000000E+00  0.00000000E+00 -2.90792493E-07 -2.20595236E-02
  2.20977498E-03  2.21238263E-03  0.00000000E+00  0.00000000E+00  0.00000000E+00
 -1.26258193E-01  2.86634270E-01  0.00000000E+00  0.00000000E+00 -6.08219163E-02
  2.47104164E-01  0.00000000E+00  0.00000000E+00 -3.14105247E-02  7.77394572E-03
  6.16985463E-03  2.24754636E-02  0.00000000E+00  0.00000000E+00  0.00000000E+00
 -1.26248405E-01  2.86611433E-01  0.00000000E+00 -5.26690974E-02  3.04087691E-02
  2.47087657E-01  0.00000000E+00 -2.72021428E-02  1.57051657E-02  7.77300312E-03
  1.83979724E-02  1.02453093E-02  0.00000000E+00  0.00000000E+00 -8.15266353E-03
 -1.26248405E-01  2.86611433E-01  0.00000000E+00  5.26690974E-02  3.04087691E-02
  2.47087657E-01  0.00000000E+00  2.72021428E-02  1.57051657E-02  7.77300312E-03
  1.83979724E-02  1.02453093E-02  0.00000000E+00  0.00000000E+00  8.15266353E-03
  3.05937076E-06 -3.40165302E-06  0.00000000E+00  0.00000000E+00  1.56069813E-01
 -1.74196186E-06  0.00000000E+00  0.00000000E+00 -3.03928396E-03  6.47187176E-07
 -3.36450419E-02  3.36449598E-02  0.00000000E+00  0.00000000E+00  0.00000000E+00
 -1.87035680E-01  4.28655472E-01  0.00000000E+00  0.00000000E+00 -7.31334706E-02
  3.49664051E-01  0.00000000E+00  0.00000000E+00 -1.17449282E-02  1.23412294E-02
  1.17751254E-02  1.95686043E-02  0.00000000E+00  0.00000000E+00  0.00000000E+00
  9.35246412E-02 -2.14343497E-01  0.00000000E+00  3.63310812E-02 -1.02115245E-02
 -1.74845414E-01  0.00000000E+00  7.21561138E-03  7.49586047E-04 -6.17115408E-03
 -1.13373705E-02 -4.33623287E-03  0.00000000E+00  0.00000000E+00  2.64627651E-04
  9.35246412E-02 -2.14343497E-01  0.00000000E+00 -3.63310812E-02 -1.02115245E-02
 -1.74845414E-01  0.00000000E+00 -7.21561138E-03  7.49586047E-04 -6.17115408E-03
 -1.13373705E-02 -4.33623287E-03  0.00000000E+00  0.00000000E+00 -2.64627651E-04
  0.00000000E+00  0.00000000E+00  0.00000000E+00  1.56068252E-01  0.00000000E+00
  0.00000000E+00  0.00000000E+00 -3.03776939E-03  0.00000000E+00  0.00000000E+00
  0.00000000E+00  0.00000000E+00  0.00000000E+00  0.00000000E+00 -3.88490442E-02
  0.00000000E+00  0.00000000E+00  0.00000000E+00  1.07643971E-02  0.00000000E+00
  0.00000000E+00  0.00000000E+00  4.91517635E-03  0.00000000E+00  0.00000000E+00
  0.00000000E+00  0.00000000E+00  0.00000000E+00  0.00000000E+00 -3.88926481E-03
 -1.61981470E-01  3.71236008E-01  0.00000000E+00 -5.21603482E-02  3.63290820E-02
  3.02824948E-01  0.00000000E+00 -7.58107380E-03  7.21460273E-03  1.06883741E-02
  1.38020983E-02  1.33439870E-02  0.00000000E+00  0.00000000E+00 -4.34730935E-03
  1.61981470E-01 -3.71236008E-01  0.00000000E+00 -5.21603482E-02 -3.63290820E-02
 -3.02824948E-01  0.00000000E+00 -7.58107380E-03 -7.21460273E-03 -1.06883741E-02
 -1.38020983E-02 -1.33439870E-02  0.00000000E+00  0.00000000E+00 -4.34730935E-03
  1.53660153E-01 -2.91243646E-01  0.00000000E+00  0.00000000E+00 -6.87599177E-06
 -6.51244312E-02  0.00000000E+00  0.00000000E+00  2.02929670E-07  1.75762013E-02
  3.92523121E-03  3.92420465E-03  0.00000000E+00  0.00000000E+00  0.00000000E+00
 -4.81877592E-02  9.78905083E-02  0.00000000E+00  0.00000000E+00  3.17002735E-01
  1.82072137E-01  0.00000000E+00  0.00000000E+00  1.93486828E-01 -1.33017049E-03
 -3.34534292E-04 -2.44399391E-02  0.00000000E+00  0.00000000E+00  0.00000000E+00
 -4.81858911E-02  9.78881628E-02  0.00000000E+00  2.74519878E-01 -1.58495971E-01
  1.82061046E-01  0.00000000E+00  1.67558763E-01 -9.67412394E-02 -1.32941734E-03
 -1.84125364E-02 -6.36005553E-03  0.00000000E+00  0.00000000E+00  1.20525249E-02
 -4.81858911E-02  9.78881628E-02  0.00000000E+00 -2.74519878E-01 -1.58495971E-01
  1.82061046E-01  0.00000000E+00 -1.67558763E-01 -9.67412394E-02 -1.32941734E-03
 -1.84125364E-02 -6.36005553E-03  0.00000000E+00  0.00000000E+00 -1.20525249E-02
  0.00000000E+00  0.00000000E+00  0.00000000E+00  3.29804560E-01  0.00000000E+00
  0.00000000E+00  0.00000000E+00  1.47132384E-02  0.00000000E+00  0.00000000E+00
  0.00000000E+00  0.00000000E+00  0.00000000E+00  0.00000000E+00 -2.38232143E-02
  0.00000000E+00  0.00000000E+00  0.00000000E+00  2.24481248E-01  0.00000000E+00
  0.00000000E+00  0.00000000E+00  1.46238623E-01  0.00000000E+00  0.00000000E+00
  0.00000000E+00  0.00000000E+00  0.00000000E+00  0.00000000E+00 -1.37880170E-02
  4.17408235E-02 -6.77589423E-02  0.00000000E+00 -2.63234732E-01  2.81578895E-01
 -2.22018506E-01  0.00000000E+00 -1.29152712E-01  1.58995403E-01  6.37797147E-03
  1.36454045E-02  1.71742840E-02  0.00000000E+00  0.00000000E+00 -1.02588561E-02
 -4.17408235E-02  6.77589423E-02  0.00000000E+00 -2.63234732E-01 -2.81578895E-01
  2.22018506E-01  0.00000000E+00 -1.29152712E-01 -1.58995403E-01 -6.37797147E-03
 -1.36454045E-02 -1.71742840E-02  0.00000000E+00  0.00000000E+00 -1.02588561E-02
 -2.98835521E-06  5.42091651E-06  0.00000000E+00  0.00000000E+00 -3.29806190E-01
  1.42360193E-06  0.00000000E+00  0.00000000E+00 -1.47129119E-02 -9.79913165E-08
  2.06325883E-02 -2.06330341E-02  0.00000000E+00  0.00000000E+00  0.00000000E+00
 -4.81974955E-02  7.82390119E-02  0.00000000E+00  0.00000000E+00  4.25801075E-01
  2.56365850E-01  0.00000000E+00  0.00000000E+00  2.20945054E-01 -7.36504385E-03
 -9.92849387E-03 -2.56592606E-02  0.00000000E+00  0.00000000E+00  0.00000000E+00
  2.40998882E-02 -3.91223826E-02  0.00000000E+00 -2.81585275E-01 -6.19027616E-02
 -1.28185448E-01  0.00000000E+00 -1.58998992E-01 -5.44375225E-02  3.68231062E-03
  1.98190440E-02 -2.02484780E-03  0.00000000E+00  0.00000000E+00  2.03729682E-03
  2.40998882E-02 -3.91223826E-02  0.00000000E+00  2.81585275E-01 -6.19027616E-02
 -1.28185448E-01  0.00000000E+00  1.58998992E-01 -5.44375225E-02  3.68231062E-03
  1.98190440E-02 -2.02484780E-03  0.00000000E+00  0.00000000E+00 -2.03729682E-03
  0.00000000E+00  0.00000000E+00  2.43160405E-01  0.00000000E+00  0.00000000E+00
  0.00000000E+00  1.19640869E-01  0.00000000E+00  0.00000000E+00  0.00000000E+00
  0.00000000E+00  0.00000000E+00  0.00000000E+00  7.88146704E-07  0.00000000E+00
  0.00000000E+00  0.00000000E+00  3.32462511E-01  0.00000000E+00  0.00000000E+00
  0.00000000E+00  2.08415427E-01  0.00000000E+00  0.00000000E+00  0.00000000E+00
  0.00000000E+00  0.00000000E+00  0.00000000E+00 -1.68391125E-02  0.00000000E+00
  0.00000000E+00  0.00000000E+00  3.32452594E-01  0.00000000E+00  0.00000000E+00
  0.00000000E+00  2.08409206E-01  0.00000000E+00  0.00000000E+00  0.00000000E+00
  0.00000000E+00  0.00000000E+00 -1.45827034E-02  8.41926441E-03  0.00000000E+00
  0.00000000E+00  0.00000000E+00  3.32452594E-01  0.00000000E+00  0.00000000E+00
  0.00000000E+00  2.08409206E-01  0.00000000E+00  0.00000000E+00  0.00000000E+00
  0.00000000E+00  0.00000000E+00  1.45827034E-02  8.41926441E-03  0.00000000E+00
  0.00000000E+00  0.00000000E+00  0.00000000E+00 -7.66414827E-02  0.00000000E+00
  0.00000000E+00  0.00000000E+00  1.38910627E-01  0.00000000E+00  0.00000000E+00
  0.00000000E+00  0.00000000E+00  0.00000000E+00  0.00000000E+00  5.89859662E-02
  0.00000000E+00  0.00000000E+00  0.00000000E+00  4.70992642E-01  0.00000000E+00
  0.00000000E+00  0.00000000E+00  3.05833241E-01  0.00000000E+00  0.00000000E+00
  0.00000000E+00  0.00000000E+00  0.00000000E+00  0.00000000E+00 -1.29856524E-02
 -4.84125511E-04  1.69380053E-02  0.00000000E+00  3.21810903E-01  8.61329900E-02
 -4.23116891E-02  0.00000000E+00  1.98757215E-01  6.18228679E-02  8.15201721E-03
  1.27697483E-03  1.47395091E-02  0.00000000E+00  0.00000000E+00  4.76737993E-04
  4.84125511E-04 -1.69380053E-02  0.00000000E+00  3.21810903E-01 -8.61329900E-02
  4.23116891E-02  0.00000000E+00  1.98757215E-01 -6.18228679E-02 -8.15201721E-03
 -1.27697483E-03 -1.47395091E-02  0.00000000E+00  0.00000000E+00  4.76737993E-04
  5.18929012E-08 -4.31616222E-07  0.00000000E+00  0.00000000E+00 -7.66393187E-02
  4.15583137E-06  0.00000000E+00  0.00000000E+00  1.38912157E-01 -1.73713501E-07
  5.10832901E-02 -5.10825193E-02  0.00000000E+00  0.00000000E+00  0.00000000E+00
 -5.58200391E-04  1.95584685E-02  0.00000000E+00  0.00000000E+00  2.72077737E-01
 -4.88641105E-02  0.00000000E+00  0.00000000E+00  1.63061603E-01  9.41412160E-03
  1.35473561E-02  4.94878196E-03  0.00000000E+00  0.00000000E+00  0.00000000E+00
  2.79518919E-04 -9.77857126E-03  0.00000000E+00  8.61314706E-02  4.21267505E-01
  2.44270914E-02  0.00000000E+00  6.18220715E-02  2.70142892E-01 -4.70628741E-03
 -1.19831325E-02  2.73639501E-03  0.00000000E+00  0.00000000E+00 -7.77258619E-03
  2.79518919E-04 -9.77857126E-03  0.00000000E+00 -8.61314706E-02  4.21267505E-01
  2.44270914E-02  0.00000000E+00 -6.18220715E-02  2.70142892E-01 -4.70628741E-03
 -1.19831325E-02  2.73639501E-03  0.00000000E+00  0.00000000E+00  7.77258619E-03
  0.00000000E+00  0.00000000E+00 -1.25431828E-06  0.00000000E+00  0.00000000E+00
  0.00000000E+00 -3.29924609E-06  0.00000000E+00  0.00000000E+00  0.00000000E+00
  0.00000000E+00  0.00000000E+00  0.00000000E+00  3.81195324E-02  0.00000000E+00
  0.00000000E+00  0.00000000E+00  5.46268439E-01  0.00000000E+00  0.00000000E+00
  0.00000000E+00  3.84368691E-01  0.00000000E+00  0.00000000E+00  0.00000000E+00
  0.00000000E+00  0.00000000E+00  0.00000000E+00 -2.01426771E-02  0.00000000E+00
  0.00000000E+00  0.00000000E+00 -2.73140722E-01  0.00000000E+00  0.00000000E+00
  0.00000000E+00 -1.92188076E-01  0.00000000E+00  0.00000000E+00  0.00000000E+00
  0.00000000E+00  0.00000000E+00  9.60482441E-03 -3.50699091E-03  0.00000000E+00
  0.00000000E+00  0.00000000E+00 -2.73140722E-01  0.00000000E+00  0.00000000E+00
  0.00000000E+00 -1.92188076E-01  0.00000000E+00  0.00000000E+00  0.00000000E+00
  0.00000000E+00  0.00000000E+00 -9.60482441E-03 -3.50699091E-03  0.00000000E+00
  0.00000000E+00  0.00000000E+00  0.00000000E+00  0.00000000E+00  0.00000000E+00
  0.00000000E+00  0.00000000E+00  0.00000000E+00  0.00000000E+00  0.00000000E+00
  0.00000000E+00  0.00000000E+00  3.81194328E-02  0.00000000E+00  0.00000000E+00
  0.00000000E+00  0.00000000E+00  0.00000000E+00  0.00000000E+00  0.00000000E+00
  0.00000000E+00  0.00000000E+00  0.00000000E+00  0.00000000E+00  0.00000000E+00
  0.00000000E+00  0.00000000E+00  2.03830250E-03  0.00000000E+00  0.00000000E+00
  0.00000000E+00  0.00000000E+00  4.73085906E-01  0.00000000E+00  0.00000000E+00
  0.00000000E+00  3.32875279E-01  0.00000000E+00  0.00000000E+00  0.00000000E+00
  0.00000000E+00  0.00000000E+00 -1.45975302E-02  9.60454575E-03  0.00000000E+00
  0.00000000E+00  0.00000000E+00 -4.73085906E-01  0.00000000E+00  0.00000000E+00
  0.00000000E+00 -3.32875279E-01  0.00000000E+00  0.00000000E+00  0.00000000E+00
  0.00000000E+00  0.00000000E+00 -1.45975302E-02 -9.60454575E-03  0.00000000E+00
  0.00000000E+00  0.00000000E+00  0.00000000E+00 -6.89170505E-07  0.00000000E+00
  0.00000000E+00  0.00000000E+00 -3.07090191E-06  0.00000000E+00  0.00000000E+00
  0.00000000E+00  0.00000000E+00  0.00000000E+00  0.00000000E+00  4.79380492E-07
  0.00000000E+00  0.00000000E+00  0.00000000E+00  4.02705130E-01  0.00000000E+00
  0.00000000E+00  0.00000000E+00  2.75449894E-01  0.00000000E+00  0.00000000E+00
  0.00000000E+00  0.00000000E+00  0.00000000E+00  0.00000000E+00 -1.37094814E-02
 -1.82723083E-07 -1.37743325E-06  0.00000000E+00 -2.01348250E-01 -3.48753455E-01
  4.57170621E-06  0.00000000E+00 -1.37722276E-01 -2.38546335E-01 -8.12750665E-07
  1.02810380E-02 -1.02827084E-02  0.00000000E+00  0.00000000E+00  6.85481167E-03
  1.82723083E-07  1.37743325E-06  0.00000000E+00 -2.01348250E-01  3.48753455E-01
 -4.57170621E-06  0.00000000E+00 -1.37722276E-01  2.38546335E-01  8.12750665E-07
 -1.02810380E-02  1.02827084E-02  0.00000000E+00  0.00000000E+00  6.85481167E-03
  0.00000000E+00  0.00000000E+00  6.15604447E-01  0.00000000E+00  0.00000000E+00
  0.00000000E+00  5.75576726E-01  0.00000000E+00  0.00000000E+00  0.00000000E+00
  0.00000000E+00  0.00000000E+00  0.00000000E+00 -1.59298116E-07  0.00000000E+00
  0.00000000E+00  0.00000000E+00 -2.51898153E-01  0.00000000E+00  0.00000000E+00
  0.00000000E+00 -2.38182979E-01  0.00000000E+00  0.00000000E+00  0.00000000E+00
  0.00000000E+00  0.00000000E+00  0.00000000E+00 -1.43753848E-02  0.00000000E+00
  0.00000000E+00  0.00000000E+00 -2.51897750E-01  0.00000000E+00  0.00000000E+00
  0.00000000E+00 -2.38180039E-01  0.00000000E+00  0.00000000E+00  0.00000000E+00
  0.00000000E+00  0.00000000E+00 -1.24495738E-02  7.18762701E-03  0.00000000E+00
  0.00000000E+00  0.00000000E+00 -2.51897750E-01  0.00000000E+00  0.00000000E+00
  0.00000000E+00 -2.38180039E-01  0.00000000E+00  0.00000000E+00  0.00000000E+00
  0.00000000E+00  0.00000000E+00  1.24495738E-02  7.18762701E-03  0.00000000E+00
 -1.37797820E-01 -6.70101028E-02  0.00000000E+00  0.00000000E+00 -4.49857401E-06
  1.90148816E+00  0.00000000E+00  0.00000000E+00  1.81320397E-05  4.49335386E-02
  2.84202151E-02  2.84227255E-02  0.00000000E+00  0.00000000E+00  0.00000000E+00
  6.75103701E-02 -6.52442946E-02  0.00000000E+00  0.00000000E+00  1.65062877E-01
 -7.05520150E-01  0.00000000E+00  0.00000000E+00  3.02434013E-01  5.76439794E-02
  4.22915915E-02  1.64453473E-02  0.00000000E+00  0.00000000E+00  0.00000000E+00
  6.75084120E-02 -6.52569838E-02  0.00000000E+00  1.42953966E-01 -8.25333792E-02
 -7.05474727E-01  0.00000000E+00  2.61914806E-01 -1.51216954E-01  5.76350662E-02
  2.28995305E-02  3.58215460E-02  0.00000000E+00  0.00000000E+00  1.29227591E-02
  6.75084120E-02 -6.52569838E-02  0.00000000E+00 -1.42953966E-01 -8.25333792E-02
 -7.05474727E-01  0.00000000E+00 -2.61914806E-01 -1.51216954E-01  5.76350662E-02
  2.28995305E-02  3.58215460E-02  0.00000000E+00  0.00000000E+00 -1.29227591E-02
  0.00000000E+00  0.00000000E+00  0.00000000E+00  2.23663479E-01  0.00000000E+00
  0.00000000E+00  0.00000000E+00  1.67997194E+00  0.00000000E+00  0.00000000E+00
  0.00000000E+00  0.00000000E+00  0.00000000E+00  0.00000000E+00 -2.20279871E-02
  0.00000000E+00  0.00000000E+00  0.00000000E+00 -2.46738528E-01  0.00000000E+00
  0.00000000E+00  0.00000000E+00 -3.08358814E-01  0.00000000E+00  0.00000000E+00
  0.00000000E+00  0.00000000E+00  0.00000000E+00  0.00000000E+00 -5.34156874E-03
  7.20735409E-02 -3.99294881E-02  0.00000000E+00 -1.65621340E-02 -1.32893709E-01
 -9.76539453E-01  0.00000000E+00  1.10507324E-01 -2.41827742E-01  5.96046446E-02
  4.03401617E-02  5.57276995E-02  0.00000000E+00  0.00000000E+00  1.00455324E-02
 -7.20735409E-02  3.99294881E-02  0.00000000E+00 -1.65621340E-02  1.32893709E-01
  9.76539453E-01  0.00000000E+00  1.10507324E-01  2.41827742E-01 -5.96046446E-02
 -4.03401617E-02 -5.57276995E-02  0.00000000E+00  0.00000000E+00  1.00455324E-02
  2.28571803E-06 -1.17018241E-05  0.00000000E+00  0.00000000E+00  2.23676016E-01
  2.78073026E-05  0.00000000E+00  0.00000000E+00  1.67995677E+00 -2.26682804E-06
 -1.90741287E-02  1.90785976E-02  0.00000000E+00  0.00000000E+00  0.00000000E+00
  8.32248714E-02 -4.60956717E-02  0.00000000E+00  0.00000000E+00  6.01621999E-02
 -1.12764261E+00  0.00000000E+00  0.00000000E+00  2.50130002E-01  6.88338512E-02
  6.86149618E-02  4.23295614E-02  0.00000000E+00  0.00000000E+00  0.00000000E+00
 -4.16112601E-02  2.30570630E-02  0.00000000E+00 -1.32898205E-01 -1.70014558E-01
  5.63788055E-01  0.00000000E+00 -2.41827170E-01 -1.68734617E-01 -3.44108087E-02
 -2.79164706E-02 -2.75466854E-02  0.00000000E+00  0.00000000E+00 -8.88404865E-03
 -4.16112601E-02  2.30570630E-02  0.00000000E+00  1.32898205E-01 -1.70014558E-01
  5.63788055E-01  0.00000000E+00  2.41827170E-01 -1.68734617E-01 -3.44108087E-02
 -2.79164706E-02 -2.75466854E-02  0.00000000E+00  0.00000000E+00  8.88404865E-03
  0.00000000E+00  0.00000000E+00 -1.05125831E+00  0.00000000E+00  0.00000000E+00
  0.00000000E+00  1.28339860E+00  0.00000000E+00  0.00000000E+00  0.00000000E+00
  0.00000000E+00  0.00000000E+00  0.00000000E+00  4.77165636E-07  0.00000000E+00
  0.00000000E+00  0.00000000E+00 -3.09943264E-02  0.00000000E+00  0.00000000E+00
  0.00000000E+00 -9.40282210E-02  0.00000000E+00  0.00000000E+00  0.00000000E+00
  0.00000000E+00  0.00000000E+00  0.00000000E+00  4.06503445E-02  0.00000000E+00
  0.00000000E+00  0.00000000E+00 -3.09974877E-02  0.00000000E+00  0.00000000E+00
  0.00000000E+00 -9.40277263E-02  0.00000000E+00  0.00000000E+00  0.00000000E+00
  0.00000000E+00  0.00000000E+00  3.52037572E-02 -2.03248079E-02  0.00000000E+00
  0.00000000E+00  0.00000000E+00 -3.09974877E-02  0.00000000E+00  0.00000000E+00
  0.00000000E+00 -9.40277263E-02  0.00000000E+00  0.00000000E+00  0.00000000E+00
  0.00000000E+00  0.00000000E+00 -3.52037572E-02 -2.03248079E-02  0.00000000E+00
  0.00000000E+00  0.00000000E+00  0.00000000E+00  1.17662346E+00  0.00000000E+00
  0.00000000E+00  0.00000000E+00 -8.83909338E-01  0.00000000E+00  0.00000000E+00
  0.00000000E+00  0.00000000E+00  0.00000000E+00  0.00000000E+00  2.05023346E-01
  0.00000000E+00  0.00000000E+00  0.00000000E+00 -9.79753125E-02  0.00000000E+00
  0.00000000E+00  0.00000000E+00 -8.94659648E-03  0.00000000E+00  0.00000000E+00
  0.00000000E+00  0.00000000E+00  0.00000000E+00  0.00000000E+00 -6.82429261E-02
  1.32044397E-02 -1.62878561E-01  0.00000000E+00  2.24280317E-01 -1.86051388E-01
  2.61081436E-01  0.00000000E+00  1.27946182E-01 -7.90341466E-02 -7.51467163E-02
 -1.15745482E-02 -1.42782635E-02  0.00000000E+00  0.00000000E+00 -7.09451958E-02
 -1.32044397E-02  1.62878561E-01  0.00000000E+00  2.24280317E-01  1.86051388E-01
 -2.61081436E-01  0.00000000E+00  1.27946182E-01  7.90341466E-02  7.51467163E-02
  1.15745482E-02  1.42782635E-02  0.00000000E+00  0.00000000E+00 -7.09451958E-02
  1.10065362E-05 -1.71029188E-04  0.00000000E+00  0.00000000E+00  1.17661747E+00
  1.83607460E-04  0.00000000E+00  0.00000000E+00 -8.83925484E-01 -1.51352812E-05
  1.77571488E-01 -1.77548980E-01  0.00000000E+00  0.00000000E+00  0.00000000E+00
  1.52463370E-02 -1.88068775E-01  0.00000000E+00  0.00000000E+00  3.31670284E-01
  3.01450489E-01  0.00000000E+00  0.00000000E+00  1.73575635E-01 -8.67692359E-02
 -7.71436616E-02  4.72883950E-02  0.00000000E+00  0.00000000E+00  0.00000000E+00
 -7.62271637E-03  9.40468523E-02  0.00000000E+00 -1.86073591E-01  9.45910111E-03
 -1.50780500E-01  0.00000000E+00 -7.90272954E-02  3.66823347E-02  4.33929892E-02
 -5.24190817E-02  6.73470361E-02  0.00000000E+00  0.00000000E+00  1.56586391E-03
 -7.62271637E-03  9.40468523E-02  0.00000000E+00  1.86073591E-01  9.45910111E-03
 -1.50780500E-01  0.00000000E+00  7.90272954E-02  3.66823347E-02  4.33929892E-02
 -5.24190817E-02  6.73470361E-02  0.00000000E+00  0.00000000E+00 -1.56586391E-03
  1.20446214E-01 -1.68916404E+00  0.00000000E+00  0.00000000E+00 -1.14412723E-04
  1.71069127E+00  0.00000000E+00  0.00000000E+00  7.84210331E-05 -1.94168285E-01
  1.30007238E-01  1.30047143E-01  0.00000000E+00  0.00000000E+00  0.00000000E+00
 -6.05381286E-04  1.23814523E-01  0.00000000E+00  0.00000000E+00 -2.81047668E-01
 -3.83058075E-01  0.00000000E+00  0.00000000E+00  2.55377166E-02  6.87883068E-02
  7.29574496E-02 -4.58408423E-02  0.00000000E+00  0.00000000E+00  0.00000000E+00
 -6.03443154E-04  1.23770646E-01  0.00000000E+00 -2.43344659E-01  1.40506081E-01
 -3.82989206E-01  0.00000000E+00  2.21391377E-02 -1.27796015E-02  6.87671867E-02
 -1.61408640E-02  4.32388665E-02  0.00000000E+00  0.00000000E+00  5.93924125E-02
 -6.03443154E-04  1.23770646E-01  0.00000000E+00  2.43344659E-01  1.40506081E-01
 -3.82989206E-01  0.00000000E+00 -2.21391377E-02 -1.27796015E-02  6.87671867E-02
 -1.61408640E-02  4.32388665E-02  0.00000000E+00  0.00000000E+00 -5.93924125E-02
  5.50527910E-06  6.83696496E-05  0.00000000E+00  0.00000000E+00  6.01617402E-01
 -2.83558272E-05  0.00000000E+00  0.00000000E+00 -1.87428477E-01 -1.97494326E-05
 -2.54011547E-01  2.54052060E-01  0.00000000E+00  0.00000000E+00  0.00000000E+00
 -2.45822936E-02 -7.97219196E-01  0.00000000E+00  0.00000000E+00 -4.01090187E-01
  1.28193201E+00  0.00000000E+00  0.00000000E+00  8.10927525E-01 -3.37481111E-01
 -4.01378735E-01 -3.47689796E-01  0.00000000E+00  0.00000000E+00  0.00000000E+00
  1.22899731E-02  3.98565859E-01  0.00000000E+00  3.43349942E-01  1.93663105E-01
 -6.40902299E-01  0.00000000E+00 -5.07217863E-01 -6.77323733E-02  1.68717439E-01
  1.90807677E-01  1.83685472E-01  0.00000000E+00  0.00000000E+00  2.02736088E-02
  1.22899731E-02  3.98565859E-01  0.00000000E+00 -3.43349942E-01  1.93663105E-01
 -6.40902299E-01  0.00000000E+00  5.07217863E-01 -6.77323733E-02  1.68717439E-01
  1.90807677E-01  1.83685472E-01  0.00000000E+00  0.00000000E+00 -2.02736088E-02
  0.00000000E+00  0.00000000E+00  0.00000000E+00  6.01607193E-01  0.00000000E+00
  0.00000000E+00  0.00000000E+00 -1.87425238E-01  0.00000000E+00  0.00000000E+00
  0.00000000E+00  0.00000000E+00  0.00000000E+00  0.00000000E+00 -2.93323132E-01
  0.00000000E+00  0.00000000E+00  0.00000000E+00  3.91900759E-01  0.00000000E+00
  0.00000000E+00  0.00000000E+00 -3.60579223E-01  0.00000000E+00  0.00000000E+00
  0.00000000E+00  0.00000000E+00  0.00000000E+00  0.00000000E+00  1.58175139E-02
 -2.12882960E-02 -6.90383628E-01  0.00000000E+00 -2.02827322E-01  3.43370099E-01
  1.11015045E+00  0.00000000E+00  5.18008171E-01 -5.07254987E-01 -2.92252646E-01
 -3.06784816E-01 -3.41900209E-01  0.00000000E+00  0.00000000E+00 -1.92958252E-02
  2.12882960E-02  6.90383628E-01  0.00000000E+00 -2.02827322E-01 -3.43370099E-01
 -1.11015045E+00  0.00000000E+00  5.18008171E-01  5.07254987E-01  2.92252646E-01
  3.06784816E-01  3.41900209E-01  0.00000000E+00  0.00000000E+00 -1.92958252E-02
  7.24595306E-02  1.06872827E+00  0.00000000E+00  0.00000000E+00 -2.61910014E-05
 -5.86685501E-01  0.00000000E+00  0.00000000E+00  8.67605932E-06 -3.66531806E-01
  3.54297442E-01  3.54265423E-01  0.00000000E+00  0.00000000E+00  0.00000000E+00
 -1.85505451E-02 -5.89226433E-01  0.00000000E+00  0.00000000E+00 -3.03011264E-01
  9.56052818E-01  0.00000000E+00  0.00000000E+00  7.12317170E-01 -3.18255717E-01
 -2.38189712E-01 -2.89001840E-01  0.00000000E+00  0.00000000E+00  0.00000000E+00
 -1.85523260E-02 -5.89290214E-01  0.00000000E+00 -2.62454342E-01  1.51505687E-01
  9.56159381E-01  0.00000000E+00  6.16947337E-01 -3.56173212E-01 -3.18281699E-01
 -2.76327984E-01 -2.50923156E-01  0.00000000E+00  0.00000000E+00  2.54027869E-02
 -1.85523260E-02 -5.89290214E-01  0.00000000E+00  2.62454342E-01  1.51505687E-01
  9.56159381E-01  0.00000000E+00 -6.16947337E-01 -3.56173212E-01 -3.18281699E-01
 -2.76327984E-01 -2.50923156E-01  0.00000000E+00  0.00000000E+00 -2.54027869E-02
  0.00000000E+00  0.00000000E+00  0.00000000E+00  0.00000000E+00  0.00000000E+00
  0.00000000E+00  0.00000000E+00  0.00000000E+00  0.00000000E+00  0.00000000E+00
  0.00000000E+00  0.00000000E+00 -4.96550374E-01  0.00000000E+00  0.00000000E+00
  0.00000000E+00  0.00000000E+00  0.00000000E+00  0.00000000E+00  0.00000000E+00
  0.00000000E+00  0.00000000E+00  0.00000000E+00  0.00000000E+00  0.00000000E+00
  0.00000000E+00  0.00000000E+00 -1.16909702E-01  0.00000000E+00  0.00000000E+00
  0.00000000E+00  0.00000000E+00  5.43312504E-01  0.00000000E+00  0.00000000E+00
  0.00000000E+00 -4.56637415E-01  0.00000000E+00  0.00000000E+00  0.00000000E+00
  0.00000000E+00  0.00000000E+00  5.34527873E-02 -9.83569284E-02  0.00000000E+00
  0.00000000E+00  0.00000000E+00 -5.43312504E-01  0.00000000E+00  0.00000000E+00
  0.00000000E+00  4.56637415E-01  0.00000000E+00  0.00000000E+00  0.00000000E+00
  0.00000000E+00  0.00000000E+00  5.34527873E-02  9.83569284E-02  0.00000000E+00
  0.00000000E+00  0.00000000E+00  1.77634093E-06  0.00000000E+00  0.00000000E+00
  0.00000000E+00 -8.68673558E-07  0.00000000E+00  0.00000000E+00  0.00000000E+00
  0.00000000E+00  0.00000000E+00  0.00000000E+00 -4.96548624E-01  0.00000000E+00
  0.00000000E+00  0.00000000E+00  6.27367964E-01  0.00000000E+00  0.00000000E+00
  0.00000000E+00 -5.27284090E-01  0.00000000E+00  0.00000000E+00  0.00000000E+00
  0.00000000E+00  0.00000000E+00  0.00000000E+00  1.10236556E-01  0.00000000E+00
  0.00000000E+00  0.00000000E+00 -3.13680628E-01  0.00000000E+00  0.00000000E+00
  0.00000000E+00  2.63640225E-01  0.00000000E+00  0.00000000E+00  0.00000000E+00
  0.00000000E+00  0.00000000E+00 -9.83570472E-02 -6.01226908E-02  0.00000000E+00
  0.00000000E+00  0.00000000E+00 -3.13680628E-01  0.00000000E+00  0.00000000E+00
  0.00000000E+00  2.63640225E-01  0.00000000E+00  0.00000000E+00  0.00000000E+00
  0.00000000E+00  0.00000000E+00  9.83570472E-02 -6.01226908E-02  0.00000000E+00
  0.00000000E+00  0.00000000E+00 -9.85207478E-07  0.00000000E+00  0.00000000E+00
  0.00000000E+00 -5.00970147E-06  0.00000000E+00  0.00000000E+00  0.00000000E+00
  0.00000000E+00  0.00000000E+00  0.00000000E+00 -6.48795072E-01  0.00000000E+00
  0.00000000E+00  0.00000000E+00 -4.44921699E-01  0.00000000E+00  0.00000000E+00
  0.00000000E+00  7.49629805E-01  0.00000000E+00  0.00000000E+00  0.00000000E+00
  0.00000000E+00  0.00000000E+00  0.00000000E+00  2.50993672E-01  0.00000000E+00
  0.00000000E+00  0.00000000E+00  2.22458503E-01  0.00000000E+00  0.00000000E+00
  0.00000000E+00 -3.74807776E-01  0.00000000E+00  0.00000000E+00  0.00000000E+00
  0.00000000E+00  0.00000000E+00 -1.61923625E-01 -2.94673681E-02  0.00000000E+00
  0.00000000E+00  0.00000000E+00  2.22458503E-01  0.00000000E+00  0.00000000E+00
  0.00000000E+00 -3.74807776E-01  0.00000000E+00  0.00000000E+00  0.00000000E+00
  0.00000000E+00  0.00000000E+00  1.61923625E-01 -2.94673681E-02  0.00000000E+00
  0.00000000E+00  0.00000000E+00  0.00000000E+00  0.00000000E+00  0.00000000E+00
  0.00000000E+00  0.00000000E+00  0.00000000E+00  0.00000000E+00  0.00000000E+00
  0.00000000E+00  0.00000000E+00 -6.48791674E-01  0.00000000E+00  0.00000000E+00
  0.00000000E+00  0.00000000E+00  0.00000000E+00  0.00000000E+00  0.00000000E+00
  0.00000000E+00  0.00000000E+00  0.00000000E+00  0.00000000E+00  0.00000000E+00
  0.00000000E+00  0.00000000E+00 -1.22953796E-01  0.00000000E+00  0.00000000E+00
  0.00000000E+00  0.00000000E+00 -3.85315252E-01  0.00000000E+00  0.00000000E+00
  0.00000000E+00  6.49195068E-01  0.00000000E+00  0.00000000E+00  0.00000000E+00
  0.00000000E+00  0.00000000E+00  1.57507747E-01 -1.61923218E-01  0.00000000E+00
  0.00000000E+00  0.00000000E+00  3.85315252E-01  0.00000000E+00  0.00000000E+00
  0.00000000E+00 -6.49195068E-01  0.00000000E+00  0.00000000E+00  0.00000000E+00
  0.00000000E+00  0.00000000E+00  1.57507747E-01  1.61923218E-01  0.00000000E+00
  0.00000000E+00  0.00000000E+00  0.00000000E+00 -1.87568021E-03  0.00000000E+00
  0.00000000E+00  0.00000000E+00  1.30776280E-03  0.00000000E+00  0.00000000E+00
  0.00000000E+00  0.00000000E+00  0.00000000E+00  0.00000000E+00  1.83591835E-03
  0.00000000E+00  0.00000000E+00  0.00000000E+00 -5.23995347E-01  0.00000000E+00
  0.00000000E+00  0.00000000E+00  6.54957275E-01  0.00000000E+00  0.00000000E+00
  0.00000000E+00  0.00000000E+00  0.00000000E+00  0.00000000E+00  1.20152998E-01
 -6.32869840E-05 -7.64379119E-04  0.00000000E+00  2.64156542E-01  4.55952672E-01
  2.02962047E-03  0.00000000E+00 -3.31906355E-01 -5.69885645E-01  1.28292417E-04
 -9.12625743E-02  9.04173195E-02  0.00000000E+00  0.00000000E+00 -6.02248380E-02
  6.32869840E-05  7.64379119E-04  0.00000000E+00  2.64156542E-01 -4.55952672E-01
 -2.02962047E-03  0.00000000E+00 -3.31906355E-01  5.69885645E-01 -1.28292417E-04
  9.12625743E-02 -9.04173195E-02  0.00000000E+00  0.00000000E+00 -6.02248380E-02
  0.00000000E+00  0.00000000E+00  0.00000000E+00  4.94685216E-01  0.00000000E+00
  0.00000000E+00  0.00000000E+00 -3.47141171E-01  0.00000000E+00  0.00000000E+00
  0.00000000E+00  0.00000000E+00  0.00000000E+00  0.00000000E+00 -4.85066907E-01
  0.00000000E+00  0.00000000E+00  0.00000000E+00 -5.22674376E-01  0.00000000E+00
  0.00000000E+00  0.00000000E+00  8.02664715E-01  0.00000000E+00  0.00000000E+00
  0.00000000E+00  0.00000000E+00  0.00000000E+00  0.00000000E+00  1.41849251E-01
  1.66806266E-02  2.01373058E-01  0.00000000E+00 -3.09810592E-01 -1.19453868E-01
 -5.34410804E-01  0.00000000E+00  7.69738721E-01  1.47013957E-02 -3.45046494E-02
  1.97575234E-01  2.57391981E-02  0.00000000E+00  0.00000000E+00 -3.13578245E-02
 -1.66806266E-02 -2.01373058E-01  0.00000000E+00 -3.09810592E-01  1.19453868E-01
  5.34410804E-01  0.00000000E+00  7.69738721E-01 -1.47013957E-02  3.45046494E-02
 -1.97575234E-01 -2.57391981E-02  0.00000000E+00  0.00000000E+00 -3.13578245E-02
 -2.39468334E-07  1.24850684E-05  0.00000000E+00  0.00000000E+00  4.94693027E-01
 -3.05718379E-06  0.00000000E+00  0.00000000E+00 -3.47139634E-01 -8.54380188E-06
 -4.20080176E-01  4.20081777E-01  0.00000000E+00  0.00000000E+00  0.00000000E+00
  1.92617277E-02  2.32537618E-01  0.00000000E+00  0.00000000E+00 -2.40834886E-01
 -6.17117664E-01  0.00000000E+00  0.00000000E+00  7.61253849E-01 -3.98431961E-02
  5.21755861E-02  2.05698895E-01  0.00000000E+00  0.00000000E+00  0.00000000E+00
 -9.63094890E-03 -1.16271717E-01  0.00000000E+00 -1.21175280E-01 -4.50730980E-01
  3.08560289E-01  0.00000000E+00  1.68520044E-02  7.90450091E-01  1.99166060E-02
  8.17994365E-03 -1.37115720E-01  0.00000000E+00  0.00000000E+00  9.96091693E-02
 -9.63094890E-03 -1.16271717E-01  0.00000000E+00  1.21175280E-01 -4.50730980E-01
  3.08560289E-01  0.00000000E+00 -1.68520044E-02  7.90450091E-01  1.99166060E-02
  8.17994365E-03 -1.37115720E-01  0.00000000E+00  0.00000000E+00 -9.96091693E-02
  0.00000000E+00  0.00000000E+00 -1.59381393E-02  0.00000000E+00  0.00000000E+00
  0.00000000E+00 -6.94987378E-01  0.00000000E+00  0.00000000E+00  0.00000000E+00
  0.00000000E+00  0.00000000E+00  0.00000000E+00 -4.84189211E-07  0.00000000E+00
  0.00000000E+00  0.00000000E+00 -5.27013267E-01  0.00000000E+00  0.00000000E+00
  0.00000000E+00  7.90354656E-01  0.00000000E+00  0.00000000E+00  0.00000000E+00
  0.00000000E+00  0.00000000E+00  0.00000000E+00  1.05003493E-01  0.00000000E+00
  0.00000000E+00  0.00000000E+00 -5.27018604E-01  0.00000000E+00  0.00000000E+00
  0.00000000E+00  7.90359982E-01  0.00000000E+00  0.00000000E+00  0.00000000E+00
  0.00000000E+00  0.00000000E+00  9.09376152E-02 -5.25009195E-02  0.00000000E+00
  0.00000000E+00  0.00000000E+00 -5.27018604E-01  0.00000000E+00  0.00000000E+00
  0.00000000E+00  7.90359982E-01  0.00000000E+00  0.00000000E+00  0.00000000E+00
  0.00000000E+00  0.00000000E+00 -9.09376152E-02 -5.25009195E-02  0.00000000E+00
 -1.04115310E-01 -1.88853762E-01  0.00000000E+00  0.00000000E+00 -1.05609301E-05
 -2.89416621E-01  0.00000000E+00  0.00000000E+00 -1.63799638E-05 -6.72061695E-01
  2.14513218E-01  2.14491259E-01  0.00000000E+00  0.00000000E+00  0.00000000E+00
 -2.03580717E-02 -3.99582869E-01  0.00000000E+00  0.00000000E+00  3.44531083E-01
  7.72525116E-01  0.00000000E+00  0.00000000E+00 -4.04935535E-01 -3.59359437E-01
  1.10558118E-01 -2.32061128E-01  0.00000000E+00  0.00000000E+00  0.00000000E+00
 -2.03552378E-02 -3.99551758E-01  0.00000000E+00  2.98380702E-01 -1.72269181E-01
  7.72440723E-01  0.00000000E+00 -3.50678162E-01  2.02461897E-01 -3.59342079E-01
 -1.46399004E-01  2.49177742E-02  0.00000000E+00  0.00000000E+00  1.71298957E-01
 -2.03552378E-02 -3.99551758E-01  0.00000000E+00 -2.98380702E-01 -1.72269181E-01
  7.72440723E-01  0.00000000E+00  3.50678162E-01  2.02461897E-01 -3.59342079E-01
 -1.46399004E-01  2.49177742E-02  0.00000000E+00  0.00000000E+00 -1.71298957E-01
  0.00000000E+00  0.00000000E+00  0.00000000E+00 -4.47167356E-01  0.00000000E+00
  0.00000000E+00  0.00000000E+00 -7.01732856E-01  0.00000000E+00  0.00000000E+00
  0.00000000E+00  0.00000000E+00  0.00000000E+00  0.00000000E+00  6.32031206E-01
  0.00000000E+00  0.00000000E+00  0.00000000E+00 -2.24419398E-01  0.00000000E+00
  0.00000000E+00  0.00000000E+00  2.79607837E-01  0.00000000E+00  0.00000000E+00
  0.00000000E+00  0.00000000E+00  0.00000000E+00  0.00000000E+00 -3.14699517E-01
 -5.12843074E-02 -2.53856125E-01  0.00000000E+00 -4.08963316E-01  1.06543796E-01
  1.19943257E+00  0.00000000E+00  1.30419411E-01  8.61342920E-02 -3.63185230E-01
 -2.21671483E-01  1.51157799E-01  0.00000000E+00  0.00000000E+00  5.81124480E-02
  5.12843074E-02  2.53856125E-01  0.00000000E+00 -4.08963316E-01 -1.06543796E-01
 -1.19943257E+00  0.00000000E+00  1.30419411E-01 -8.61342920E-02  3.63185230E-01
  2.21671483E-01 -1.51157799E-01  0.00000000E+00  0.00000000E+00  5.81124480E-02
  2.37637171E-06 -1.29656489E-05  0.00000000E+00  0.00000000E+00 -4.47176613E-01
 -1.62953382E-05  0.00000000E+00  0.00000000E+00 -7.01750208E-01  2.12467565E-05
  5.47348800E-01 -5.47364632E-01  0.00000000E+00  0.00000000E+00  0.00000000E+00
 -5.92193660E-02 -2.93142966E-01  0.00000000E+00  0.00000000E+00 -4.70481587E-01
  1.38504220E+00  0.00000000E+00  0.00000000E+00  8.06795936E-02 -4.19376903E-01
  1.17241617E-01 -1.98674340E-01  0.00000000E+00  0.00000000E+00  0.00000000E+00
  2.96088203E-02  1.46567243E-01  0.00000000E+00  1.06538263E-01 -2.85932343E-01
 -6.92493981E-01  0.00000000E+00  8.61432954E-02  2.29885379E-01  2.09696156E-01
 -1.44559404E-01  1.85261999E-01  0.00000000E+00  0.00000000E+00 -2.15253314E-01
  2.96088203E-02  1.46567243E-01  0.00000000E+00 -1.06538263E-01 -2.85932343E-01
 -6.92493981E-01  0.00000000E+00 -8.61432954E-02  2.29885379E-01  2.09696156E-01
 -1.44559404E-01  1.85261999E-01  0.00000000E+00  0.00000000E+00  2.15253314E-01
  4.22536593E-02 -3.83108723E-01  0.00000000E+00  0.00000000E+00 -2.58719265E-05
 -2.24277838E+00  0.00000000E+00  0.00000000E+00 -1.93819747E-04  6.30931167E-01
 -1.38178582E-01 -1.38190843E-01  0.00000000E+00  0.00000000E+00  0.00000000E+00
 -7.02584438E-02 -1.04022467E+00  0.00000000E+00  0.00000000E+00  3.14529337E-02
  2.62511663E+00  0.00000000E+00  0.00000000E+00 -5.15511281E-01 -1.49118277E-01
 -3.08258188E-01 -6.57961642E-01  0.00000000E+00  0.00000000E+00  0.00000000E+00
 -7.02435941E-02 -1.03994395E+00  0.00000000E+00  2.72026254E-02 -1.57414477E-02
  2.62445617E+00  0.00000000E+00 -4.46334453E-01  2.57770210E-01 -1.49088011E-01
 -5.70377162E-01 -3.95586938E-01  0.00000000E+00  0.00000000E+00  1.74837253E-01
 -7.02435941E-02 -1.03994395E+00  0.00000000E+00 -2.72026254E-02 -1.57414477E-02
  2.62445617E+00  0.00000000E+00  4.46334453E-01  2.57770210E-01 -1.49088011E-01
 -5.70377162E-01 -3.95586938E-01  0.00000000E+00  0.00000000E+00 -1.74837253E-01
 -4.57217884E-06  3.24140776E-05  0.00000000E+00  0.00000000E+00 -1.67705579E-01
  2.71526636E-04  0.00000000E+00  0.00000000E+00 -1.53859484E+00 -6.60639237E-05
  1.23210724E-01 -1.23179972E-01  0.00000000E+00  0.00000000E+00  0.00000000E+00
 -7.33267266E-02 -1.44702962E+00  0.00000000E+00  0.00000000E+00  9.78848794E-02
  3.38089273E+00  0.00000000E+00  0.00000000E+00 -4.54523822E-01 -1.16015734E-01
 -4.94812242E-01 -8.11249624E-01  0.00000000E+00  0.00000000E+00  0.00000000E+00
  3.66754655E-02  7.23706439E-01  0.00000000E+00 -1.74129241E-01 -2.03693757E-01
 -1.69091653E+00  0.00000000E+00  4.78641407E-01  3.74314015E-01  5.80272722E-02
  4.97539532E-01  1.55671491E-01  0.00000000E+00  0.00000000E+00  8.43650084E-03
  3.66754655E-02  7.23706439E-01  0.00000000E+00  1.74129241E-01 -2.03693757E-01
 -1.69091653E+00  0.00000000E+00 -4.78641407E-01  3.74314015E-01  5.80272722E-02
  4.97539532E-01  1.55671491E-01  0.00000000E+00  0.00000000E+00 -8.43650084E-03
  0.00000000E+00  0.00000000E+00  0.00000000E+00 -1.67701474E-01  0.00000000E+00
  0.00000000E+00  0.00000000E+00 -1.53861060E+00  0.00000000E+00  0.00000000E+00
  0.00000000E+00  0.00000000E+00  0.00000000E+00  0.00000000E+00  1.42252507E-01
  0.00000000E+00  0.00000000E+00  0.00000000E+00 -3.04225447E-01  0.00000000E+00
  0.00000000E+00  0.00000000E+00  6.50657137E-01  0.00000000E+00  0.00000000E+00
  0.00000000E+00  0.00000000E+00  0.00000000E+00  0.00000000E+00  2.02240130E-01
 -6.35086077E-02 -1.25328127E+00  0.00000000E+00 -2.63531102E-03 -1.74121173E-01
  2.92821468E+00  0.00000000E+00 -1.78279500E-01  4.78582198E-01 -1.00490789E-01
 -5.58261317E-01 -5.72909346E-01  0.00000000E+00  0.00000000E+00  1.87616174E-01
  6.35086077E-02  1.25328127E+00  0.00000000E+00 -2.63531102E-03  1.74121173E-01
 -2.92821468E+00  0.00000000E+00 -1.78279500E-01 -4.78582198E-01  1.00490789E-01
  5.58261317E-01  5.72909346E-01  0.00000000E+00  0.00000000E+00  1.87616174E-01
  0.00000000E+00  0.00000000E+00  0.00000000E+00  0.00000000E+00  0.00000000E+00
  0.00000000E+00  0.00000000E+00  0.00000000E+00  0.00000000E+00  0.00000000E+00
  0.00000000E+00  0.00000000E+00  3.05901652E-03  0.00000000E+00  0.00000000E+00
  0.00000000E+00  0.00000000E+00  0.00000000E+00  0.00000000E+00  0.00000000E+00
  0.00000000E+00  0.00000000E+00  0.00000000E+00  0.00000000E+00  0.00000000E+00
  0.00000000E+00  0.00000000E+00  7.45239947E-01  0.00000000E+00  0.00000000E+00
  0.00000000E+00  0.00000000E+00  5.07478658E-02  0.00000000E+00  0.00000000E+00
  0.00000000E+00 -5.93164141E-02  0.00000000E+00  0.00000000E+00  0.00000000E+00
  0.00000000E+00  0.00000000E+00  4.37607225E-01  1.77657630E-01  0.00000000E+00
  0.00000000E+00  0.00000000E+00 -5.07478658E-02  0.00000000E+00  0.00000000E+00
  0.00000000E+00  5.93164141E-02  0.00000000E+00  0.00000000E+00  0.00000000E+00
  0.00000000E+00  0.00000000E+00  4.37607225E-01 -1.77657630E-01  0.00000000E+00
  0.00000000E+00  0.00000000E+00 -2.13524245E-07  0.00000000E+00  0.00000000E+00
  0.00000000E+00 -1.30240855E-07  0.00000000E+00  0.00000000E+00  0.00000000E+00
  0.00000000E+00  0.00000000E+00  0.00000000E+00  3.05938154E-03  0.00000000E+00
  0.00000000E+00  0.00000000E+00  5.86000055E-02  0.00000000E+00  0.00000000E+00
  0.00000000E+00 -6.84947241E-02  0.00000000E+00  0.00000000E+00  0.00000000E+00
  0.00000000E+00  0.00000000E+00  0.00000000E+00  3.35034873E-01  0.00000000E+00
  0.00000000E+00  0.00000000E+00 -2.92993402E-02  0.00000000E+00  0.00000000E+00
  0.00000000E+00  3.42465755E-02  0.00000000E+00  0.00000000E+00  0.00000000E+00
  0.00000000E+00  0.00000000E+00  1.77629912E-01  6.42710802E-01  0.00000000E+00
  0.00000000E+00  0.00000000E+00 -2.92993402E-02  0.00000000E+00  0.00000000E+00
  0.00000000E+00  3.42465755E-02  0.00000000E+00  0.00000000E+00  0.00000000E+00
  0.00000000E+00  0.00000000E+00 -1.77629912E-01  6.42710802E-01  0.00000000E+00
  0.00000000E+00  0.00000000E+00  0.00000000E+00  0.00000000E+00  0.00000000E+00
  0.00000000E+00  0.00000000E+00  0.00000000E+00  0.00000000E+00  0.00000000E+00
  0.00000000E+00  0.00000000E+00 -3.40868761E-07  0.00000000E+00  0.00000000E+00
  0.00000000E+00  0.00000000E+00  0.00000000E+00  0.00000000E+00  0.00000000E+00
  0.00000000E+00  0.00000000E+00  0.00000000E+00  0.00000000E+00  0.00000000E+00
  0.00000000E+00  0.00000000E+00  5.78817462E-01  0.00000000E+00  0.00000000E+00
  0.00000000E+00  0.00000000E+00  3.20553371E-06  0.00000000E+00  0.00000000E+00
  0.00000000E+00 -3.81479455E-06  0.00000000E+00  0.00000000E+00  0.00000000E+00
  0.00000000E+00  0.00000000E+00 -2.89369934E-01 -5.01237058E-01  0.00000000E+00
  0.00000000E+00  0.00000000E+00 -3.20553371E-06  0.00000000E+00  0.00000000E+00
  0.00000000E+00  3.81479455E-06  0.00000000E+00  0.00000000E+00  0.00000000E+00
  0.00000000E+00  0.00000000E+00 -2.89369934E-01  5.01237058E-01  0.00000000E+00
  0.00000000E+00  0.00000000E+00  0.00000000E+00 -1.53740922E-01  0.00000000E+00
  0.00000000E+00  0.00000000E+00  1.82244682E-02  0.00000000E+00  0.00000000E+00
  0.00000000E+00  0.00000000E+00  0.00000000E+00  0.00000000E+00  1.75724012E-01
  0.00000000E+00  0.00000000E+00  0.00000000E+00 -9.35822816E-02  0.00000000E+00
  0.00000000E+00  0.00000000E+00  9.44161501E-02  0.00000000E+00  0.00000000E+00
  0.00000000E+00  0.00000000E+00  0.00000000E+00  0.00000000E+00 -2.67397212E-01
 -1.51178664E-02  2.60936671E-01  0.00000000E+00 -1.85226709E-01  5.28931518E-02
 -2.34367406E-01  0.00000000E+00  1.56524683E-01 -3.58363175E-02  5.25580334E-01
 -1.66284901E-01 -2.89969111E-01  0.00000000E+00  0.00000000E+00 -3.91211200E-01
  1.51178664E-02 -2.60936671E-01  0.00000000E+00 -1.85226709E-01 -5.28931518E-02
  2.34367406E-01  0.00000000E+00  1.56524683E-01  3.58363175E-02 -5.25580334E-01
  1.66284901E-01  2.89969111E-01  0.00000000E+00  0.00000000E+00 -3.91211200E-01
 -3.70675191E-07  2.45126790E-08  0.00000000E+00  0.00000000E+00  1.53752820E-01
  7.56357567E-06  0.00000000E+00  0.00000000E+00 -1.82370029E-02 -1.01450894E-07
 -1.52187528E-01  1.52188701E-01  0.00000000E+00  0.00000000E+00  0.00000000E+00
  1.74566541E-02 -3.01322436E-01  0.00000000E+00  0.00000000E+00  2.15773735E-01
  2.70648762E-01  0.00000000E+00  0.00000000E+00 -1.77219909E-01 -6.06880043E-01
  6.37912942E-01 -1.11097005E-01  0.00000000E+00  0.00000000E+00  0.00000000E+00
 -8.72815817E-03  1.50666332E-01  0.00000000E+00 -5.29070104E-02  1.24137055E-01
 -1.35336815E-01  0.00000000E+00  3.58533362E-02 -1.15125943E-01  3.03439871E-01
  1.35642386E-01 -3.99046126E-01  0.00000000E+00  0.00000000E+00 -7.14398407E-02
 -8.72815817E-03  1.50666332E-01  0.00000000E+00  5.29070104E-02  1.24137055E-01
 -1.35336815E-01  0.00000000E+00 -3.58533362E-02 -1.15125943E-01  3.03439871E-01
  1.35642386E-01 -3.99046126E-01  0.00000000E+00  0.00000000E+00  7.14398407E-02
  0.00000000E+00  0.00000000E+00  0.00000000E+00  2.05440584E-05  0.00000000E+00
  0.00000000E+00  0.00000000E+00 -1.63508750E-05  0.00000000E+00  0.00000000E+00
  0.00000000E+00  0.00000000E+00  0.00000000E+00  0.00000000E+00 -1.60478975E-05
  0.00000000E+00  0.00000000E+00  0.00000000E+00  1.54678631E-01  0.00000000E+00
  0.00000000E+00  0.00000000E+00 -2.07008847E-01  0.00000000E+00  0.00000000E+00
  0.00000000E+00  0.00000000E+00  0.00000000E+00  0.00000000E+00  5.79902892E-01
  1.25189925E-06 -3.70362271E-05  0.00000000E+00 -7.73165704E-02 -1.33955724E-01
  4.59824528E-05  0.00000000E+00  1.03484626E-01  1.79276137E-01 -3.68645989E-05
 -4.34896422E-01  4.34918381E-01  0.00000000E+00  0.00000000E+00 -2.89907348E-01
 -1.25189925E-06  3.70362271E-05  0.00000000E+00 -7.73165704E-02  1.33955724E-01
 -4.59824528E-05  0.00000000E+00  1.03484626E-01 -1.79276137E-01  3.68645989E-05
  4.34896422E-01 -4.34918381E-01  0.00000000E+00  0.00000000E+00 -2.89907348E-01
  8.59926586E-02 -2.10787940E-01  0.00000000E+00  0.00000000E+00 -6.98843418E-06
 -2.77598740E-01  0.00000000E+00  0.00000000E+00  1.15461017E-05  8.35629834E-01
 -1.60769519E-01 -1.60767639E-01  0.00000000E+00  0.00000000E+00  0.00000000E+00
 -1.70266292E-02  1.14015920E-01  0.00000000E+00  0.00000000E+00 -1.70481233E-01
  7.40065549E-02  0.00000000E+00  0.00000000E+00  8.56052619E-02 -4.32304579E-01
  4.40610412E-01 -3.52286277E-02  0.00000000E+00  0.00000000E+00  0.00000000E+00
 -1.70266535E-02  1.14000182E-01  0.00000000E+00 -1.47638182E-01  8.52407742E-02
  7.40325702E-02  0.00000000E+00  7.41331338E-02 -4.28047550E-02 -4.32299435E-01
  8.37180053E-02  3.21650551E-01  0.00000000E+00  0.00000000E+00  2.37921470E-01
 -1.70266535E-02  1.14000182E-01  0.00000000E+00  1.47638182E-01  8.52407742E-02
  7.40325702E-02  0.00000000E+00 -7.41331338E-02 -4.28047550E-02 -4.32299435E-01
  8.37180053E-02  3.21650551E-01  0.00000000E+00  0.00000000E+00 -2.37921470E-01
  0.00000000E+00  0.00000000E+00  5.85942885E-01  0.00000000E+00  0.00000000E+00
  0.00000000E+00  1.86409804E-01  0.00000000E+00  0.00000000E+00  0.00000000E+00
  0.00000000E+00  0.00000000E+00  0.00000000E+00 -5.62905198E-06  0.00000000E+00
  0.00000000E+00  0.00000000E+00  1.41293861E-01  0.00000000E+00  0.00000000E+00
  0.00000000E+00 -3.10435525E-01  0.00000000E+00  0.00000000E+00  0.00000000E+00
  0.00000000E+00  0.00000000E+00  0.00000000E+00  6.24925521E-01  0.00000000E+00
  0.00000000E+00  0.00000000E+00  1.41295166E-01  0.00000000E+00  0.00000000E+00
  0.00000000E+00 -3.10438033E-01  0.00000000E+00  0.00000000E+00  0.00000000E+00
  0.00000000E+00  0.00000000E+00  5.41213724E-01 -3.12460881E-01  0.00000000E+00
  0.00000000E+00  0.00000000E+00  1.41295166E-01  0.00000000E+00  0.00000000E+00
  0.00000000E+00 -3.10438033E-01  0.00000000E+00  0.00000000E+00  0.00000000E+00
  0.00000000E+00  0.00000000E+00 -5.41213724E-01 -3.12460881E-01  0.00000000E+00
  0.00000000E+00  0.00000000E+00  1.37892525E-05  0.00000000E+00  0.00000000E+00
  0.00000000E+00  2.25443843E-06  0.00000000E+00  0.00000000E+00  0.00000000E+00
  0.00000000E+00  0.00000000E+00  0.00000000E+00  1.01028744E+00  0.00000000E+00
  0.00000000E+00  0.00000000E+00  8.73738000E-02  0.00000000E+00  0.00000000E+00
  0.00000000E+00 -4.17644593E-01  0.00000000E+00  0.00000000E+00  0.00000000E+00
  0.00000000E+00  0.00000000E+00  0.00000000E+00  8.54658942E-01  0.00000000E+00
  0.00000000E+00  0.00000000E+00 -4.36858735E-02  0.00000000E+00  0.00000000E+00
  0.00000000E+00  2.08813607E-01  0.00000000E+00  0.00000000E+00  0.00000000E+00
  0.00000000E+00  0.00000000E+00 -5.07126787E-01 -2.37387081E-02  0.00000000E+00
  0.00000000E+00  0.00000000E+00 -4.36858735E-02  0.00000000E+00  0.00000000E+00
  0.00000000E+00  2.08813607E-01  0.00000000E+00  0.00000000E+00  0.00000000E+00
  0.00000000E+00  0.00000000E+00  5.07126787E-01 -2.37387081E-02  0.00000000E+00
  0.00000000E+00  0.00000000E+00  0.00000000E+00  0.00000000E+00  0.00000000E+00
  0.00000000E+00  0.00000000E+00  0.00000000E+00  0.00000000E+00  0.00000000E+00
  0.00000000E+00  0.00000000E+00  1.01028616E+00  0.00000000E+00  0.00000000E+00
  0.00000000E+00  0.00000000E+00  0.00000000E+00  0.00000000E+00  0.00000000E+00
  0.00000000E+00  0.00000000E+00  0.00000000E+00  0.00000000E+00  0.00000000E+00
  0.00000000E+00  0.00000000E+00 -3.16529980E-01  0.00000000E+00  0.00000000E+00
  0.00000000E+00  0.00000000E+00  7.56676818E-02  0.00000000E+00  0.00000000E+00
  0.00000000E+00 -3.61683556E-01  0.00000000E+00  0.00000000E+00  0.00000000E+00
  0.00000000E+00  0.00000000E+00  5.61856545E-01 -5.07130538E-01  0.00000000E+00
  0.00000000E+00  0.00000000E+00 -7.56676818E-02  0.00000000E+00  0.00000000E+00
  0.00000000E+00  3.61683556E-01  0.00000000E+00  0.00000000E+00  0.00000000E+00
  0.00000000E+00  0.00000000E+00  5.61856545E-01  5.07130538E-01  0.00000000E+00
 -1.68949510E-06  1.51472939E-05  0.00000000E+00  0.00000000E+00 -9.40740087E-01
  2.89439173E-06  0.00000000E+00  0.00000000E+00 -4.88700464E-01 -8.47046210E-06
 -6.96948633E-01  6.96953285E-01  0.00000000E+00  0.00000000E+00  0.00000000E+00
  3.75049230E-02 -7.22864916E-01  0.00000000E+00  0.00000000E+00  2.81633546E-01
  1.01422060E+00  0.00000000E+00  0.00000000E+00 -5.24307800E-01 -1.48516220E-01
 -3.53484062E-02  3.23370988E-01  0.00000000E+00  0.00000000E+00  0.00000000E+00
 -1.87543911E-02  3.61439323E-01  0.00000000E+00 -1.67363608E-01 -8.24224655E-03
 -5.07110077E-01  0.00000000E+00  4.78776950E-01  3.04939940E-01  7.42586762E-02
 -6.28087423E-01  4.84058459E-01  0.00000000E+00  0.00000000E+00 -2.51145028E-01
 -1.87543911E-02  3.61439323E-01  0.00000000E+00  1.67363608E-01 -8.24224655E-03
 -5.07110077E-01  0.00000000E+00 -4.78776950E-01  3.04939940E-01  7.42586762E-02
 -6.28087423E-01  4.84058459E-01  0.00000000E+00  0.00000000E+00  2.51145028E-01
  0.00000000E+00  0.00000000E+00  0.00000000E+00  9.40800743E-01  0.00000000E+00
  0.00000000E+00  0.00000000E+00  4.88702654E-01  0.00000000E+00  0.00000000E+00
  0.00000000E+00  0.00000000E+00  0.00000000E+00  0.00000000E+00  8.04737163E-01
  0.00000000E+00  0.00000000E+00  0.00000000E+00  1.04864307E-01  0.00000000E+00
  0.00000000E+00  0.00000000E+00 -5.81358598E-01  0.00000000E+00  0.00000000E+00
  0.00000000E+00  0.00000000E+00  0.00000000E+00  0.00000000E+00  7.87089967E-01
 -3.24814090E-02  6.26030815E-01  0.00000000E+00 -1.85007328E-01  1.67357207E-01
 -8.78375253E-01  0.00000000E+00  2.47924866E-01 -4.78783038E-01  1.28624247E-01
  9.27508249E-02 -3.42209726E-01  0.00000000E+00  0.00000000E+00  3.52126433E-01
  3.24814090E-02 -6.26030815E-01  0.00000000E+00 -1.85007328E-01 -1.67357207E-01
  8.78375253E-01  0.00000000E+00  2.47924866E-01  4.78783038E-01 -1.28624247E-01
 -9.27508249E-02  3.42209726E-01  0.00000000E+00  0.00000000E+00  3.52126433E-01
  0.00000000E+00  0.00000000E+00  0.00000000E+00  1.96548743E+00  0.00000000E+00
  0.00000000E+00  0.00000000E+00 -1.55544844E-02  0.00000000E+00  0.00000000E+00
  0.00000000E+00  0.00000000E+00  0.00000000E+00  0.00000000E+00 -1.48447620E+00
  0.00000000E+00  0.00000000E+00  0.00000000E+00 -3.19830002E-02  0.00000000E+00
  0.00000000E+00  0.00000000E+00  2.64799341E-01  0.00000000E+00  0.00000000E+00
  0.00000000E+00  0.00000000E+00  0.00000000E+00  0.00000000E+00 -4.65054034E-01
  1.31273503E-02  4.95674775E-01  0.00000000E+00  1.81290088E-02 -2.89308279E-02
 -1.57579911E+00  0.00000000E+00  1.15983271E+00 -5.16745553E-01  3.93319100E-01
 -7.93094603E-01  2.95001541E-01  0.00000000E+00  0.00000000E+00  6.23030303E-01
 -1.31273503E-02 -4.95674775E-01  0.00000000E+00  1.81290088E-02  2.89308279E-02
  1.57579911E+00  0.00000000E+00  1.15983271E+00  5.16745553E-01 -3.93319100E-01
  7.93094603E-01 -2.95001541E-01  0.00000000E+00  0.00000000E+00  6.23030303E-01
  1.21662985E-05 -7.51294875E-05  0.00000000E+00  0.00000000E+00  1.96553635E+00
 -2.92777326E-05  0.00000000E+00  0.00000000E+00 -1.55550230E-02  4.50098339E-05
 -1.28554495E+00  1.28561056E+00  0.00000000E+00  0.00000000E+00  0.00000000E+00
  1.51522942E-02  5.72347208E-01  0.00000000E+00  0.00000000E+00  3.48364754E-02
 -1.81954407E+00  0.00000000E+00  0.00000000E+00  1.45819455E+00  4.54146678E-01
  5.66071323E-01 -1.14126980E+00  0.00000000E+00  0.00000000E+00  0.00000000E+00
 -7.57850054E-03 -2.86197384E-01  0.00000000E+00 -2.89272132E-02 -1.52825658E-02
  9.09823085E-01  0.00000000E+00 -5.16774492E-01  5.63139475E-01 -2.27090112E-01
  5.51737372E-02  2.32410949E-01  0.00000000E+00  0.00000000E+00 -6.28207220E-01
 -7.57850054E-03 -2.86197384E-01  0.00000000E+00  2.89272132E-02 -1.52825658E-02
  9.09823085E-01  0.00000000E+00  5.16774492E-01  5.63139475E-01 -2.27090112E-01
  5.51737372E-02  2.32410949E-01  0.00000000E+00  0.00000000E+00  6.28207220E-01
 -2.34572833E-01  4.68793882E+00  0.00000000E+00  0.00000000E+00  6.84406475E-05
  5.00428575E-01  0.00000000E+00  0.00000000E+00  2.30736654E-07 -1.80402632E+00
 -1.26372621E+00 -1.26367990E+00  0.00000000E+00  0.00000000E+00  0.00000000E+00
  2.52868544E-03  4.64788684E-01  0.00000000E+00  0.00000000E+00 -1.35851413E-01
 -9.81888615E-01  0.00000000E+00  0.00000000E+00  6.03333760E-01  2.53676663E-01
  2.45667486E-01 -4.57129121E-01  0.00000000E+00  0.00000000E+00  0.00000000E+00
  2.52775152E-03  4.64758434E-01  0.00000000E+00 -1.17650757E-01  6.79239212E-02
 -9.81799148E-01  0.00000000E+00  5.22445715E-01 -3.01628504E-01  2.53654550E-01
 -2.81403416E-01  6.99680798E-02  0.00000000E+00  0.00000000E+00  3.51357021E-01
  2.52775152E-03  4.64758434E-01  0.00000000E+00  1.17650757E-01  6.79239212E-02
 -9.81799148E-01  0.00000000E+00 -5.22445715E-01 -3.01628504E-01  2.53654550E-01
 -2.81403416E-01  6.99680798E-02  0.00000000E+00  0.00000000E+00 -3.51357021E-01
  4.42837337E-01 -4.96381355E-01  0.00000000E+00  0.00000000E+00  1.88778782E-05
 -7.29741207E-02  0.00000000E+00  0.00000000E+00  2.01269808E-06  7.16443758E-01
  2.15179479E+00  2.15176171E+00  0.00000000E+00  0.00000000E+00  0.00000000E+00
 -1.16079625E-01  2.34603210E-01  0.00000000E+00  0.00000000E+00  7.16037547E-02
 -6.57982869E-02  0.00000000E+00  0.00000000E+00  1.08210376E+00 -1.63991618E-01
 -3.20133956E-01 -1.17074647E+00  0.00000000E+00  0.00000000E+00  0.00000000E+00
 -1.16078141E-01  2.34605828E-01  0.00000000E+00  6.20089663E-02 -3.58011963E-02
 -6.57954848E-02  0.00000000E+00  9.37124886E-01 -5.41050819E-01 -1.63985653E-01
 -9.58088608E-01 -5.32783385E-01  0.00000000E+00  0.00000000E+00  4.25314622E-01
 -1.16078141E-01  2.34605828E-01  0.00000000E+00 -6.20089663E-02 -3.58011963E-02
 -6.57954848E-02  0.00000000E+00 -9.37124886E-01 -5.41050819E-01 -1.63985653E-01
 -9.58088608E-01 -5.32783385E-01  0.00000000E+00  0.00000000E+00 -4.25314622E-01
 -3.99662322E-01 -1.06863358E+00  0.00000000E+00  0.00000000E+00  2.28963737E-04
 -2.49059170E+00  0.00000000E+00  0.00000000E+00  6.68882251E-04 -1.29451982E-02
 -1.36343154E+00 -1.36360380E+00  0.00000000E+00  0.00000000E+00  0.00000000E+00
 -4.07099379E-01 -1.60947481E+00  0.00000000E+00  0.00000000E+00  9.24377901E-02
  6.35326735E+00  0.00000000E+00  0.00000000E+00 -1.52133564E+00 -1.80501475E+00
 -1.83380696E+00 -9.16778208E-01  0.00000000E+00  0.00000000E+00  0.00000000E+00
 -4.07473001E-01 -1.61077766E+00  0.00000000E+00  8.02299950E-02 -4.62709221E-02
  6.35831159E+00  0.00000000E+00 -1.31806543E+00  7.60750635E-01 -1.80661491E+00
 -1.14740152E+00 -1.60609484E+00  0.00000000E+00  0.00000000E+00 -4.58562131E-01
 -4.07473001E-01 -1.61077766E+00  0.00000000E+00 -8.02299950E-02 -4.62709221E-02
  6.35831159E+00  0.00000000E+00  1.31806543E+00  7.60750635E-01 -1.80661491E+00
 -1.14740152E+00 -1.60609484E+00  0.00000000E+00  0.00000000E+00  4.58562131E-01
  0.00000000E+00  0.00000000E+00  0.00000000E+00 -5.94167501E-01  0.00000000E+00
  0.00000000E+00  0.00000000E+00 -1.61366454E+00  0.00000000E+00  0.00000000E+00
  0.00000000E+00  0.00000000E+00  0.00000000E+00  0.00000000E+00 -2.48534420E-01
  0.00000000E+00  0.00000000E+00  0.00000000E+00 -1.13800575E-01  0.00000000E+00
  0.00000000E+00  0.00000000E+00  5.40126779E-01  0.00000000E+00  0.00000000E+00
  0.00000000E+00  0.00000000E+00  0.00000000E+00  0.00000000E+00 -1.65248089E-01
 -5.19981747E-01 -1.81096578E+00  0.00000000E+00  1.81260493E-01 -1.70354389E-01
  7.04941816E+00  0.00000000E+00 -4.97665284E-01  5.99169013E-01 -2.22577620E+00
 -2.03038139E+00 -2.02002870E+00  0.00000000E+00  0.00000000E+00 -1.54899993E-01
  5.19981747E-01  1.81096578E+00  0.00000000E+00  1.81260493E-01  1.70354389E-01
 -7.04941816E+00  0.00000000E+00 -4.97665284E-01 -5.99169013E-01  2.22577620E+00
  2.03038139E+00  2.02002870E+00  0.00000000E+00  0.00000000E+00 -1.54899993E-01
 -1.68695488E-04 -4.52642418E-04  0.00000000E+00  0.00000000E+00 -5.94176744E-01
 -1.03417063E-03  0.00000000E+00  0.00000000E+00 -1.61363838E+00 -9.20456885E-06
 -2.15795733E-01  2.14661469E-01  0.00000000E+00  0.00000000E+00  0.00000000E+00
 -6.00592379E-01 -2.09179439E+00  0.00000000E+00  0.00000000E+00  2.79654220E-01
  8.14260858E+00  0.00000000E+00  0.00000000E+00 -8.44240214E-01 -2.57086135E+00
 -2.47042817E+00 -2.20771523E+00  0.00000000E+00  0.00000000E+00  0.00000000E+00
  3.00042205E-01  1.04489284E+00  0.00000000E+00 -1.70322050E-01 -1.54650588E-02
 -4.06733595E+00  0.00000000E+00  5.98622988E-01  1.94503770E-01  1.28430615E+00
  1.02865318E+00  1.30870240E+00  0.00000000E+00  0.00000000E+00 -6.16406193E-03
  3.00042205E-01  1.04489284E+00  0.00000000E+00  1.70322050E-01 -1.54650588E-02
 -4.06733595E+00  0.00000000E+00 -5.98622988E-01  1.94503770E-01  1.28430615E+00
  1.02865318E+00  1.30870240E+00  0.00000000E+00  0.00000000E+00  6.16406193E-03
Orthonormal basis                          R   N=        3600
  3.33506718E-02  1.55511661E-01 -8.29150386E-18 -7.55190877E-13  4.22600160E-04
  1.56534209E-01 -2.44281033E-18 -5.13509595E-13  4.45399553E-04  9.78470950E-02
  1.26866782E-01  1.26563961E-01  3.22745452E-18  1.83254551E-18  6.76210931E-13
  1.00187318E-02  5.25853773E-02 -1.63034114E-19 -1.34235807E-13 -2.40219658E-02
  8.61209354E-02 -7.22306740E-19 -4.27367512E-13 -6.96504216E-02  5.20059886E-02
  5.32860882E-02  7.32742499E-02  1.72430316E-19  3.97980647E-19  2.08824630E-13
  9.88419359E-03  5.19564920E-02 -1.58225604E-19 -2.06139854E-02  1.19831384E-02
  8.52343787E-02 -7.04516987E-19 -5.99001591E-02  3.48436152E-02  5.13988008E-02
  6.75875989E-02  5.77052816E-02  3.94525838E-19 -8.42618757E-20 -1.60784319E-02
  9.88419359E-03  5.19564920E-02  2.48280794E-18  2.06139854E-02  1.19831384E-02
  8.52343787E-02  6.58526349E-18  5.99001591E-02  3.48436152E-02  5.13988008E-02
  6.75875989E-02  5.77052816E-02  3.53067273E-18  2.10159841E-18  1.60784319E-02
  7.09481128E-15  5.54372626E-13  1.62254077E-17  1.64973833E-01  3.98683156E-11
  9.22068088E-13  1.61996993E-17  1.97365338E-01  4.73791231E-11  2.88508306E-13
 -7.75734566E-12  8.78066319E-12  2.98701060E-18  2.92166788E-17 -6.83415948E-02
  7.29488521E-12  3.36646720E-11 -3.68297446E-18  1.42782010E-02 -4.56538867E-12
  4.41684901E-11 -1.84445470E-18  4.77648820E-02 -5.31486336E-12  3.15489087E-11
  3.12548214E-11  3.32987291E-11 -1.06172944E-19  6.59390405E-18 -1.66472989E-02
  2.64097575E-02  1.21663493E-01  7.50438807E-18 -1.13618962E-02  1.48435386E-02
  1.58377772E-01  1.51324311E-17 -3.26495034E-03  2.95000832E-02  1.13446904E-01
  1.14003944E-01  1.17764231E-01 -1.49657337E-17  5.63735442E-19 -1.05191596E-02
 -2.64097575E-02 -1.21663493E-01  2.27352913E-18 -1.13618962E-02 -1.48435386E-02
 -1.58377773E-01  6.94191736E-18 -3.26495035E-03 -2.95000831E-02 -1.13446904E-01
 -1.14003944E-01 -1.17764231E-01 -2.23214317E-18 -4.36677021E-19 -1.05191596E-02
  3.86036577E-05 -2.95375331E-04 -5.54584694E-17 -3.86941738E-11  1.67324947E-01
 -6.14562980E-04 -9.13684453E-18 -4.67537577E-11  2.00787204E-01 -1.42308459E-04
 -3.58439548E-02  3.52447026E-02 -4.28381247E-18 -2.64123371E-18  1.63888470E-11
  3.04380431E-02  1.40132153E-01 -1.52728855E-18 -3.60996388E-12 -1.81541313E-02
  1.83046825E-01 -6.02807305E-18 -1.17744276E-11 -1.89950037E-02  1.31106970E-01
  1.29991949E-01  1.37537650E-01 -1.94452849E-19  2.05510871E-18  4.16728610E-12
 -1.53235073E-02 -7.06057635E-02 -5.61317265E-19  1.50680717E-02  7.51440651E-03
 -9.23940829E-02 -4.33333560E-18  3.11866292E-02  3.36248843E-02 -6.60871949E-02
 -7.64045633E-02 -5.86369039E-02  1.85456260E-18 -1.57146521E-18 -5.41743648E-03
 -1.53235073E-02 -7.06057635E-02 -2.76443470E-18 -1.50680717E-02  7.51440651E-03
 -9.23940828E-02 -8.11302830E-18 -3.11866292E-02  3.36248843E-02 -6.60871948E-02
 -7.64045632E-02 -5.86369039E-02 -5.00570381E-18  2.88741476E-19  5.41743649E-03
 -4.20364466E-18  8.00659436E-17  3.19261358E-01  2.50363990E-16 -3.02476816E-17
  1.89494527E-17  3.47347800E-01  2.52793097E-16 -1.31413135E-16  1.43707990E-16
 -4.52856675E-17 -1.69384661E-18 -2.92329149E-12  1.18908048E-03  5.56660195E-16
 -2.67710217E-17 -8.31302105E-17  1.08043172E-01  3.70428617E-16 -6.26376420E-17
  1.52342580E-16  2.07468235E-01  5.08959958E-16 -2.67251699E-17 -3.72632372E-17
 -6.78063815E-17  7.27421692E-17 -6.93605048E-13 -8.34571969E-02 -2.81852246E-16
  1.90670581E-18 -2.68932983E-16  1.06910243E-01  9.07352613E-17  1.16691619E-16
 -1.73927196E-16  2.05666458E-01 -6.04890520E-17  2.15809644E-16 -1.99497334E-16
 -1.26303351E-16 -1.12226685E-16 -7.12900882E-02  4.14330560E-02  5.82523203E-17
  5.71688776E-17  5.57703148E-17  1.06910243E-01  1.65534244E-16 -1.64103286E-16
  1.51504525E-17  2.05666458E-01  1.36807142E-16 -3.29609547E-16 -1.20161866E-18
  1.71373765E-16 -8.90465041E-17  7.12900882E-02  4.14330560E-02 -1.37956086E-16
 -7.98597744E-02 -1.39145757E-01  4.36972114E-19 -1.94693779E-12 -1.20163970E-03
 -7.86046834E-03  8.63559111E-17 -6.86287666E-13 -2.17184757E-03 -1.49410888E-01
 -7.76734667E-02 -6.60359706E-02  8.58494944E-18  6.87655590E-18  3.36812593E-12
  4.30749323E-02  1.43453538E-01  2.99732833E-17  9.05363171E-13  1.13303418E-01
  1.37669127E-01  5.42018756E-17  1.37350756E-12  1.98846291E-01  1.13781254E-01
  1.16180734E-01  6.53680049E-02  5.43617615E-19 -1.89322299E-17 -1.10216847E-12
  4.22354363E-02  1.40724022E-01  2.89383526E-17  9.67139016E-02 -5.85263312E-02
  1.35880107E-01  5.21609630E-17  1.67613771E-01 -1.01270096E-01  1.12029364E-01
  7.75923236E-02  1.01303559E-01 -1.53232890E-17  9.09126619E-18  4.92144857E-02
  4.22354363E-02  1.40724022E-01  2.23523944E-17 -9.67139016E-02 -5.85263312E-02
  1.35880107E-01  3.53903177E-17 -1.67613771E-01 -1.01270096E-01  1.12029364E-01
  7.75923236E-02  1.01303559E-01  1.14929164E-17  8.90823418E-18 -4.92144857E-02
 -2.36854881E-13 -8.82416265E-14 -6.09905154E-16  1.84600793E-01 -7.21056349E-12
 -4.70438462E-13 -5.85547871E-16  1.45910011E-01 -4.55258024E-12 -1.86769967E-13
 -3.98372484E-12  4.24959128E-12  4.56274703E-17  5.19599007E-17  3.33869510E-01
  1.12668010E-12  3.39367558E-12 -1.97138641E-16  2.08378456E-01  2.66346932E-13
  2.59445616E-12 -3.56553223E-16  3.17362445E-01  2.02180494E-12  2.27238128E-12
  9.07858945E-13  2.54786926E-12  6.64825550E-18  1.58619376E-16 -1.80470154E-01
 -2.87357107E-02 -8.51024556E-02 -2.09978081E-16  4.14272625E-02  9.65851144E-02
 -5.79283084E-02 -4.10777344E-16  1.30287740E-02  1.77561103E-01 -5.32382845E-02
 -7.75309122E-02 -9.97227425E-04  1.13457951E-16 -6.55013999E-17 -3.21564519E-02
  2.87357107E-02  8.51024556E-02 -2.32179308E-16  4.14272625E-02 -9.65851144E-02
  5.79283084E-02 -4.40523797E-16  1.30287740E-02 -1.77561103E-01  5.32382845E-02
  7.75309122E-02  9.97227418E-04 -1.47406385E-16 -9.95688560E-17 -3.21564519E-02
  2.86206759E-04 -2.09955721E-03  9.15168142E-17  3.08288308E-12  2.12440060E-01
 -2.03356712E-03  3.71520716E-18  3.51932606E-12  1.35671395E-01 -2.49489458E-03
  1.57200853E-01 -1.60681412E-01  4.74703100E-17 -1.93090705E-17  1.20650963E-11
 -4.13776937E-02 -1.17273086E-01  5.62117474E-17  8.15158631E-12 -9.15323611E-02
 -9.21777786E-02  9.84169610E-17  1.10243490E-11 -1.60947098E-01 -7.98496241E-02
 -6.12503566E-02 -5.72705855E-02  7.56335254E-18 -2.37680732E-17 -6.52199866E-12
  2.21759181E-02  6.28969012E-02  8.70988619E-17  1.48957583E-01  1.50146924E-01
  4.97800964E-02  1.33864610E-16  2.27947508E-01  2.11222886E-01  4.30830821E-02
 -2.08628424E-02  8.48550120E-02 -4.59195250E-17  2.11007910E-17 -6.57848392E-02
  2.21759181E-02  6.28969012E-02  4.41925015E-17 -1.48957583E-01  1.50146924E-01
  4.97800964E-02  6.73276956E-17 -2.27947508E-01  2.11222886E-01  4.30830821E-02
 -2.08628424E-02  8.48550120E-02  5.01401963E-18  1.65070418E-17  6.57848392E-02
 -2.36111342E-18 -1.88421519E-17 -5.78896395E-04  8.32883181E-17  4.65027383E-17
 -5.68509455E-17 -1.48407741E-03  1.56118538E-16 -1.85837655E-17 -5.16379275E-18
 -7.65201366E-17  5.61083293E-17  5.54223183E-10  4.38408791E-01 -9.07666798E-17
 -8.24659896E-17  5.47161868E-17  2.85305425E-01 -1.43429368E-16 -2.73633997E-18
  7.22824402E-18  3.39891677E-01 -4.45787450E-17 -4.11200931E-17  8.14736881E-18
  9.51876854E-18 -7.00588016E-17  9.05278263E-11 -1.96927648E-01 -2.47154163E-17
  4.03224638E-17 -7.59296347E-17 -1.43563179E-01  4.61927011E-17  2.54352966E-17
  9.88754945E-17 -1.71714163E-01  1.42465689E-17  4.05731176E-18  5.70190212E-17
  5.85037940E-17  7.09631096E-17  1.16471141E-01  4.06511417E-03  1.45486940E-17
 -6.54158832E-17  2.96460485E-17 -1.43563180E-01  2.61505493E-17  7.58351058E-17
 -5.39454391E-17 -1.71714164E-01  3.96422092E-17  3.30611573E-17 -6.94002896E-17
  7.96004389E-17 -7.18033381E-17 -1.16471142E-01  4.06511388E-03  1.03435723E-16
 -5.74749823E-18 -3.96500008E-18  2.12914033E-12  1.16751515E-16 -1.49475538E-16
  1.09897482E-17  5.53750772E-12 -8.76330500E-17  6.52941654E-17  4.82330222E-17
  1.56581782E-17 -1.05116901E-16  4.38015055E-01 -5.53703744E-10 -2.59453086E-17
  8.59328943E-17 -2.43567141E-17 -3.60183330E-10  1.85031592E-16  3.11656243E-17
 -4.80999155E-17 -4.27789022E-10  8.84218743E-17 -6.15701135E-17  1.27790358E-16
  8.99314157E-17 -3.19606242E-17  7.29971054E-02  2.47511054E-10 -2.92333686E-17
 -2.53877166E-18 -5.69390943E-18  2.48317653E-01 -2.53391078E-16 -2.99113923E-16
 -3.00442872E-17  2.96103643E-01 -2.56740515E-16 -1.86326493E-16 -9.12739786E-17
  7.88288599E-18  6.40166125E-17 -1.29224150E-01  1.16575119E-01 -5.69267498E-17
  1.45759898E-16 -2.60362076E-17 -2.48317652E-01 -1.66709584E-16  1.75820321E-16
  2.42555395E-17 -2.96103642E-01 -1.86548341E-16  1.74257506E-16 -1.29184175E-16
  2.58322591E-18  7.34900530E-17 -1.29224150E-01 -1.16575120E-01 -1.11734272E-16
  2.21316163E-12  7.44902618E-13 -6.26401110E-17 -2.24866621E-01  5.07235835E-13
 -1.29905446E-12 -1.90621425E-17  4.95773486E-02 -5.94068368E-13  1.49856351E-12
 -4.51279781E-12  3.54966824E-12  1.56169488E-16  1.26225029E-17  2.39952538E-01
  3.18877624E-14 -1.42693484E-13 -7.67343679E-17  5.35065592E-02 -4.91603890E-12
 -8.51126796E-13 -7.04505902E-17  3.86679896E-02 -3.88923014E-12 -3.95320690E-13
 -1.44666392E-12  3.69661560E-13  1.66924817E-17  8.71924831E-17 -2.85290944E-02
  1.63914512E-02  4.69792510E-02  7.28651621E-17  3.11831056E-01 -1.47702667E-01
  6.99139470E-02  7.31208055E-17  2.87342506E-01 -1.40667692E-01  5.08844547E-02
  1.70332881E-02  5.82452203E-02 -5.13078302E-17  1.97205018E-17  6.26733380E-02
 -1.63914512E-02 -4.69792510E-02 -8.20182357E-17  3.11831056E-01  1.47702667E-01
 -6.99139470E-02 -1.00341839E-16  2.87342506E-01  1.40667692E-01 -5.08844547E-02
 -1.70332881E-02 -5.82452203E-02 -5.24570333E-17 -5.63237697E-17  6.26733380E-02
  1.41090107E-03  1.28976891E-04  1.91242308E-17 -3.96057735E-12 -1.95036942E-01
 -1.05450170E-03  1.51243746E-17  1.61353244E-12  8.18033838E-02 -2.12711025E-04
  1.75246594E-01 -1.76180833E-01 -8.16030237E-18  2.47313827E-17  1.33378786E-12
  4.09320224E-03  1.80334404E-02  3.89724843E-17  4.89597452E-12  4.06475699E-01
  5.11211014E-02  3.03402920E-17  4.65032551E-12  3.56277815E-01  3.29398787E-02
  5.73653470E-02 -7.15559207E-03 -8.15519784E-19 -3.74180605E-17 -1.49839969E-12
 -1.69871487E-03 -7.99560820E-03  1.00308922E-17 -1.02870628E-01  2.13452744E-01
 -2.44117629E-02  5.29115419E-18 -8.16314799E-02  2.00261289E-01 -1.57014635E-02
 -1.34563790E-02 -9.96910070E-03  5.22808724E-18  8.41925865E-18 -5.25316027E-02
 -1.69871487E-03 -7.99560820E-03  7.06803154E-17  1.02870628E-01  2.13452744E-01
 -2.44117629E-02  6.74236789E-17  8.16314799E-02  2.00261289E-01 -1.57014635E-02
 -1.34563790E-02 -9.96910070E-03  3.23585403E-18  1.54760646E-17  5.25316027E-02
 -7.24486180E-15  3.51740259E-14 -2.03472205E-17 -1.63406565E-03  2.16125518E-12
 -5.46387222E-14 -4.48030926E-17  1.19978551E-03 -1.19080945E-12  1.61574536E-14
  1.40301828E-12 -1.33454822E-12 -4.59166386E-16 -2.99639553E-16 -3.09227653E-03
  2.11648610E-13  4.12150469E-13  2.84281080E-16  3.78624451E-01 -3.20348531E-12
  2.30479027E-13  1.14418891E-16  3.26654360E-01 -2.83449031E-12  2.07970777E-13
  1.62626607E-13  2.89795394E-13  4.99414794E-17  3.71744174E-16  6.11673275E-02
 -3.17551219E-04 -6.02014106E-04 -3.91198269E-16 -1.76366289E-01 -3.12911151E-01
 -6.41642216E-04 -4.38210445E-16 -1.50921536E-01 -2.69796186E-01 -3.74854925E-04
 -1.58424659E-02  1.49843570E-02 -7.73508849E-17 -1.36327227E-16 -2.75583941E-02
  3.17551219E-04  6.02014106E-04  2.32643890E-16 -1.76366289E-01  3.12911151E-01
  6.41642216E-04  3.34553221E-16 -1.50921536E-01  2.69796186E-01  3.74854925E-04
  1.58424659E-02 -1.49843570E-02  3.38341506E-16  1.35801664E-16 -2.75583941E-02
 -2.83679059E-18 -6.88674216E-18 -4.80876830E-12 -2.31116016E-16 -7.45606364E-17
 -2.47148338E-17 -4.26179337E-12 -1.13342885E-16 -2.99566829E-17 -6.82187039E-17
 -5.70773964E-18  7.55370448E-17 -3.24119493E-01  4.00243526E-10 -7.90407180E-16
  2.32980627E-19  8.36567963E-17 -4.44966551E-10  9.59963300E-16 -2.27256031E-17
  9.29340216E-18 -3.37667674E-10  5.90247814E-16  3.09800817E-20 -6.01829304E-17
 -3.33276930E-17  4.87042307E-17 -1.40113563E-01 -5.88671519E-10  1.44115025E-15
  3.39816115E-17  2.12137370E-17  3.16698603E-01  3.63956610E-16  4.99442223E-16
 -3.21014918E-17  2.39116614E-01  3.28254380E-16  2.84042060E-16 -1.66810013E-16
  1.69057962E-16 -1.70168447E-16  3.25425524E-01 -2.68442926E-01 -3.57103501E-16
 -2.34127940E-16 -1.45707215E-16 -3.16698602E-01  3.24401992E-16 -3.04534151E-16
  9.53158265E-18 -2.39116614E-01  2.77281850E-16 -2.20210405E-16  3.19835871E-16
 -4.93177892E-17  8.91492154E-17  3.25425524E-01  2.68442926E-01 -4.38506262E-16
 -1.97272581E-18  1.15775121E-16  1.31140360E-03 -1.64051419E-15  3.71233882E-17
  2.23859153E-16  1.14849011E-03 -1.12368883E-16  3.20247380E-16  5.17870317E-17
  1.44201255E-16 -5.06047628E-17 -3.97983220E-10 -3.22380454E-01 -2.42603983E-15
 -1.21580544E-16  2.50482818E-16  3.64137040E-01  3.19085228E-15 -3.09163777E-17
 -3.33498091E-16  2.75757990E-01  2.21010940E-15  2.13269077E-16 -7.79950056E-17
 -1.71046778E-16  1.59651183E-17 -1.69017210E-10  4.80695632E-01  5.68751395E-15
  9.03116281E-16  2.48952287E-16 -1.84721611E-01  9.24250280E-16  2.25604095E-15
 -3.03790323E-16 -1.39189736E-01  9.82259181E-16  1.05422815E-15 -3.56797455E-17
  5.92220839E-16 -9.86994637E-16 -2.68786896E-01  1.87844875E-02  8.28141462E-16
 -5.27420687E-16 -2.75108622E-16 -1.84721612E-01  8.26827149E-16 -2.22253419E-15
 -1.23671360E-16 -1.39189736E-01  1.05852249E-15 -1.24750675E-15  2.43055659E-16
 -5.22004388E-16  1.09078109E-15  2.68786897E-01  1.87844882E-02  2.23004037E-16
  6.70356168E-12  2.21754388E-12 -1.21675200E-15 -1.87227853E-01 -3.88018172E-13
  2.14531079E-12 -2.64073053E-16  1.00000315E-02 -9.83787578E-13  5.62270562E-12
 -5.20117251E-12  1.24166773E-12  8.26856846E-16  3.33065393E-15 -2.42639896E-01
 -1.38585216E-12 -1.16481739E-12 -2.27564248E-15  3.53405520E-01  3.96542870E-12
  3.43846132E-14 -1.94153562E-15  2.47541708E-01  1.36186032E-12  2.05493084E-13
  4.08280967E-13 -2.70111454E-13  6.72047177E-16 -3.19141304E-15  5.73464522E-01
  3.37279285E-02  2.45123265E-02  2.28162726E-15  5.86040661E-02  2.09796051E-01
 -8.69902315E-03  1.64035497E-15  8.08952542E-02  1.14404844E-01  3.87230021E-03
  4.60087900E-02 -8.11959255E-02  3.24074008E-15 -1.13823487E-16  1.59008363E-01
 -3.37279285E-02 -2.45123265E-02  3.57433135E-15  5.86040661E-02 -2.09796051E-01
  8.69902315E-03  2.41436765E-15  8.08952542E-02 -1.14404844E-01 -3.87230021E-03
 -4.60087900E-02  8.11959255E-02 -4.69952971E-15 -1.41169906E-15  1.59008363E-01
 -2.60629470E-16 -1.71204745E-16 -3.03100231E-01  7.28466943E-16  5.73765579E-17
 -6.39855660E-17 -6.87635374E-02 -1.28676927E-16  7.68720150E-17 -3.30194320E-16
 -1.58224713E-17  1.75858273E-16  3.16085072E-13 -1.59411230E-04  1.03673799E-15
  2.13073877E-16  5.77085745E-17  3.00950294E-01 -1.34443786E-15 -2.75156589E-16
 -8.66943508E-17  1.80565250E-01 -9.74344721E-16 -8.26537692E-17  1.85618910E-18
  3.34887860E-17 -4.76000441E-17  1.93874973E-12  3.50670146E-01 -2.57885308E-15
  1.33512102E-17  1.99315557E-16  2.97915901E-01 -6.15739882E-16 -5.36148110E-16
  1.19155847E-16  1.78490926E-01 -4.78146223E-16 -4.41210223E-16 -5.44050738E-17
 -2.12876312E-16  2.35544169E-16  2.99929085E-01 -1.73940344E-01  3.75029038E-17
  3.78759367E-16  1.87782889E-16  2.97915901E-01 -1.31946018E-16  1.12617356E-15
 -4.31204339E-18  1.78490926E-01 -9.15971676E-17  5.42563685E-16  1.51555882E-17
  7.19308565E-17 -2.79489264E-16 -2.99929085E-01 -1.73940344E-01 -9.44715830E-16
 -2.60249585E-01 -1.02965528E-01  1.72205577E-16 -3.91547182E-12 -4.80868996E-02
 -6.45179351E-02  2.67465056E-16 -8.50844853E-13 -2.80725475E-02 -2.36954425E-01
 -4.40958564E-02  1.67695210E-01  4.61317474E-17  7.83911035E-17 -2.04603855E-12
  1.43823230E-01  1.01824055E-01 -5.04062379E-16  4.46063323E-12 -2.73270728E-01
  2.84990980E-03 -2.68542478E-16  3.20581918E-12 -7.20648902E-02 -7.06990391E-03
  2.96702372E-02 -6.16219471E-02  3.14851911E-17 -5.49868930E-16  9.38041785E-12
  9.58388363E-02  7.04255201E-02 -3.94501095E-16 -1.42761716E-01  2.60673315E-01
  1.21796635E-02 -2.09952626E-16 -5.63772811E-02  1.40211930E-01 -3.11504489E-03
  2.26534727E-02 -2.60442965E-02 -3.75437351E-16  2.67906107E-16  3.92657160E-01
  9.58388363E-02  7.04255201E-02 -2.94364053E-16  1.42761716E-01  2.60673315E-01
  1.21796635E-02 -1.52954295E-16  5.63772811E-02  1.40211930E-01 -3.11504489E-03
  2.26534727E-02 -2.60442965E-02  3.42986046E-16  1.56414422E-16 -3.92657160E-01
 -1.23394196E-01 -5.82534862E-02  1.21050547E-16 -5.93894042E-12  1.19148347E-01
 -1.11463401E-01 -8.55037477E-17  5.31225084E-13  6.52535417E-02 -2.15867007E-01
  2.26302395E-01 -8.84417083E-02 -6.83607486E-17 -1.10282728E-16 -1.61343271E-12
  5.87208830E-02  2.55515587E-02  8.66592930E-18  1.90577384E-12 -1.06973922E-01
  3.12358203E-03  7.09213460E-17  8.33533539E-13 -5.48709183E-02 -2.96841305E-02
  5.03689525E-02 -3.30224263E-02 -5.38528460E-17 -1.57369677E-16  8.88153754E-12
  3.64518856E-01  1.55558599E-01 -9.77127695E-17 -2.88687063E-01 -1.02963984E-01
  3.02816531E-03  2.20520467E-17 -7.46342246E-02 -8.25821684E-02 -4.93384130E-02
 -1.65318897E-01  8.04860884E-02 -6.30303238E-17 -1.69848941E-17 -2.63013145E-01
  3.64518856E-01  1.55558599E-01 -9.29805440E-17  2.88687063E-01 -1.02963984E-01
  3.02816531E-03 -8.09678587E-17  7.46342246E-02 -8.25821684E-02 -4.93384130E-02
 -1.65318897E-01  8.04860884E-02 -2.46120378E-18  5.23453080E-16  2.63013145E-01
  1.06791526E-11 -2.74293736E-13 -8.53525429E-17 -8.05628533E-02  3.61775600E-12
  3.27623490E-12 -2.01136375E-17 -2.54818799E-02  3.22707640E-12  4.73922093E-12
 -8.64741258E-12 -7.37503768E-13 -4.09916782E-16 -4.93660907E-17  9.40306232E-02
 -5.31371670E-11 -1.41327898E-11  2.10216773E-16  1.56355814E-02  3.42978113E-12
 -2.07930048E-13 -6.36539847E-17 -9.82980902E-03  2.34670275E-12  8.06313470E-12
  4.76803915E-12  9.30885866E-12  1.02607755E-14 -5.56783478E-16 -2.00444555E-01
  5.69447957E-01  1.54398064E-01 -2.26838100E-16 -7.64951851E-02  1.44440842E-02
  1.50346085E-02 -1.08339182E-16 -6.80983825E-02  2.91602935E-02 -5.91662602E-02
 -1.12101782E-01 -4.45117916E-02  8.10257707E-15  6.49898753E-15  2.67023154E-01
 -5.69447957E-01 -1.54398064E-01  1.80945723E-16 -7.64951851E-02 -1.44440842E-02
 -1.50346085E-02 -1.34791131E-16 -6.80983825E-02 -2.91602935E-02  5.91662602E-02
  1.12101782E-01  4.45117916E-02  1.02024553E-14 -1.04992895E-14  2.67023154E-01
  9.51550697E-02  3.70279876E-03  1.54646339E-16 -5.73662943E-12 -5.51175905E-02
 -3.83358273E-02  2.13810382E-16 -1.15082394E-12 -5.02571356E-02 -3.77284100E-02
  3.97851010E-02 -1.99930300E-02  1.60066461E-16 -1.48593356E-16  5.82725395E-12
  8.62744903E-01  2.26407446E-01  2.98863698E-16  2.70606128E-13 -3.87646333E-02
  5.67614915E-03  1.69631573E-16 -1.04996425E-12 -4.44873953E-02 -1.24829034E-01
 -1.06183921E-01 -1.24271876E-01 -3.88388381E-17  4.64556572E-17 -1.49255322E-11
 -1.33914300E-01 -3.66977295E-02 -5.41530705E-19  3.50639391E-02  2.69963833E-02
 -6.91426919E-03  9.12548938E-17  2.35893738E-02 -3.16981489E-03  2.72257954E-03
  3.62215535E-02  8.33673344E-03 -6.21220167E-17  1.50539061E-16 -1.55685754E-01
 -1.33914301E-01 -3.66977295E-02  1.15474779E-17 -3.50639391E-02  2.69963833E-02
 -6.91426919E-03 -6.75475249E-18 -2.35893738E-02 -3.16981490E-03  2.72257955E-03
  3.62215535E-02  8.33673344E-03 -1.04262761E-16  1.44278573E-16  1.55685754E-01
  3.19342280E-11  1.51896876E-13  7.39013727E-17 -1.22520862E-01 -1.16519702E-12
  1.20431852E-12  2.46122605E-16  1.00724088E-01 -8.44927823E-13  1.26445232E-12
 -1.03601182E-11 -5.58066763E-13 -3.75625743E-16 -5.01748444E-16  7.60046531E-02
 -1.14470194E-13 -3.81238097E-14  4.97931748E-16 -5.32319995E-02  2.06773385E-12
  2.11511848E-13  6.61596671E-16 -2.71313701E-02 -1.86830046E-13  4.43437128E-14
 -2.81572365E-12  3.23665890E-12  5.67791631E-16  1.39962703E-15 -1.62908103E-01
 -3.03418639E-01 -6.08046173E-02 -1.91089271E-16 -1.35006336E-01 -1.38842504E-02
  1.91087219E-02 -9.60103814E-17 -7.23600174E-02  2.05058222E-02  8.35310992E-02
 -7.34624655E-03  8.45309459E-02  7.21769765E-16  6.32122308E-16  5.64899815E-01
  3.03418639E-01  6.08046173E-02 -9.35255022E-16 -1.35006336E-01  1.38842504E-02
 -1.91087219E-02 -7.31349504E-16 -7.23600174E-02 -2.05058222E-02 -8.35310992E-02
  7.34624655E-03 -8.45309459E-02  2.39531101E-15 -5.27987979E-16  5.64899815E-01
  4.84560947E-01  4.67565064E-02 -1.91825931E-16  1.13066701E-11 -7.95907293E-02
  2.49182239E-02  2.36077262E-16 -2.97520898E-12 -1.80734302E-02  9.93129287E-02
 -1.83762224E-01  5.40934949E-02 -1.60556571E-17 -2.90931124E-17 -4.81171868E-12
  1.13822473E-01  1.27480034E-02 -3.01976309E-16  4.70187369E-14  9.22726201E-02
 -5.46446112E-03 -5.14881680E-17  8.61886724E-13  2.05466999E-02 -2.16874504E-02
 -9.00594049E-02  5.20066131E-02 -6.43593681E-17 -3.88826809E-17  1.20501422E-11
  4.79880086E-01  5.89858845E-02 -1.36527316E-16  2.03995093E-01  3.47852693E-02
 -7.74056565E-03 -5.19252793E-17  3.33112597E-03  5.25371474E-02 -9.71038833E-02
  5.71471370E-02 -1.84527941E-01  1.52055643E-16 -9.69669493E-17  7.91586665E-02
  4.79880086E-01  5.89858845E-02 -9.78408454E-17 -2.03995093E-01  3.47852693E-02
 -7.74056565E-03 -3.60951267E-17 -3.33112596E-03  5.25371474E-02 -9.71038833E-02
  5.71471370E-02 -1.84527941E-01 -2.57484825E-16  1.90062253E-16 -7.91586665E-02
 -3.54373801E-17  3.22108670E-17 -1.67226706E-04 -1.51114812E-16 -1.67404672E-17
  3.10134612E-17  3.34975277E-04  2.26366782E-17  3.27370724E-17  3.14063305E-17
 -2.03971277E-17 -1.73863417E-19 -1.86137265E-11 -1.47454995E-02  3.64380924E-16
 -2.24220388E-16 -3.73293609E-17 -2.48446758E-02  1.05189258E-16  2.81932537E-17
  9.38345144E-18  3.55700137E-03 -2.34913953E-16  4.24955022E-18  3.36836042E-17
 -1.63938228E-17  1.29509395E-17  9.78850572E-10  2.31908436E-01 -7.92690728E-16
  1.68571509E-15  4.63262873E-16  1.21701079E-02 -3.03850119E-16 -7.54598723E-17
 -3.47596057E-17 -1.80954505E-03 -1.78322487E-16  5.33683232E-17 -7.34274656E-17
 -5.03397016E-16 -5.30324461E-17  2.38865042E-01  6.45075002E-01  9.88266984E-16
 -1.98101738E-15 -6.07972103E-16  1.21701079E-02 -3.85141589E-16  1.37069971E-16
  2.64794854E-17 -1.80954506E-03 -1.96509321E-16 -9.59789689E-17  1.41014618E-16
  5.76405863E-16  1.15519439E-16 -2.38865041E-01  6.45075001E-01  7.02099778E-16
  1.57054261E-16 -8.74972689E-18  6.39138339E-13  1.87685756E-15  5.50203823E-17
 -1.10449208E-16 -1.27838750E-12  4.58382709E-16  4.47343699E-17 -1.83805835E-16
 -1.26648299E-17  1.07230375E-16 -1.48277918E-02  1.87158896E-11 -2.29834271E-15
  4.03788881E-17 -1.11909806E-17  3.19630534E-11 -2.51707593E-16 -5.38088482E-19
  1.34270304E-17 -4.40046495E-12  1.65236824E-16 -2.60823176E-17 -5.90729778E-18
 -2.20884201E-17 -9.88211288E-18  7.78557804E-01 -3.00699326E-10  3.74083670E-15
 -1.07521106E-14 -2.99931175E-15 -2.14864155E-02  1.77137621E-15 -2.15388663E-16
 -3.30500420E-16  3.07356243E-03  1.66611162E-15 -6.80119190E-16  8.03577256E-16
  2.63303792E-15  4.59855560E-16  3.74907798E-01  2.37646505E-01 -6.65618313E-15
  1.09218657E-14  3.10475466E-15  2.14864155E-02  1.81670801E-15  4.26077057E-16
  4.80124132E-16 -3.07356242E-03  1.69515213E-15  5.16673198E-16 -9.60521865E-16
 -2.51464055E-15 -5.90461883E-16  3.74907799E-01 -2.37646506E-01 -6.28857968E-15
 -5.43546914E-17  3.34555042E-17  2.33996277E-17 -8.05825605E-16  1.12342730E-16
  8.96955978E-17 -4.61199650E-16 -3.96567753E-17 -1.70996177E-17  1.21793832E-16
 -5.44673046E-17 -2.25561202E-17 -9.69673343E-05 -2.28569324E-13  9.55208370E-16
  3.57224708E-17 -5.49917038E-17 -3.81838710E-13 -1.18002421E-16  1.23862982E-16
 -8.62583577E-17  5.64193367E-14 -2.09596365E-16  1.06015361E-17  1.86636383E-17
  6.49974237E-17 -4.54052371E-17  5.82237378E-01  3.43884967E-12 -1.85815559E-15
  4.03396645E-15  1.13777690E-15 -1.42326671E-04 -7.89807039E-16  1.39626030E-16
  1.43097022E-16  2.03320331E-05 -6.15265193E-16  2.55539378E-16 -2.64795273E-16
 -1.02536781E-15 -2.02777877E-16 -2.87367681E-01 -5.00407872E-01  2.91054316E-15
 -4.34037483E-15 -1.18116382E-15  1.42326671E-04 -8.21547373E-16 -1.90792419E-16
 -2.03654454E-16 -2.03320332E-05 -6.02042809E-16 -2.24782300E-16  3.86058565E-16
  1.02814445E-15  2.35476032E-16 -2.87367681E-01  5.00407872E-01  2.56358330E-15
  7.59727738E-01 -1.06344461E-01  8.90474071E-17  1.15721904E-12  4.09236682E-02
 -8.45954664E-02 -9.93520367E-17 -1.29551984E-12  6.11649435E-03 -4.86665418E-01
  6.73547990E-02  1.39801533E-02  5.97277644E-17  1.34799365E-16 -2.74641996E-13
 -1.48070693E-01  2.67492347E-02  1.37667367E-16 -6.07589620E-13 -1.09711541E-01
  1.95175898E-02  1.87507207E-18  1.15566458E-14 -1.87247442E-02 -7.46477563E-02
  9.54400260E-02  8.05835308E-02 -9.09570745E-17 -1.62118384E-17  4.46971243E-12
 -1.92361969E-01  3.59272730E-02  1.23927531E-16 -1.49284194E-01  4.08148983E-02
  2.51004958E-02  3.91649527E-17 -1.86170965E-02  1.85267829E-03 -4.84619519E-02
  4.52519610E-02  1.32875895E-01 -3.99358769E-16  2.40169440E-17  3.41247709E-02
 -1.92361969E-01  3.59272730E-02  1.21596837E-16  1.49284194E-01  4.08148983E-02
  2.51004958E-02  3.15799450E-17  1.86170965E-02  1.85267829E-03 -4.84619519E-02
  4.52519610E-02  1.32875895E-01  1.64720487E-16  1.40033040E-16 -3.41247709E-02
  1.51528998E-01  5.05253823E-03 -7.34909194E-17  1.04850359E-12  3.26035840E-01
  1.27531433E-01 -1.42693638E-17 -2.05508000E-12  1.31396396E-02  2.29249291E-01
 -1.30268929E-02 -2.26807148E-01 -1.22674277E-16 -5.03316593E-16  1.32978445E-12
  2.18576863E-01 -9.87119670E-02 -6.33826476E-17  1.89319368E-12  3.02330001E-01
 -3.47016341E-02  3.40449776E-17 -4.93483672E-13 -3.57141840E-02 -8.33871176E-02
 -1.62760634E-01  9.80049086E-02  2.33868051E-17 -6.94209823E-16  1.19760179E-12
  8.09974433E-03  2.12458152E-03 -2.87907417E-16 -1.31695603E-01 -1.76782989E-01
  2.35833524E-02 -6.71041601E-17 -6.45194477E-02  1.95238591E-02  1.22535048E-01
 -3.07089102E-01  2.13929632E-01  6.07145157E-16  8.73293205E-17  3.69604810E-01
  8.09974433E-03  2.12458152E-03 -2.33346062E-16  1.31695603E-01 -1.76782989E-01
  2.35833524E-02 -3.29527658E-18  6.45194477E-02  1.95238591E-02  1.22535048E-01
 -3.07089102E-01  2.13929632E-01 -1.04896510E-16 -1.74664551E-16 -3.69604810E-01
  4.64068376E-17 -1.62504656E-17 -1.43067391E-01  1.41822073E-16 -1.31083269E-16
  4.39351413E-17 -4.19258240E-01 -6.02209690E-17  2.85541305E-17  3.19877853E-16
 -1.56798418E-16 -8.50895574E-17 -5.17243847E-12  2.04514733E-03  1.44679601E-16
 -8.04473551E-18  1.03346401E-16  4.30768723E-01 -8.07717725E-17 -1.87974842E-17
 -5.03162603E-17 -7.55602605E-02 -7.05294745E-17 -1.26279172E-16  4.26967773E-16
 -4.56315726E-17 -3.84439356E-16  7.52439028E-13 -3.97584234E-01  4.05860816E-16
  8.94950969E-17  1.19132570E-17  4.30543989E-01  4.10315754E-16 -7.36182044E-17
 -7.41537192E-17 -7.53880749E-02 -2.31709936E-16  1.36731891E-16  3.10223026E-16
 -3.46691538E-16  1.63247714E-16 -3.47792522E-01  2.00534410E-01  3.10309655E-16
  3.32083176E-16  1.67477854E-16  4.30543989E-01  3.16822312E-17 -1.00782193E-16
  5.02216349E-17 -7.53880749E-02 -5.62767602E-17 -4.00035982E-17  1.30464994E-16
 -1.31619207E-16 -4.03557434E-16  3.47792522E-01  2.00534410E-01  1.17362057E-16
 -1.90398442E-11  5.99448653E-12 -1.65857809E-16  5.63025796E-02  1.93346879E-11
 -1.13618174E-11  2.99490937E-16  1.99270599E-01 -9.91898007E-12 -1.07427588E-11
  1.35790818E-12  2.18670283E-11 -1.31411827E-16  2.30491602E-16  2.50323430E-01
  1.25532630E-13 -1.28672735E-12 -2.52991713E-16 -4.77152488E-01  1.84837278E-11
 -5.13132731E-12  3.66718443E-16  1.11166678E-01  1.11005824E-11 -3.50079151E-11
 -3.55483482E-11  6.29152938E-11  7.43340393E-16  1.01598929E-15  6.20622890E-01
  6.95190891E-02 -7.41990734E-02  4.91176664E-16 -4.12117330E-02 -1.13064870E-01
 -4.53070422E-03 -2.78904510E-16 -6.41163037E-02  3.78827020E-02  2.24641924E-02
 -3.85964745E-01  3.33752793E-01  1.31573535E-16  2.29847966E-16 -9.81577312E-03
 -6.95190891E-02  7.41990734E-02 -2.00339205E-17 -4.12117330E-02  1.13064870E-01
  4.53070422E-03  2.47877897E-16 -6.41163037E-02 -3.78827020E-02 -2.24641924E-02
  3.85964745E-01 -3.33752793E-01 -5.08285265E-17 -7.15975192E-16 -9.81577310E-03
 -2.44267571E-01  1.00082860E-01 -6.49906820E-17 -1.28198259E-12  1.85028157E-01
 -1.18378235E-01 -2.64522771E-16 -1.32998730E-11 -9.28109152E-02 -1.87411071E-01
  1.23510635E-01  2.76663989E-01  2.79839893E-17  8.21126218E-17 -1.70020857E-11
  1.98429011E-02 -3.29122565E-02  1.42644983E-16  3.40411217E-11  2.35159895E-01
 -5.87043576E-02 -4.27391637E-17 -7.58469443E-12  1.08081942E-01 -5.19404904E-01
 -2.48292864E-01  6.74412687E-01 -1.72885031E-17 -2.48103071E-16 -4.49831132E-11
  3.67456028E-03 -1.04841807E-02  3.04367533E-16  6.80539573E-02  1.77989274E-03
 -1.84140534E-02 -8.22214305E-17  3.16771891E-02 -2.09283556E-02 -2.66735634E-01
  1.33757143E-01  9.54043382E-02 -2.94848196E-16  1.06336169E-16  5.62022180E-03
  3.67456028E-03 -1.04841807E-02  2.52253111E-16 -6.80539573E-02  1.77989273E-03
 -1.84140534E-02 -4.88347315E-17 -3.16771891E-02 -2.09283556E-02 -2.66735634E-01
  1.33757143E-01  9.54043382E-02  1.42662166E-16  1.41910115E-16 -5.62022178E-03
  7.67889217E-02 -4.73049316E-02 -1.40184446E-16 -9.75205243E-12  1.33417688E-01
 -6.65500657E-02  7.77641023E-17 -1.18216169E-11 -1.58352428E-01  2.61925683E-03
 -1.53687513E-01  5.73530487E-02 -2.43080643E-16  3.67043278E-16 -1.82285605E-12
 -7.33039446E-02  1.04877686E-01 -3.62982749E-16  2.55013060E-11 -1.21004754E-01
  2.00249400E-03  5.91507387E-17 -1.04082955E-11  1.07226690E-01  3.62186998E-02
 -4.36541275E-01  4.34208968E-01  9.54944695E-17  3.46413477E-16 -2.00397055E-11
 -3.73959621E-02  5.33634337E-02  3.95282732E-16 -1.18190672E-01  2.28001174E-01
  2.34179870E-02 -1.47904067E-16  1.30399947E-03 -4.95136516E-02  4.95638152E-01
 -1.63545342E-01 -2.89581157E-01 -4.75451806E-16  1.69272072E-16 -1.68833913E-01
 -3.73959621E-02  5.33634337E-02 -2.13388548E-16  1.18190672E-01  2.28001174E-01
  2.34179870E-02  1.05141474E-16 -1.30399947E-03 -4.95136515E-02  4.95638152E-01
 -1.63545342E-01 -2.89581157E-01 -1.37860212E-16 -1.45943911E-16  1.68833913E-01
 -9.82602299E-12  3.84621919E-12  3.32623192E-16 -2.09226617E-01 -3.80988391E-12
  2.63981290E-12 -3.60432442E-16  1.06550574E-02  7.75955845E-12  3.42141987E-12
  1.38106621E-12  1.77609427E-12  5.95756382E-17  3.52645972E-16  5.65599895E-02
  3.86374515E-12 -6.34237564E-12 -1.65355501E-18  1.43509188E-01  8.18637127E-12
 -1.26047517E-12  5.30885380E-17 -7.88368117E-02 -3.34928142E-12 -1.49807160E-12
  9.72559423E-12 -1.16032954E-11  1.61625556E-16  3.75331623E-16 -1.01770796E-01
 -3.19032904E-02  5.25065298E-02  7.47507664E-17 -5.37883339E-02  1.35088609E-01
  3.43525567E-02  1.48101352E-16 -4.22326380E-02 -3.42728026E-02  6.64121000E-01
 -3.83243396E-01 -2.34494559E-01  2.61714031E-16 -1.77760410E-16 -1.31694316E-01
  3.19032904E-02 -5.25065298E-02  1.69873622E-16 -5.37883340E-02 -1.35088609E-01
 -3.43525567E-02 -1.28470988E-16 -4.22326380E-02  3.42728026E-02 -6.64121000E-01
  3.83243396E-01  2.34494559E-01  6.81157980E-16 -1.49746166E-16 -1.31694316E-01
 -2.23678015E-03 -8.85840221E-04 -2.33545231E-16 -5.39212440E-13 -5.25084594E-03
  4.32018414E-02  2.36487991E-16  5.18813867E-13 -3.08052554E-02  2.10374046E-02
 -1.65058737E-02 -7.00245750E-03 -5.14445132E-16  4.47505016E-16 -6.49271829E-14
  8.02205964E-04  1.75097805E-03 -2.99316306E-16 -1.03014412E-12 -3.90382186E-03
  4.60891307E-04  2.37752116E-16  6.51501063E-13  3.61416931E-03 -7.85513245E-01
  7.87145201E-01  4.05708340E-03  1.34555243E-16  3.03965321E-16  9.43204535E-14
  2.24136519E-02 -3.72160746E-02  4.90145404E-16  5.41605817E-02 -5.68797797E-02
 -1.35672428E-03 -1.42009002E-16 -3.03971809E-02  4.21440932E-02  2.76313474E-01
 -8.95272230E-02 -1.94822050E-01 -5.27997852E-16  3.58635897E-16  4.01038834E-03
  2.24136519E-02 -3.72160746E-02 -9.11939157E-17 -5.41605817E-02 -5.68797797E-02
 -1.35672428E-03  1.64283219E-16  3.03971809E-02  4.21440932E-02  2.76313474E-01
 -8.95272230E-02 -1.94822050E-01  1.21537397E-16 -1.79429678E-16 -4.01038834E-03
 -2.29424433E-12  1.54175287E-12 -2.08896586E-16 -1.49318804E-01  3.59974189E-13
 -1.59502467E-12  1.50066476E-16 -2.98619958E-01  1.95626750E-11  2.77850419E-12
 -5.46323490E-12  5.55671732E-12 -1.39979796E-16  1.35070954E-15  3.80585743E-02
  5.51944411E-12 -1.15246308E-11 -1.86705495E-15  4.43884741E-01  4.92363053E-12
 -3.31151076E-12  1.20094720E-15 -2.57371295E-01  9.70442316E-13 -4.52542506E-12
 -2.87292903E-12  1.56130329E-12  4.48110605E-16  1.15733253E-15 -1.35506761E-01
 -1.09122273E-01  2.16332339E-01  9.95792572E-16 -1.99739997E-02  3.64304124E-01
  5.66085083E-02 -8.33906805E-16 -4.64492682E-02 -1.93057326E-01 -1.85301523E-01
 -2.41150693E-01  5.10366465E-01 -6.53743078E-16  3.36663661E-16 -8.10448250E-02
  1.09122273E-01 -2.16332339E-01  4.17184905E-16 -1.99739997E-02 -3.64304124E-01
 -5.66085083E-02 -2.47357536E-16 -4.64492682E-02  1.93057326E-01  1.85301523E-01
  2.41150693E-01 -5.10366465E-01  8.44654208E-16 -4.55939694E-16 -8.10448250E-02
  7.27990242E-03 -1.22351431E-02 -1.15150992E-17 -9.03962417E-12 -3.31142550E-02
  4.53506452E-02  4.19241047E-17 -9.54861197E-12 -3.75652125E-01  2.40065013E-02
  5.58921045E-04 -4.86853295E-02 -6.15886366E-16  1.99504127E-16 -1.21418079E-12
 -1.16904353E-01  2.46361547E-01 -2.84602499E-16  1.84997324E-11 -1.02260590E-01
  6.05280703E-02 -6.76141563E-18 -1.14764291E-11  5.86301098E-03 -1.87351282E-02
  1.16311190E-01 -1.19514615E-02  2.51760686E-16  1.55068671E-16 -8.23220349E-12
  7.50503539E-02 -1.53172282E-01  9.21528444E-16  3.42536026E-01  3.96804574E-01
 -2.66890128E-02 -6.28774904E-16 -2.10167559E-01 -2.63510636E-01 -6.32968407E-02
 -3.46081167E-01  3.73098497E-01 -4.96128986E-16  2.95273437E-16 -6.53253830E-02
  7.50503539E-02 -1.53172282E-01 -7.71395704E-16 -3.42536026E-01  3.96804574E-01
 -2.66890128E-02  3.72969569E-16  2.10167559E-01 -2.63510636E-01 -6.32968407E-02
 -3.46081167E-01  3.73098497E-01 -4.09583073E-16 -3.85558329E-16  6.53253830E-02
 -2.89304499E-17  1.44771978E-16 -9.88029124E-12 -2.82782484E-16 -1.52559043E-16
 -8.34680773E-17  1.00005507E-11  3.22362120E-16  6.34787037E-16 -1.21578817E-16
  1.18850720E-16 -4.40450275E-17 -5.45456064E-01  6.87461216E-10  2.51993449E-16
  2.39285884E-16 -3.29796970E-16 -8.87929788E-10 -2.17068655E-16  1.61011092E-16
 -1.51106643E-16  5.47071017E-10  6.43377482E-17 -1.07123055E-16  5.47657601E-16
 -3.91140599E-16 -1.80931828E-16  1.64031675E-01  6.06248566E-10  5.06605993E-17
 -1.11685314E-15  1.83776820E-15  6.05812391E-01 -1.01805333E-15 -1.16397297E-15
  5.35587612E-17 -3.74558034E-01  9.07520048E-16  1.05073879E-15 -7.10483456E-16
  5.12645776E-16 -1.51373663E-15 -3.20322040E-01  2.79243199E-01 -6.46678464E-17
  1.08619111E-15 -1.59331188E-15 -6.05812390E-01  4.05255043E-17 -1.55908866E-16
  1.98698539E-16  3.74558033E-01  1.29453255E-16 -2.87411499E-16 -8.13115149E-17
  6.27986403E-16  1.08385363E-15 -3.20322040E-01 -2.79243199E-01 -3.96769903E-16
  1.50768666E-17  2.69852622E-17  2.63136613E-03 -1.39182784E-15 -8.48955751E-17
  8.74751016E-17 -2.64773627E-03 -1.01304460E-15 -3.24724440E-16 -2.94001056E-16
 -1.69324431E-16  4.32919305E-16 -6.82189251E-10 -5.41307207E-01  1.39762278E-15
 -4.16856475E-16  2.55075297E-16  7.04821507E-01  4.31144863E-16  1.26464995E-16
 -2.57513655E-16 -4.36785899E-01 -4.34833330E-16 -2.44115299E-16 -4.00162875E-16
  6.71470722E-16  1.26909596E-16  2.01651111E-10 -4.79600510E-01  1.65647603E-16
 -9.23561207E-16  2.25872230E-15 -3.49917171E-01 -6.82407998E-16  1.30844240E-15
  3.93955040E-16  2.17601349E-01  1.01373555E-16 -6.98724518E-17 -4.09485628E-16
 -1.15084231E-15  5.43480521E-16  2.76890691E-01 -5.16868868E-04 -4.52207990E-16
  7.73574600E-16 -2.43455382E-15 -3.49917173E-01 -7.11200591E-16 -5.22320292E-17
 -8.39031166E-17  2.17601350E-01 -3.32395384E-16 -5.98048619E-16  7.66810309E-16
  1.10127492E-15 -1.47143589E-15 -2.76890692E-01 -5.16869564E-04  2.21573241E-16
 -6.69955440E-13 -6.85243045E-13  3.37930165E-16  3.96737169E-01  1.92637257E-12
  3.25006513E-12 -4.80279973E-16 -3.02402843E-01 -3.55240349E-12 -1.57971926E-11
  9.79970904E-12  1.95397110E-12 -1.09271558E-16 -1.33002296E-16 -9.26364411E-02
 -1.37573401E-12  3.49502179E-12 -6.17938034E-16  1.56567709E-01  9.12067535E-12
 -6.16765330E-13  6.86752858E-16 -1.46456994E-01 -7.64683958E-12  6.91146746E-12
 -4.44462490E-12 -4.78289258E-12  1.31691727E-16  1.98605017E-16  9.80631484E-02
 -1.11328353E-01  2.83961740E-01 -1.31641776E-16  6.05693307E-01 -2.45581404E-01
 -5.34820028E-02  5.32385573E-17 -5.07800904E-01  1.93992209E-01  2.41147434E-02
 -1.41970008E-01 -6.74369564E-02  1.75537836E-16 -8.73888434E-17  1.38104017E-01
  1.11328353E-01 -2.83961740E-01  2.80871770E-16  6.05693307E-01  2.45581404E-01
  5.34820028E-02 -1.36816002E-16 -5.07800904E-01 -1.93992209E-01 -2.41147434E-02
  1.41970008E-01  6.74369564E-02  3.46396652E-17 -4.34725095E-17  1.38104017E-01
  1.04374570E-03 -1.46475656E-03  6.96263030E-18 -2.50557691E-12  3.14261929E-01
  2.25162156E-03  1.09704918E-16 -1.18071332E-12 -2.68467499E-01  7.89119650E-03
 -7.65262364E-02  6.71393794E-02 -3.56037146E-16 -1.60872003E-16  6.20518410E-12
 -1.60727594E-01  4.13651663E-01 -2.07727764E-16 -3.47675900E-12  7.17740812E-01
 -6.10149485E-02  4.98710294E-16  3.35715256E-12 -6.34537548E-01 -3.24687010E-02
  5.74510742E-02 -3.04958591E-01 -5.93970529E-18  4.29907779E-16  3.98282920E-13
  8.07111752E-02 -2.07696706E-01  3.42303130E-16 -2.85088657E-01  2.32269500E-01
  3.15343179E-02 -4.43517623E-16  2.51337330E-01 -2.01680481E-01  9.71200076E-03
  2.09401776E-01 -7.75203179E-02 -1.95780482E-16 -6.31064601E-18 -1.54261250E-02
  8.07111752E-02 -2.07696706E-01  5.81447615E-16  2.85088657E-01  2.32269500E-01
  3.15343179E-02 -4.89246800E-16 -2.51337330E-01 -2.01680481E-01  9.71200076E-03
  2.09401776E-01 -7.75203179E-02  6.52679024E-17 -9.22967867E-17  1.54261250E-02
 -8.32242214E-02  8.15801491E-03 -4.00496735E-16  5.47082733E-12 -4.84460967E-03
 -2.21645109E-01  3.20382237E-16  7.19272031E-12 -4.53910768E-03 -2.89196442E-01
  1.55202881E-01  1.40367048E-01  1.09550204E-16  3.48077303E-16 -7.75516009E-12
 -1.95805392E-01  5.17174961E-01 -6.90590953E-17  1.76206956E-11  3.98574659E-01
 -6.08492437E-02 -2.72147620E-16 -1.85163036E-11 -3.74743468E-01 -1.42893096E-03
 -1.89090057E-01 -2.29690174E-01 -4.44453818E-19  1.97734887E-16 -2.39017625E-12
 -1.82052544E-01  4.80108010E-01 -1.56381520E-16  3.47943353E-01 -2.08001920E-01
 -6.21138736E-02  2.27130048E-16 -3.20681115E-01  1.91839957E-01  7.13913462E-03
 -2.13216571E-01 -1.90270837E-01 -1.68151182E-16  6.71540856E-17  1.87733150E-02
 -1.82052544E-01  4.80108010E-01 -3.30741626E-16 -3.47943353E-01 -2.08001920E-01
 -6.21138736E-02  3.88696558E-16  3.20681115E-01  1.91839957E-01  7.13913460E-03
 -2.13216571E-01 -1.90270837E-01  1.76198796E-16  3.28166922E-17 -1.87733150E-02
  2.31423613E-12  1.35425253E-12 -3.78000266E-15 -2.45442563E-01  1.16659062E-11
 -1.82987264E-11  1.92686660E-15 -9.72894837E-02  5.81381977E-12  5.12771970E-11
 -3.20017937E-11 -9.21679641E-12  1.69073979E-15  2.06087611E-15  1.82043499E-01
 -2.87304015E-12  8.83635208E-12 -2.69743735E-15 -3.09934522E-01  7.69541847E-12
 -9.47748796E-13  1.80917807E-15  3.42352260E-01 -1.04792455E-11 -1.73695913E-11
  1.59301443E-11 -3.15884653E-12 -6.26726817E-16  3.68128227E-16  1.25546032E-02
 -2.85731024E-01  7.88741988E-01 -1.17624207E-15 -2.58996116E-01 -9.79680075E-02
  9.42256432E-03  1.42534220E-15  1.62648632E-01  1.83166855E-01 -2.18805836E-01
 -1.13700801E-01 -2.47763938E-01 -1.05066866E-15  7.40536816E-17 -8.58226239E-02
  2.85731024E-01 -7.88741988E-01  2.29776363E-15 -2.58996116E-01  9.79680075E-02
 -9.42256433E-03 -1.05594128E-15  1.62648632E-01 -1.83166855E-01  2.18805835E-01
  1.13700801E-01  2.47763937E-01  2.81866340E-15  1.27748017E-15 -8.58226239E-02
 -2.46404585E-03  3.07330678E-03  1.54042460E-15 -2.37544221E-11 -2.78404360E-01
  4.20119769E-03 -5.84283157E-16 -3.50572941E-12 -5.77263417E-02 -3.24101515E-02
  1.51157840E-01 -1.17755145E-01  1.01120598E-16  3.06675857E-16  6.74977126E-12
 -3.00644982E-01  8.31935876E-01  5.08884148E-16 -2.82696365E-11 -2.77237375E-01
  1.27432596E-02 -9.90947345E-16  3.21573259E-11  1.58600707E-01 -2.24712301E-01
 -3.61775179E-01 -5.53502752E-02  9.90364534E-18  7.55034947E-17 -2.99777798E-12
  1.69533438E-01 -4.69766710E-01  2.04306719E-16 -3.07449263E-02 -3.37893992E-01
 -6.89109068E-03  1.48825868E-17  1.15118189E-01  3.38121861E-01  1.44824436E-01
  4.16537449E-02  1.73376761E-01  6.16983532E-16 -3.03931344E-16  3.94691132E-02
  1.69533438E-01 -4.69766710E-01  5.41431710E-16  3.07449263E-02 -3.37893992E-01
 -6.89109068E-03 -4.43541724E-16 -1.15118189E-01  3.38121861E-01  1.44824436E-01
  4.16537449E-02  1.73376761E-01 -6.96295556E-16 -3.50629184E-16 -3.94691132E-02
  9.91688787E-02  7.80892570E-03  2.36534540E-15  3.80147763E-11 -1.93563002E-02
 -8.24317360E-02 -1.12649517E-15 -1.67524403E-12  6.36933007E-04  7.59251998E-01
 -3.08183009E-01 -3.15357538E-01  6.20540121E-17 -1.12863972E-16 -8.22821334E-12
 -1.85842669E-01  5.44714080E-01  1.98660549E-16  5.78895967E-11 -3.06596211E-01
  2.75160644E-02 -3.76669343E-16 -7.11294280E-11  1.72610229E-01 -3.74313383E-01
 -2.35006972E-02  6.39157852E-03  8.11849322E-18  5.42542738E-16  1.40762444E-11
 -1.63942342E-01  4.81806059E-01  3.65404285E-16 -2.49494962E-01  1.25489866E-01
  2.60898142E-02 -4.91575762E-16  1.42679086E-01 -5.92565304E-02 -3.53290820E-01
  4.65712228E-03  8.66857749E-03  5.65319423E-16 -3.16310852E-16 -6.52142382E-03
 -1.63942342E-01  4.81806059E-01  3.24785712E-16  2.49494963E-01  1.25489866E-01
  2.60898142E-02 -3.94847585E-16 -1.42679086E-01 -5.92565305E-02 -3.53290820E-01
  4.65712226E-03  8.66857745E-03 -4.37909364E-16 -2.20515629E-16  6.52142383E-03
  5.07209850E-12  5.49000082E-13  4.70420837E-14 -2.09812340E-02  2.82169016E-12
 -4.68986745E-12 -2.17683826E-14  7.81032323E-03 -2.34930292E-12  3.86616385E-11
 -1.08894043E-11 -2.04600507E-11  7.07629880E-17 -4.21764596E-16 -2.40187524E-02
 -7.63670440E-12  2.34204713E-11  7.05165637E-15 -5.99514593E-01 -1.58745499E-11
  2.14793501E-12 -1.07227780E-14  7.19911484E-01  7.78874040E-12 -1.66598008E-11
  1.31657183E-13  2.86473802E-12  1.83832767E-16  1.16071101E-14 -1.19221040E-01
 -1.49701836E-02  3.93937969E-02  7.82769895E-15  2.67095776E-01  4.72442094E-01
 -4.05522106E-03 -1.16883565E-14 -3.12491972E-01 -5.62012718E-01 -1.36530809E-02
  8.70475067E-02 -1.17681294E-01  1.03090591E-14 -5.64512338E-15  4.34102423E-02
  1.49701836E-02 -3.93937968E-02  6.74083537E-15  2.67095777E-01 -4.72442094E-01
  4.05522106E-03 -1.07143806E-14 -3.12491972E-01  5.62012718E-01  1.36530809E-02
 -8.70475067E-02  1.17681293E-01 -1.04857653E-14 -5.73857440E-15  4.34102423E-02
 -1.84665068E-16 -1.21368545E-16  1.27555140E+00 -3.41476657E-17  8.17065231E-18
 -5.89990158E-17 -5.87072053E-01 -7.76763432E-16  3.39053799E-17 -1.94383207E-15
  7.00200829E-16  7.20595675E-16  5.52984752E-11 -2.09671104E-02  1.97994496E-15
  7.41650408E-16 -2.50019518E-15  1.82720957E-01  2.39731881E-14  9.03713413E-16
  3.01067081E-16 -2.81996217E-01 -2.89150737E-14 -1.35408710E-15  6.84616326E-16
  8.01995621E-16  2.54563219E-16 -6.99373280E-12  3.09450097E-01  5.06449568E-15
 -2.71593798E-16  1.39384791E-15  2.01017073E-01 -1.14989538E-14 -1.98575355E-14
 -1.81151214E-16 -3.11546838E-01  1.30632504E-14  2.38977436E-14  4.94104889E-16
 -4.48100929E-15  3.81374084E-15  2.82228937E-01 -1.60423332E-01 -2.04759334E-15
  6.75750968E-16 -1.33609988E-15  2.01017073E-01 -1.30856478E-14  2.01722698E-14
  1.35228185E-16 -3.11546838E-01  1.44186308E-14 -2.41912805E-14  7.71222891E-16
  3.35419887E-15 -4.86865919E-15 -2.82228937E-01 -1.60423332E-01 -2.18878795E-15
 -2.07678715E-17  9.66269876E-17 -1.31374446E-10  1.48797832E-15 -5.03701033E-16
  4.70305102E-18  7.12362653E-11 -1.07997946E-15  4.54256234E-16 -6.92710332E-18
 -4.07205485E-16  2.85993271E-16  1.04326326E+00 -1.26759417E-09  1.13410688E-15
  7.04316913E-17  2.45414350E-16 -5.40701228E-10  3.07193986E-16  2.35020143E-16
 -4.01103433E-16  1.09044403E-09 -5.69442820E-16 -3.08853290E-16 -1.32811759E-16
  9.71727346E-17  3.48051075E-17 -1.50924923E-01 -7.57588960E-10  9.44153405E-16
  1.57611699E-16  2.29320352E-16  3.82575795E-01 -6.38474727E-16 -1.73645444E-16
  3.19553905E-16 -7.66937441E-01  8.06609266E-16 -9.87960317E-18  1.34098403E-16
  7.91583289E-17 -2.23368231E-16  4.10959288E-01 -3.24043880E-01  1.81511764E-16
  2.23123152E-17 -7.23877853E-16 -3.82575794E-01 -2.47156141E-16 -1.35880493E-17
  4.76467070E-16  7.66937440E-01  2.65026052E-16  2.05953538E-16 -5.10296314E-17
 -6.82195549E-16  3.12823343E-16  4.10959288E-01  3.24043880E-01  3.22429829E-16
  6.33173758E-18  1.48238922E-16  3.42299528E-02 -1.08596583E-15  8.35002363E-16
 -4.73848478E-16 -1.88299452E-02  1.52561211E-15 -2.38693964E-16  6.86557507E-16
 -7.73421263E-16 -2.83538936E-16  1.28057628E-09  1.05187843E+00 -2.31653033E-15
  5.57433606E-16 -6.06946270E-16  4.36850133E-01  5.82051357E-17  6.42581729E-16
  8.97020194E-17 -8.89780625E-01  3.06134814E-16 -3.25311501E-16  3.14282271E-16
  1.32824255E-16 -5.68017257E-17 -1.80732043E-10  6.12903394E-01 -1.25141305E-15
  3.73749566E-16 -3.09400081E-16 -2.17246779E-01  1.65325711E-16 -5.80406035E-16
 -3.37936465E-16  4.39713793E-01 -3.16399455E-16  7.53856261E-16 -6.24054617E-16
 -3.44522719E-16  1.19523600E-15 -3.19098340E-01  3.62170766E-02 -2.76520075E-16
  3.77887780E-16 -2.83050548E-17 -2.17246780E-01  1.02870264E-15  6.69414387E-16
  5.54448654E-16  4.39713795E-01 -2.57307299E-16 -6.68856351E-16  4.31100685E-16
  6.63855000E-16 -9.22619907E-17  3.19098341E-01  3.62170773E-02 -6.06543810E-16
 -2.73564668E-12  3.77198023E-12 -3.48311405E-16  7.35799294E-01  2.62884564E-12
  1.33375340E-13  5.76419080E-16 -6.92625570E-01 -6.85496514E-12 -9.87331484E-12
  3.65407288E-11 -2.53144221E-11 -1.30408424E-15  2.75108717E-15  1.16111829E+00
 -8.36546923E-16  2.57512682E-12  9.38631971E-16  9.11863521E-02 -7.69100261E-12
  2.42202861E-12 -1.99658136E-15 -4.09482683E-01  8.05871897E-12  4.74294329E-12
  6.36966286E-12 -6.74684336E-12  4.28009609E-16  1.65185988E-15  6.49023136E-01
  1.38217161E-02  9.18242823E-02 -1.39646933E-15 -2.33223540E-01  1.97885915E-01
  1.15639270E-01  1.96231055E-15  5.10147004E-02 -2.76887926E-01  1.73086132E-01
  3.81698454E-01 -2.28216882E-01 -1.32788556E-15  7.18779582E-16  1.44104714E-01
 -1.38217161E-02 -9.18242824E-02  3.64205264E-16 -2.33223540E-01 -1.97885915E-01
 -1.15639270E-01 -3.11825344E-16  5.10147004E-02  2.76887926E-01 -1.73086132E-01
 -3.81698454E-01  2.28216882E-01  4.10804545E-16 -3.82062336E-16  1.44104714E-01
  1.31153815E-16 -4.04597616E-16 -2.10695484E-01 -1.21317859E-15 -1.81162963E-15
  9.59741702E-16  1.36539172E+00  7.04059808E-16  2.41180169E-15  3.67804767E-16
 -1.24928093E-15  2.13701102E-15 -1.61460642E-11  6.78149350E-03  2.20235521E-16
  1.80385206E-16 -2.05531130E-16  3.87810565E-01  1.21649980E-16  6.95166761E-16
 -1.50049745E-15 -8.18224751E-01 -3.06199445E-16  1.66010289E-16 -3.71031896E-16
 -1.91073564E-16  3.14988360E-16  2.72253367E-12  1.18967037E-01 -9.31808115E-17
 -3.58568050E-16  3.87398250E-16  3.83838683E-01 -6.75167745E-17  2.44939072E-16
  3.01529892E-16 -8.08265595E-01 -3.53130917E-16 -1.91729307E-18 -6.54354568E-17
 -8.70700774E-16  7.07110545E-16  9.84032208E-02 -5.79116353E-02 -6.93248148E-16
 -3.22870755E-16  3.83199139E-16  3.83838683E-01  9.59183856E-16  2.15373864E-16
  7.94152714E-16 -8.08265595E-01 -1.84008049E-15 -2.78797536E-16 -3.53449181E-16
 -1.79793210E-15  6.56251445E-16 -9.84032208E-02 -5.79116353E-02 -1.14727660E-16
  4.78345035E-03  1.78003247E-02 -3.51723340E-16 -3.69080404E-11  8.20528187E-01
 -2.51219513E-02  2.91176236E-15  3.83688813E-11 -8.61536953E-01  7.53663660E-03
  9.64485156E-01 -9.31647019E-01  9.52234267E-16  1.32318339E-16 -1.85635153E-11
  1.98713991E-02  1.12442350E-01  1.09499063E-15  4.90205200E-12 -3.44198913E-01
  1.22776218E-01 -1.86009341E-15 -9.85046642E-12  3.06363811E-01  2.46482235E-01
  1.17707649E-01  4.19242560E-02 -4.51068428E-17  1.86407208E-16 -6.92050353E-12
 -1.08753516E-02 -4.99649411E-02  1.29686468E-15  1.50321727E-01 -6.87201001E-02
 -6.49283957E-02 -2.06907333E-15 -2.22603260E-01 -1.31225261E-01 -1.17448514E-01
  3.89434000E-01 -4.84836272E-01  4.90112852E-16 -1.80397443E-16  2.40657167E-01
 -1.08753516E-02 -4.99649411E-02  2.92576735E-16 -1.50321727E-01 -6.87201000E-02
 -6.49283957E-02 -1.29947103E-15  2.22603260E-01 -1.31225261E-01 -1.17448514E-01
  3.89434000E-01 -4.84836272E-01 -3.83959191E-17 -7.62811815E-17 -2.40657167E-01
  1.90079801E-12  8.65623375E-12 -3.87005742E-17  1.96359075E-01  8.41186042E-11
 -3.59348536E-11 -6.88502210E-16  1.68895656E+00  5.54979840E-10  8.91622698E-12
  7.87657564E-11 -6.86925707E-11  4.12571459E-16  3.70763938E-16  1.90025090E-01
 -4.89728055E-11  6.63983019E-11 -2.67586995E-17  3.60738880E-01 -1.41148484E-11
  9.99337089E-12 -5.65311709E-17 -9.74925496E-01  5.94653417E-11 -1.96174590E-10
 -1.83765900E-10 -1.56563345E-10 -3.49097818E-16  2.09905965E-16  2.85782965E-01
 -1.27339550E-01  1.64346664E-01 -3.88098613E-16  7.45663932E-02  1.66743746E-01
  2.68661724E-02  7.26439482E-16 -1.37563623E-01 -4.84949566E-01 -5.20396473E-01
 -2.95447435E-01 -5.85711310E-01  1.03309719E-16 -6.85573407E-17  2.37682886E-02
  1.27339550E-01 -1.64346664E-01  2.14109653E-16  7.45663931E-02 -1.66743746E-01
 -2.68661724E-02  4.29595858E-16 -1.37563622E-01  4.84949565E-01  5.20396473E-01
  2.95447435E-01  5.85711310E-01  3.38494628E-16  1.88949756E-16  2.37682885E-02
  3.80570642E-03  1.41295966E-02  5.00100447E-16 -7.96854293E-11  2.94724781E-01
 -1.76057227E-02 -4.37276166E-16 -5.62552434E-10  1.61109158E+00  4.88569367E-03
  2.62915485E-01 -2.35217986E-01 -1.91473029E-16  6.57954269E-16 -7.22996615E-11
 -1.47158887E-01  2.03163489E-01 -4.27513214E-16 -1.23182186E-10 -5.24684178E-02
  4.02435622E-02 -8.39451630E-16  3.35379449E-10  1.90249386E-01 -5.81274122E-01
 -5.61282795E-01 -4.67901596E-01 -6.00177563E-17 -3.32217423E-16 -1.00470931E-10
  7.32524562E-02 -9.93330956E-02  8.06515525E-17  1.77255050E-01  2.57136364E-01
 -2.36317440E-02 -6.99871357E-17 -5.00815899E-01 -7.04457119E-01  2.94770731E-01
  4.79351381E-01  2.49068484E-02  2.19136051E-16 -1.85350353E-16  1.73082392E-01
  7.32524561E-02 -9.93330955E-02  3.48251779E-16 -1.77255050E-01  2.57136364E-01
 -2.36317440E-02  8.13609921E-16  5.00815899E-01 -7.04457119E-01  2.94770730E-01
  4.79351381E-01  2.49068480E-02 -1.63374043E-16 -4.82590362E-17 -1.73082392E-01
 -1.68765526E-01 -2.80843439E-01  4.44062192E-16 -4.53442295E-13  1.88648576E-02
  2.26765904E+00 -3.96658733E-16  2.74510759E-11 -1.66993097E-03 -7.79218426E-01
 -1.35356282E-01 -1.34465561E-01 -6.34088021E-17  1.18405120E-15  7.48614826E-12
 -9.87848909E-02  6.35626584E-02 -3.32916530E-16  4.35671201E-12 -3.63835763E-02
  1.53818306E-01 -5.21326605E-17 -1.34061555E-11  2.12331850E-01 -3.98890712E-01
 -4.72327903E-01 -3.09469425E-01  1.33523320E-17  4.28224963E-16  6.10655285E-12
 -9.73324806E-02  6.12150420E-02 -1.23035663E-16 -2.95524899E-02  1.80070091E-02
  1.55332356E-01  7.59065772E-16  1.71225981E-01 -1.02470965E-01 -3.97017314E-01
 -3.37450870E-01 -4.27624818E-01 -3.61897072E-16  9.66040160E-17 -7.88787710E-02
 -9.73324806E-02  6.12150420E-02 -1.46197581E-16  2.95524899E-02  1.80070091E-02
  1.55332356E-01  5.67571571E-16 -1.71225981E-01 -1.02470965E-01 -3.97017314E-01
 -3.37450870E-01 -4.27624818E-01  3.11921081E-16  6.20462645E-17  7.88787710E-02
  2.62481462E-11  1.88323251E-10  5.59785684E-16  2.31350579E+00 -3.32872026E-10
 -7.68262650E-11  2.07281364E-15 -5.49280117E-01  7.85490969E-11 -1.46419142E-11
  3.76109029E-10 -5.88846883E-11 -1.70439370E-15 -3.30343721E-16 -1.41210578E+00
  3.79530445E-12  6.21837518E-12  1.22731764E-15 -7.08658990E-02 -8.90596514E-12
  3.18702692E-11 -2.37917344E-15  3.59616531E-01 -1.03363119E-10  8.53955809E-12
 -2.42349868E-11  9.30855891E-11  1.26972532E-16  2.19890304E-16 -2.62354206E-01
 -8.04139857E-02  1.78504748E-02  5.30296622E-16 -5.95035085E-02 -8.41131244E-03
 -8.20808224E-02 -3.78642330E-16  1.32671656E+00 -5.60769488E-01 -8.92883418E-02
 -1.04602855E+00 -2.28264139E-01 -8.59014185E-17  2.44644520E-16  5.33456079E-01
  8.04139856E-02 -1.78504748E-02  1.01679033E-15 -5.95035085E-02  8.41131247E-03
  8.20808224E-02 -2.51553621E-15  1.32671656E+00  5.60769488E-01  8.92883418E-02
  1.04602855E+00  2.28264139E-01 -7.14506178E-16 -6.06495661E-16  5.33456079E-01
 -4.75913993E-02 -2.13802436E-01  9.99140130E-16  4.41403835E-10  2.26600953E+00
  8.84626674E-02  7.35239281E-16 -1.01601016E-10 -5.25092573E-01 -2.67601763E-03
 -1.50297598E+00  1.04548168E+00 -3.02270125E-16 -1.69038656E-15 -2.37535002E-10
 -7.74787386E-02 -6.25541366E-03  6.12963494E-16 -1.15151191E-11 -1.54293309E-02
 -1.15300481E-01 -2.12959696E-16  6.77849209E-11  1.41937137E+00 -9.76171391E-02
  9.95345319E-03 -1.25784277E+00  2.31095383E-16  2.83705094E-16 -5.17394972E-11
  5.90634417E-02 -6.14737556E-03  2.72927360E-16 -9.91283670E-03 -6.72317978E-02
  2.80970239E-02 -1.09629439E-15 -7.01549007E-01  7.85829020E-01  7.03186647E-02
  4.83542686E-01  4.53663840E-01  5.46348553E-16 -1.36905277E-16 -5.36399487E-01
  5.90634417E-02 -6.14737555E-03  4.46801241E-16  9.91283668E-03 -6.72317978E-02
  2.80970239E-02 -9.08696501E-16  7.01549007E-01  7.85829020E-01  7.03186647E-02
  4.83542686E-01  4.53663840E-01 -8.45850300E-16 -2.46408591E-16  5.36399487E-01
  4.00309329E-01  1.29513029E+00  9.85513699E-16 -2.39339231E-10  3.27314250E-01
 -6.97700989E-01 -1.82989177E-15  5.81276463E-11 -8.32938298E-02  1.76917900E-01
  1.54706365E+00  1.94086718E+00 -2.92383008E-16  1.20986323E-15  1.52006525E-10
 -1.09801343E-01 -1.62209477E-02 -7.82966588E-16  6.30017130E-12 -3.93169522E-02
  1.76456997E-01  3.82468466E-16 -2.86689145E-11  1.58400832E+00 -1.45248550E-01
 -2.54157355E-01 -1.44931491E+00  1.40473382E-17  3.43656500E-16  2.09236574E-11
 -9.01491668E-02 -5.18562037E-03 -2.60148704E-16 -4.18292927E-02  1.29178887E-02
  1.96122830E-01  1.22364340E-15  1.09162072E+00 -5.71114693E-01 -1.19335949E-01
 -9.45936605E-01 -4.38055516E-01 -3.77950370E-16  3.30408809E-17  4.14140345E-01
 -9.01491668E-02 -5.18562039E-03 -9.55336077E-17  4.18292927E-02  1.29178887E-02
  1.96122830E-01  7.49083955E-16 -1.09162072E+00 -5.71114693E-01 -1.19335949E-01
 -9.45936605E-01 -4.38055516E-01 -7.22169563E-17 -1.22492761E-16 -4.14140345E-01
 -4.33443623E-01  4.80218472E+00 -3.98866969E-16 -5.57461462E-11  2.85444068E-02
 -4.10547520E-01  3.68687612E-16  1.61023733E-11 -8.41824636E-03 -1.88505927E+00
 -1.98527421E+00 -1.95553850E+00 -2.46795638E-16 -6.62057842E-16  2.99283544E-11
 -1.39206355E-02  2.71188017E-02  4.04671884E-16  9.65189969E-13 -1.22551763E-01
  1.63792059E-01 -8.84408963E-16 -7.38959972E-12  8.99310083E-02  1.69151438E-02
  2.87909916E-02 -1.63737681E-01  1.59653109E-16 -2.43082562E-16  3.58141784E-12
 -1.15718904E-02  2.83252861E-02  2.86974180E-17 -1.05402859E-01  6.01831460E-02
  1.53668053E-01 -9.50614875E-16  5.24594999E-02 -2.56469379E-02  2.09951122E-02
 -9.06382012E-02 -6.88784400E-03  1.91772311E-16 -1.69129644E-16  7.76295438E-02
 -1.15718904E-02  2.83252860E-02  6.45283598E-16  1.05402859E-01  6.01831460E-02
  1.53668053E-01 -1.48369565E-15 -5.24594999E-02 -2.56469379E-02  2.09951122E-02
 -9.06382013E-02 -6.88784402E-03 -4.74856117E-16 -1.68020619E-16 -7.76295438E-02
 -7.37178291E-12  1.38449505E-12  2.33716925E-15 -1.04550754E+00  1.28822014E-09
 -2.15810255E-10 -1.16027485E-15 -2.34748675E+00  2.88801197E-09  1.99966328E-11
 -1.74692832E-10  3.05290525E-11  8.38299680E-16 -2.90880301E-16  9.52732301E-02
  6.87654838E-10  3.20097016E-09  9.20812446E-16 -1.43346579E-01 -2.63014951E-10
 -1.10883904E-08 -1.79635757E-15  7.01109603E-01  1.36895717E-09  2.99875406E-09
  2.94261610E-09  2.47682209E-09 -3.78372342E-16 -1.96106342E-15 -1.22595698E-01
 -5.00674837E-01 -2.33283617E+00 -8.24380291E-16  1.29223591E-01 -1.57308933E-01
  8.08651531E+00  1.01507795E-15 -7.12113145E-01  8.15876927E-01 -2.18329748E+00
 -1.92640295E+00 -2.01020259E+00 -1.09302465E-15 -2.96225088E-15 -2.06886595E-01
  5.00674836E-01  2.33283617E+00  2.20523041E-15  1.29223590E-01  1.57308933E-01
 -8.08651530E+00 -1.55659352E-15 -7.12113143E-01 -8.15876928E-01  2.18329748E+00
  1.92640295E+00  2.01020259E+00  5.34001505E-16 -2.03423169E-15 -2.06886595E-01
  2.25086913E-03  1.10857642E-03 -2.86626532E-15 -1.29395892E-09 -1.05204103E+00
  6.16735869E-02  6.54984494E-15 -2.90679115E-09 -2.35981694E+00 -5.79662051E-03
  1.00359147E-01 -5.97494455E-02  6.87807259E-16 -1.81524488E-15  1.12605168E-10
 -5.72595483E-01 -2.67001817E+00  2.48017588E-15 -1.75941737E-10  2.17706266E-01
  9.25639867E+00 -5.46593752E-16  8.60113816E-10 -1.16278269E+00 -2.49618227E+00
 -2.45206517E+00 -2.05185035E+00 -8.36329668E-16 -1.97484931E-15 -1.49964474E-10
  2.96423467E-01  1.38369139E+00  2.16033233E-15 -1.58953725E-01 -5.09713134E-02
 -4.80000405E+00 -3.65591296E-15  8.38508285E-01  2.13985602E-01  1.29230912E+00
  1.02918816E+00  1.29659363E+00  1.09239239E-15  2.89297744E-16  5.47848225E-02
  2.96423468E-01  1.38369140E+00 -1.67018799E-15  1.58953725E-01 -5.09713130E-02
 -4.80000407E+00 -2.33396927E-15 -8.38508287E-01  2.13985600E-01  1.29230912E+00
  1.02918816E+00  1.29659364E+00  1.90547754E-15  1.42930405E-15 -5.47848230E-02
 -3.08476260E-01 -1.65972356E+00 -1.63842959E-15  7.58991241E-11 -3.39524106E-02
 -3.54759126E+00  2.34808455E-15  8.09707311E-11 -3.57309149E-02  4.07820554E-01
 -1.04776342E+00 -1.06167747E+00 -8.18579246E-16 -5.13324560E-15 -1.53906119E-11
 -4.12764080E-01 -2.05401297E+00  1.37117277E-15  6.36874316E-12  1.23586917E-01
  7.27985560E+00  3.40651321E-15 -3.51672531E-11 -1.70261062E+00 -1.83948311E+00
 -1.84385319E+00 -1.04507642E+00 -4.30167967E-16  6.79521908E-16  8.73215821E-12
 -3.97315245E-01 -1.98049437E+00 -1.27644376E-15  1.03084677E-01 -6.21774080E-02
  7.00779958E+00 -1.23758223E-15 -1.42593200E+00  8.37660803E-01 -1.77004530E+00
 -1.19420794E+00 -1.58032717E+00 -1.83454782E-15  1.34892853E-15 -3.90600157E-01
 -3.97315245E-01 -1.98049437E+00  5.53400678E-16 -1.03084677E-01 -6.21774080E-02
  7.00779958E+00 -2.79377255E-15  1.42593200E+00  8.37660803E-01 -1.77004530E+00
 -1.19420794E+00 -1.58032717E+00  3.36766793E-15 -4.17836436E-17  3.90600157E-01
Total SCF Density                          R   N=        1830
  2.04246541E+00 -9.44967397E-03  2.12681365E-01 -1.64281505E-17 -1.52468601E-15
  1.18255629E-01  1.10622072E-12 -3.41224199E-12  1.46623512E-15  2.76921391E-01
 -2.78836154E-04  7.64611138E-04  1.05345580E-15  1.88752040E-12  2.79107583E-01
 -3.70227893E-02  4.32441510E-02 -1.96823497E-15  3.93006771E-12 -6.12865787E-04
  9.53938484E-03 -2.51266439E-16 -6.54429655E-16  5.81824219E-02  4.07120894E-16
 -1.62289433E-16 -9.54920155E-16  2.86281400E-02 -4.89194235E-13  4.99366099E-13
  1.47300066E-15 -1.21412204E-02 -4.16860045E-12  5.80679507E-13  9.77172959E-16
  3.88230156E-02  1.30591863E-04 -2.17442791E-04  6.42850689E-16 -2.81135777E-12
 -1.29379191E-02  2.05894217E-04  3.77013859E-16  1.83897016E-12  3.92720949E-02
 -1.11215638E-02 -1.74158928E-02  4.35857723E-16  7.84238869E-13 -2.39286477E-04
 -3.12805320E-03  1.86475989E-16 -2.71436679E-13  4.12635602E-05  1.82056677E-03
 -1.32496391E-02 -2.71843456E-03 -1.15724587E-15 -1.64578920E-13 -3.21896131E-02
 -2.24216291E-04 -4.75059762E-16  3.51610331E-13  1.38395362E-02  2.43139504E-04
  8.49548699E-03 -1.34276633E-02 -2.20425084E-03 -4.15621772E-16  1.06637480E-12
  3.21356826E-02 -4.30046137E-04 -2.88647634E-16 -4.34241411E-13 -1.38379675E-02
  1.40163658E-04 -8.21040538E-03  8.49055170E-03  1.41827411E-16 -5.36070481E-17
 -2.80759505E-13  1.81650186E-16 -4.00187260E-17  2.37707948E-16  5.46305194E-14
 -2.16716615E-16 -2.65307929E-16 -3.46942479E-17  1.66228912E-16  9.75541324E-17
  2.89378832E-03  1.46653023E-16 -8.29953177E-17  1.09037824E-04  7.53376997E-17
 -6.59914024E-17 -4.85195942E-17 -2.40339150E-05 -1.85041025E-16 -1.88611426E-16
 -2.29025267E-18  7.64746042E-17  8.85907337E-18 -2.67474621E-15  2.91866565E-03
 -7.49225660E-13  1.16907558E-12 -7.40260804E-16 -3.66287090E-02 -1.92724741E-13
 -6.48948332E-14 -1.96212547E-16  1.58668700E-02  7.14435194E-13 -2.54498893E-13
 -8.23914978E-14 -4.74642810E-14  1.66825309E-17 -1.43333784E-17  1.10898883E-02
  1.23398498E-02 -4.26801976E-03 -1.31389567E-17  5.36363444E-14 -2.50666021E-02
 -1.11416564E-03  5.75931416E-16 -8.20598562E-13  2.02576082E-04  3.50881024E-03
  9.62147421E-03 -1.06095170E-02  1.80564304E-16  6.25651374E-16 -3.67904181E-13
  2.08288225E+00 -2.83476686E-02  2.18022615E-02 -7.64993085E-16 -1.90920670E-12
  8.01335408E-02 -1.45319498E-04 -9.61101868E-17  1.49514645E-12  5.29534007E-04
 -9.39088695E-03 -2.17535643E-02  2.58636042E-02 -1.50560385E-16 -1.83074154E-16
  1.01767582E-12 -2.11337272E-01  5.65047185E-01 -1.47308040E-17 -1.64847480E-15
  1.62607598E-01 -3.67777295E-16  7.51767714E-17 -3.04246849E-15  7.88954731E-02
  4.71662228E-16 -2.25652828E-15  3.66985634E-16 -5.58649057E-16 -3.43472982E-16
 -3.81956817E-13  4.17923047E-02 -1.36731188E-16 -5.00893433E-17 -2.38220445E-15
  8.17751279E-01 -2.27828227E-13  1.62402565E-12 -4.50910654E-16  8.03236845E-02
 -2.30336563E-13  7.45153820E-12  4.55196659E-16  1.36481727E-01  4.98326876E-12
 -1.10373069E-12 -7.32863362E-13  1.81956574E-13  1.13126930E-16 -1.17773721E-16
  4.41992562E-02  4.97651467E-13  3.45253020E-12 -8.65681372E-16  8.69078525E-01
  1.09254010E-01 -2.02380272E-01 -5.22508174E-16 -7.46460523E-13 -3.46437856E-01
 -4.29503833E-02  6.32724254E-16  5.30440943E-12  6.38539050E-02  1.41443248E-02
  5.27241430E-02 -4.81640058E-02 -6.09971675E-17  1.47384571E-16 -8.30112607E-13
 -3.05757924E-02  4.17416373E-02  6.52187572E-17 -1.07649160E-12  7.30628361E-01
 -8.96256389E-03 -3.95987212E-02  1.07315633E-15  1.95200512E-12 -5.25582552E-02
 -1.27043139E-02  1.06813359E-15 -9.12230943E-14 -2.32677383E-02 -4.38050150E-03
 -1.52904812E-02  2.06158537E-02 -5.35561888E-18  3.84966195E-16 -8.09563091E-13
 -2.02996570E-01  5.14789404E-01  8.33375764E-15 -1.29725635E-11  2.27404968E-01
  5.68577737E-01 -1.44892611E-16 -1.00191864E-15  1.01831442E-01 -4.28011062E-16
  8.19975011E-17 -1.92963177E-15  4.93220566E-02  1.11492355E-16 -1.68001724E-15
  2.14066314E-16 -2.95692684E-16 -1.70666522E-16 -2.64326260E-13  2.93833696E-02
 -4.69975219E-17 -7.91877459E-16 -1.50700963E-15  5.57928594E-01 -7.41622384E-16
 -8.09370651E-17  5.78405155E-15  3.81625061E-01  4.23391035E-13  1.16040063E-12
 -3.81048774E-16  5.17404405E-02  9.62823358E-13  4.95622177E-12  2.48198355E-16
  8.85313350E-02  3.27346246E-12 -7.36782264E-13 -5.84756531E-13  1.92643061E-13
  1.12207555E-16 -3.76259200E-17  2.88146348E-02  6.99214516E-13  2.09391144E-12
 -1.59525446E-16  5.75248791E-01 -2.17880597E-12 -9.36613189E-12 -1.86859083E-16
  3.81017016E-01  7.28976170E-02 -1.21101478E-01 -8.93935900E-16 -3.58716266E-14
 -1.74217608E-01 -2.60132677E-02  2.17779538E-17  3.30343966E-12  3.89016099E-02
  8.23614740E-03  2.78725480E-02 -2.51552399E-02  1.93560486E-17  4.12650072E-17
 -3.20854953E-13 -2.64931293E-02  5.12791006E-02 -1.49344151E-15  2.67550310E-12
  4.04261116E-01  1.44919717E-01 -1.04748824E-15  1.01325476E-12  2.26815901E-01
 -1.56597832E-04  3.01425220E-03 -4.12830676E-16 -9.13103134E-13  7.23750216E-03
  5.23943157E-04 -2.11871227E-16  4.13472149E-13  2.79676609E-03 -4.15840635E-04
 -1.64057476E-04  1.77924652E-04 -1.43850664E-17 -9.01473002E-17  2.91314830E-13
 -2.21502456E-02  1.38058885E-02 -1.77527840E-15  2.24656030E-12 -4.67492343E-03
  7.07990247E-03 -1.19543994E-15  1.51416517E-12 -1.42845450E-03  8.59185217E-04
  1.36256258E-04  1.98092158E-03 -3.04205012E-16 -8.59856336E-13  8.12648522E-03
  3.31247153E-04 -1.61677804E-16  3.42450499E-13  4.02865178E-03 -3.06053370E-04
  1.92993860E-04 -1.73518543E-04 -2.51278750E-17 -8.82188272E-17  2.53485069E-13
 -2.13923996E-02  1.23567730E-02 -1.62892609E-15  1.85172979E-12 -3.72588238E-03
  4.52766674E-03 -1.10445871E-15  1.25792610E-12 -7.33699428E-04  9.33340809E-04
  1.06291807E-03 -1.06135593E-02  2.04823717E-02 -1.18296334E-16 -9.38873736E-13
  2.23240152E-02  4.14938762E-03 -8.85505768E-17  4.59529640E-14  2.04325827E-03
 -1.88323295E-03 -1.99409846E-03  1.77303983E-03 -5.53133272E-17 -1.02370878E-16
  2.90384501E-13 -2.58349187E-02  2.07831740E-02 -1.39941464E-15  1.29934305E-12
 -4.02611572E-02  1.84686173E-03 -9.54669130E-16  9.48732027E-13 -2.09831711E-02
  1.52361870E-03  1.55545302E-03  4.50474940E-03  1.78179228E-17 -1.63213298E-17
 -8.40186808E-15  5.46908374E-18 -4.54896882E-17  1.14431808E-17  6.40442216E-15
 -6.86471291E-18  8.71914489E-17  5.19915266E-19  4.61896204E-17 -3.26526573E-17
  1.54787598E-04 -8.67402004E-15  3.37420939E-18  5.62192910E-17 -5.84190229E-17
 -1.33141038E-13 -2.04530402E-18  1.72542856E-16 -1.03084041E-16 -9.41159031E-14
 -1.20944179E-19  1.05552864E-16  4.72664305E-18  7.52544068E-18 -1.27395559E-18
  8.27952764E-06  1.84154517E-17  4.32928861E-17 -8.26352316E-03 -1.77260707E-17
 -4.51073988E-17  1.40742111E-16 -4.02473067E-03 -6.49282424E-17  9.95253225E-17
 -1.65135189E-17  5.57251652E-17  7.87319419E-18  1.67348315E-14 -1.54684312E-03
  1.26310669E-17  3.29960577E-16  2.62239252E-17 -3.33245656E-02  4.33020432E-17
  9.33549930E-17 -4.02890384E-16 -2.25628194E-02  1.75383725E-17  1.20958393E-16
  7.05401280E-17  6.43351821E-17  4.52623280E-17  4.93519344E-15  1.38921449E-03
 -2.97655518E-13 -8.89727995E-15 -1.48805744E-17 -8.42909174E-03 -1.32075066E-13
 -3.27908235E-13 -2.06216144E-17 -3.96842881E-03 -1.10277419E-13  1.96576306E-14
  3.35556442E-14 -2.76103633E-14 -1.52828042E-17  1.23665910E-17 -5.71580856E-04
 -1.67009437E-13  2.57447630E-14  1.95317134E-16 -2.96728298E-02  1.97182712E-13
  5.37340567E-13  1.44461795E-16 -1.96320280E-02 -7.75133177E-15 -5.39370584E-14
 -4.34366638E-14 -2.85179607E-14 -5.38940525E-19 -7.23087034E-18  1.13548064E-03
  1.21160957E-02 -3.93133074E-03 -1.10542834E-16 -2.11958130E-02  1.22984234E-02
 -1.07563571E-03 -7.45564012E-16  1.97059596E-04 -9.12563339E-05  3.43563138E-03
 -5.41173897E-03  4.52267198E-03  7.88798965E-16  4.92564566E-17  9.99756605E-03
 -6.35606387E-04  2.65624928E-03 -1.17863424E-16  1.47416092E-02 -8.18685875E-03
 -3.69845065E-03  1.40302348E-16  1.05430562E-02 -1.63471817E-03  5.63134285E-04
  4.69060011E-04 -8.74342170E-04 -9.31495439E-16 -9.78102312E-17  2.46138122E-04
  2.08294004E+00 -2.78313244E-02  2.08381841E-02 -4.36599343E-16  6.81590697E-02
 -3.95103346E-02 -1.80831884E-04 -2.82089288E-16  3.69175241E-04 -2.84764750E-04
 -9.17808926E-03  1.37123741E-02 -9.70192719E-03  5.68733089E-16  2.71786908E-16
 -2.35786389E-02  2.66503740E-03 -6.76513534E-03  1.94785810E-16 -6.60281603E-03
  1.97775820E-02  8.33874136E-03  2.09672623E-16 -5.86238800E-03  4.34362041E-03
 -6.87022868E-04 -1.05978133E-03  1.60294342E-03 -1.96963238E-17 -3.44880675E-17
 -1.48209863E-03 -2.11282711E-01  5.64583657E-01 -1.24360395E-18 -1.15616527E-15
  1.61216740E-01  2.00546030E-16  2.61018880E-16  8.14412946E-16  7.98775320E-02
  4.27709157E-16  1.91186048E-17  7.36759151E-17  3.50480413E-16  1.64062929E-16
  3.59882771E-02 -2.08162804E-02 -1.69591821E-16 -2.23260142E-16  9.57980798E-17
 -7.74483352E-02  2.32302494E-16 -2.92947226E-16 -2.17314567E-16 -7.15693033E-02
  2.74839370E-16  3.33457434E-17 -1.55631788E-17  5.81743394E-18 -7.79350360E-18
  1.92499877E-03 -2.08873273E-04 -1.80225926E-16 -1.30049780E-16  2.66171903E-16
  8.17946813E-01  9.39087880E-02 -1.73726387E-01 -3.81885927E-16 -2.38227078E-01
  1.83835477E-01 -3.82358561E-02  9.28588508E-17  8.20423355E-02  3.23241265E-02
  1.18624765E-02 -3.23539621E-03  7.03498654E-03 -7.33778202E-17 -1.69451061E-16
  5.44438644E-02  2.29467196E-04  1.40509495E-02 -4.38277047E-17  2.18712276E-02
 -1.76999258E-02 -5.38542406E-02 -6.39312283E-17  8.47920944E-03  1.24477839E-02
  5.11650203E-03  7.96149429E-03  1.00620877E-03  9.56808785E-17 -1.42404373E-17
  4.90364180E-03 -2.64290190E-02  3.60467734E-02  4.50582341E-16  7.64537528E-01
 -5.43674729E-02  1.00557723E-01  1.15643939E-16  1.83867226E-01 -2.79665445E-02
  2.27013893E-02  5.32007359E-16  3.23036745E-02  1.19134490E-01 -6.84422119E-03
  4.00022251E-02 -4.22422415E-02 -1.44642439E-16 -6.99864266E-17 -6.25527154E-03
  1.69156353E-02 -1.54959096E-02 -4.54137867E-16 -7.28192372E-02  7.34409265E-02
 -1.22924518E-01 -5.72592583E-16 -5.70128580E-02  4.64258747E-02  9.52647349E-03
  1.29278807E-02  1.61332118E-02  3.17322817E-16 -3.85258454E-18 -7.32666347E-04
  1.53485084E-02 -2.10393127E-02  5.42894551E-17  6.06664676E-02  8.33765536E-01
 -8.74898118E-03 -3.94135190E-02  1.10349136E-15 -4.52600430E-02  2.63644722E-02
 -1.28062587E-02  2.77217774E-16 -2.01518222E-02  1.16643583E-02 -4.37998546E-03
  1.14912081E-02 -6.31450143E-03  1.19583493E-16  1.24990112E-16 -1.79959547E-02
 -3.65621649E-03  8.34762387E-03  2.55360202E-16 -1.32551170E-01  1.47374405E-02
 -1.98563512E-03  1.62942804E-16 -8.73956200E-02  1.01116693E-02  1.40755325E-03
  2.03056173E-03  2.21505025E-03 -9.99810707E-18 -3.30068090E-17  4.85405276E-03
 -2.03833773E-01  5.16417682E-01 -5.71588769E-16  1.94846716E-01 -1.12971210E-01
  5.70342111E-01  1.69765344E-16 -6.67542990E-16  1.01115973E-01 -1.73203886E-16
  1.53043800E-16  7.74679979E-16  5.01421231E-02  2.38696981E-17 -6.42681097E-17
  8.15234729E-18  3.54899409E-16  1.68850036E-16  2.53312919E-02 -1.46536794E-02
 -5.99137029E-17  4.35153190E-16  1.45900612E-16 -7.13707183E-02 -1.02792270E-16
 -2.42997645E-16 -2.94180749E-16 -6.09214764E-02  3.77095030E-17  7.16738371E-17
  2.76334190E-17  3.16973548E-17  4.03114528E-18  1.35496083E-03  7.11553126E-04
 -1.12529332E-16 -2.12026445E-16 -3.31941372E-17  5.58811727E-01  1.81600653E-16
 -3.72912709E-16 -6.08850244E-16  3.82715615E-01  6.28977443E-02 -1.04512043E-01
 -8.71788141E-16 -1.17833518E-01  9.76743955E-02 -2.31538947E-02 -2.37141066E-16
  5.16125479E-02  2.20477987E-02  6.97763510E-03  4.86259875E-04  1.78753674E-03
  1.10746324E-16 -6.13969205E-17  3.02000127E-02  3.82517311E-03  9.59302978E-04
 -5.83254955E-16  1.84130992E-02  6.82966918E-03 -3.52252715E-02 -3.79132292E-16
  7.96674574E-03  1.63689796E-02  2.82045661E-03  4.56833606E-03 -3.23494209E-04
  7.25472183E-17  2.14717958E-17  2.27778568E-03 -2.26815524E-02  4.37130671E-02
  6.39070211E-16  4.48430496E-01  7.39757166E-02  1.24273983E-01  3.93187050E-16
  2.67147746E-01 -3.64304578E-02  6.05041795E-02  3.84950310E-16  9.78151903E-02
 -5.85183752E-03  1.37746817E-02  5.02080506E-16  2.19796588E-02  7.68350394E-02
 -4.02499493E-03  2.46112357E-02 -2.59541389E-02 -1.16994724E-16 -4.76231359E-19
 -9.99633269E-04  1.00088018E-02 -7.19519681E-03  1.08828222E-15 -6.26598628E-02
  3.69305433E-02 -8.14644936E-02  5.71636335E-16 -4.72896483E-02  2.51693130E-02
  6.43600165E-03  8.70960390E-03  1.09942151E-02  2.04699049E-16 -6.13875965E-17
  4.97875268E-04  1.31465463E-02 -2.54021504E-02  8.26182057E-17  7.39791141E-02
  5.33003159E-01 -7.19955701E-02 -2.28161844E-16  6.65805097E-02  3.43323023E-01
 -1.47944950E-04  2.95936308E-03 -2.52459039E-16  6.28246157E-03 -3.63651744E-03
  5.15269703E-04 -1.01685190E-16  2.38582433E-03 -1.39759754E-03 -4.02816030E-04
  8.66563119E-05 -7.40571355E-05  7.71928332E-17  5.03478294E-18 -1.69020138E-04
  5.60909677E-04 -7.06466050E-04 -2.74345237E-16  1.07357001E-02 -2.91621350E-04
  1.40887882E-03 -1.73041720E-16  6.92257975E-03 -7.51042184E-04 -1.77144189E-04
 -2.54968124E-04 -6.94504807E-05  8.34044084E-18  1.25500770E-17 -4.73436753E-04
 -2.20563039E-02  1.36135063E-02  4.84211457E-16 -4.14537033E-03  2.34560306E-03
  6.98460187E-03  3.51457498E-16 -1.32389343E-03  7.27745857E-04  8.48633150E-04
 -7.90100216E-03  1.57352115E-02 -9.90750328E-17  1.30668114E-02 -1.47291849E-02
  3.21570891E-03 -1.10839824E-17  6.66842921E-04 -3.87700564E-03 -1.46010687E-03
  2.60850724E-04 -4.16251433E-04  2.67999603E-17  4.17899692E-17 -1.56012178E-03
 -3.56990339E-04 -1.59192758E-04  4.76114885E-16  1.58379783E-02 -1.91093675E-03
  5.80333431E-03  3.38406427E-16  1.05148438E-02 -3.16431785E-03 -4.65339592E-04
 -7.48499011E-04  1.40951110E-04 -1.76775465E-18 -2.01499764E-17 -8.03332985E-04
 -2.46543375E-02  1.85335576E-02 -2.05999252E-16 -3.79836751E-02 -3.61867279E-03
  2.61476380E-03 -1.48700471E-16 -2.11963274E-02 -4.69850510E-03  1.36555418E-03
  3.79409400E-03 -2.55626548E-03  6.57920384E-03 -1.59629787E-16  1.32142335E-02
 -4.75318426E-04  1.29392185E-03 -4.57887093E-17  4.52552149E-03  8.43557862E-04
 -6.89639634E-04  4.65588382E-04 -5.06958427E-04  3.68610465E-17  3.35679230E-17
 -1.15105047E-04 -5.10436203E-05  6.98171287E-04  2.97735046E-16  1.35224518E-02
 -4.85236738E-03 -1.59628565E-03  2.12915477E-16  8.43616548E-03 -2.98469347E-03
  1.48239431E-04  1.41808248E-04  7.32744047E-04  1.23520754E-17 -1.30679977E-17
 -6.80678871E-04 -2.24300518E-02  1.43084993E-02 -1.36921734E-16 -9.24664765E-05
  2.56714331E-02  3.84673784E-03 -1.11512392E-16  2.25251217E-03  1.56631509E-02
  1.06907013E-03  1.37248968E-03  2.08350043E-03  7.07404935E-17 -2.16972464E-17
 -7.05065156E-03 -1.10051115E-17  2.40817156E-17 -8.55353255E-18 -3.48854001E-03
  4.10401992E-17  1.00928524E-17 -2.32325521E-18  1.58976094E-17 -8.12838554E-19
 -1.10659461E-03  7.29162021E-04  5.02219119E-17 -2.16575587E-16 -2.48177178E-17
  8.01502763E-04  2.94519720E-16  6.51248578E-17 -5.40405694E-17  1.31139457E-03
  1.89023703E-16  4.87756244E-17  9.09164111E-18  8.20958281E-18 -1.21192138E-18
 -5.91913102E-05  1.04707008E-04 -3.39250927E-18 -4.13590591E-16 -8.69372572E-17
 -2.86586143E-02  2.63148623E-16  1.81739471E-16 -1.09194244E-16 -1.94326775E-02
  1.67214175E-16  1.16858277E-16 -4.65395689E-18  1.88525758E-18  2.16107383E-17
  1.02897405E-03 -3.12312906E-17 -6.29372670E-17  4.09165704E-03  3.27302734E-17
 -1.50939592E-17 -5.27520654E-18  2.02034595E-03 -3.71734247E-18  2.38106138E-17
  3.85593705E-18  1.57136551E-17 -8.71338318E-18  7.33124346E-04 -2.67795621E-04
 -1.74347632E-17 -1.30724146E-16  5.76315667E-17  1.75147613E-03 -7.02945958E-17
  1.05284583E-16  9.06155852E-17  7.98034322E-04 -4.25848402E-17  6.12183510E-17
 -3.84427813E-18 -1.90373730E-18 -4.78570982E-18  3.92145325E-05 -1.42696175E-04
 -1.42294921E-18 -4.03875487E-16  9.78468112E-17  1.66462925E-02  2.07213862E-17
  7.30208259E-17  9.80827510E-17  1.12883372E-02  2.25205993E-17  5.13266536E-17
  1.16479095E-17 -1.02023002E-18  2.20809403E-18 -5.92754955E-04  3.52573572E-04
  5.39381931E-03 -9.26147666E-03 -9.99045830E-17 -8.16829168E-03 -2.63468259E-05
 -1.94604467E-03 -5.74538331E-17 -1.40436163E-04 -2.20974114E-03  7.85303070E-04
 -6.61258501E-04  7.80027769E-04  1.71715447E-17  1.00314024E-17  8.87852807E-04
  7.99136456E-04 -2.08019241E-03 -1.38746103E-18  1.27128945E-03  6.11120738E-03
  2.34908241E-03  1.36143311E-17  1.02605957E-03  3.53918548E-03 -3.30551765E-04
 -3.55003139E-04 -1.12918180E-03 -4.57624108E-18  4.35028829E-18  1.18013865E-04
  2.25026232E-03 -4.26931651E-03  7.45636818E-18  8.47181685E-03 -2.18178034E-02
  1.21185555E-03  2.66692384E-17  3.95015480E-03 -1.34904750E-02 -2.94922047E-04
 -7.50539868E-04 -9.72909556E-04  1.75317455E-18 -1.76832791E-18  8.93571618E-04
  1.21160957E-02 -3.93133074E-03  7.66846139E-16  2.11958130E-02  1.22984234E-02
 -1.07563571E-03 -1.49591013E-15 -1.97059596E-04 -9.12563342E-05  3.43563138E-03
 -5.41173897E-03  4.52267198E-03 -1.36557268E-16  4.75819723E-16 -9.99756605E-03
 -6.35606387E-04  2.65624928E-03 -5.22746133E-16 -1.47416092E-02 -8.18685875E-03
 -3.69845065E-03  2.83955756E-16 -1.05430562E-02 -1.63471817E-03  5.63134285E-04
  4.69060011E-04 -8.74342170E-04  8.14806228E-16  4.74380565E-16 -2.46138122E-04
 -6.46869627E-04  2.67610683E-03  8.29316997E-16 -1.45726288E-02 -8.59560849E-03
 -3.57612806E-03 -3.00397227E-16 -6.80738117E-03 -8.27460394E-03  5.62362768E-04
 -7.15069944E-04  2.89803981E-04  8.38762446E-16  6.07076113E-16  5.63639125E-04
  2.08294004E+00 -2.78313244E-02  2.08381841E-02 -1.99689923E-15 -6.81590697E-02
 -3.95103346E-02 -1.80831884E-04  4.07672850E-16 -3.69175241E-04 -2.84764750E-04
 -9.17808926E-03  1.37123741E-02 -9.70192719E-03 -4.68005252E-16 -4.56664428E-16
  2.35786389E-02  2.66503740E-03 -6.76513534E-03 -1.80984979E-15  6.60281603E-03
  1.97775820E-02  8.33874136E-03 -1.24915386E-15  5.86238800E-03  4.34362041E-03
 -6.87022867E-04 -1.05978133E-03  1.60294342E-03 -1.97229157E-17  9.67570066E-17
  1.48209863E-03  2.67610683E-03 -6.77300262E-03 -2.14929098E-16  2.05540337E-02
 -4.44754807E-03  8.06915208E-03  1.78487355E-16  6.87237799E-03  2.72328704E-03
 -6.91686179E-04  2.03188772E-03 -1.44082780E-03  2.58478937E-17 -3.70933619E-18
 -6.33249859E-04 -2.11282711E-01  5.64583657E-01 -4.28573177E-16 -4.67203366E-15
  1.61216740E-01  5.38582219E-15  3.43507784E-15 -6.11097530E-15  7.98775320E-02
  5.53631455E-15  4.65377897E-15  1.40267962E-15 -4.55720465E-15 -1.45609950E-15
 -3.59882771E-02 -2.08162804E-02 -2.46662415E-15 -1.72347781E-17  4.76096466E-16
 -7.74483352E-02  6.61199126E-18  2.96950073E-17 -1.62674073E-15 -7.15693033E-02
 -8.80925598E-16 -1.07984326E-15  8.32826525E-17  3.51280933E-16  7.91914521E-16
 -1.92499877E-03 -2.08873273E-04 -9.76028676E-17 -8.26180017E-17 -2.05856339E-15
 -7.71816123E-02 -2.79425130E-16 -7.46385270E-16  5.26257713E-15 -7.12478721E-02
 -2.65626467E-15 -5.82863016E-16 -1.23263866E-15 -7.14792156E-16 -8.46641444E-16
 -1.13453220E-03 -1.58854657E-03 -3.36871384E-16 -1.43173233E-15 -4.63116574E-15
  8.17946813E-01 -9.39087880E-02  1.73726387E-01 -1.72884430E-16 -2.38227078E-01
 -1.83835477E-01  3.82358561E-02  9.51653799E-16  8.20423355E-02 -3.23241265E-02
 -1.18624765E-02  3.23539621E-03 -7.03498654E-03 -3.63751152E-16 -4.38182873E-16
  5.44438644E-02 -2.29467196E-04 -1.40509495E-02 -1.95499262E-16  2.18712276E-02
  1.76999258E-02  5.38542405E-02 -2.89177172E-16  8.47920944E-03 -1.24477839E-02
 -5.11650203E-03 -7.96149429E-03 -1.00620877E-03 -8.77866005E-17 -1.14076460E-16
  4.90364180E-03  1.45726288E-02 -2.05540337E-02  1.50246324E-16  1.00224098E-01
  2.70263650E-02 -8.01494491E-02 -1.56992250E-16  5.70754878E-02  2.84901570E-02
  5.65999360E-03  1.41373302E-02  6.51508235E-03  3.73792754E-18 -8.68114177E-17
 -1.60609740E-03  2.64290190E-02 -3.60467734E-02  1.64899764E-17  7.64537528E-01
 -5.43674729E-02  1.00557723E-01  4.35830611E-16 -1.83867226E-01 -2.79665445E-02
  2.27013893E-02 -2.15799533E-18 -3.23036745E-02  1.19134490E-01 -6.84422119E-03
  4.00022251E-02 -4.22422415E-02 -4.99210795E-16  1.06063741E-16  6.25527154E-03
  1.69156353E-02 -1.54959096E-02  1.47418794E-16  7.28192372E-02  7.34409265E-02
 -1.22924518E-01  1.57998848E-16  5.70128580E-02  4.64258747E-02  9.52647349E-03
  1.29278807E-02  1.61332118E-02  2.59257293E-16  1.42933075E-16  7.32666347E-04
 -8.59560849E-03 -4.44754807E-03 -2.71987397E-16 -2.70263650E-02 -4.37430000E-03
  1.07427617E-01  1.05852689E-16 -3.97703744E-02 -9.95496340E-04 -9.17478136E-03
 -7.12648420E-03 -1.50318614E-02 -8.35858124E-17  6.28527157E-17 -3.80885018E-04
  1.53485084E-02 -2.10393127E-02  5.66284285E-16 -6.06664676E-02  8.33765536E-01
 -8.74898118E-03 -3.94135190E-02  6.19570414E-15  4.52600430E-02  2.63644722E-02
 -1.28062587E-02  4.29270364E-15  2.01518222E-02  1.16643583E-02 -4.37998546E-03
  1.14912081E-02 -6.31450143E-03 -1.34469996E-15 -6.74605207E-16  1.79959547E-02
 -3.65621649E-03  8.34762387E-03  4.71518583E-15  1.32551170E-01  1.47374405E-02
 -1.98563512E-03  2.44799238E-15  8.73956200E-02  1.01116693E-02  1.40755325E-03
  2.03056173E-03  2.21505025E-03 -3.57329065E-17 -2.98055799E-16 -4.85405276E-03
 -3.57612806E-03  8.06915208E-03 -2.25984564E-16  8.01494491E-02  1.07427617E-01
 -1.88144838E-03 -8.15648531E-16  5.31924990E-02  7.08375823E-02  1.37406028E-03
 -1.53389540E-03  5.71208758E-03 -1.52053451E-17  4.83580900E-17 -2.50269023E-03
 -2.03833773E-01  5.16417682E-01  2.25074357E-14 -1.94846716E-01 -1.12971210E-01
  5.70342111E-01 -1.79605149E-17 -3.44088131E-15  1.01115973E-01  4.04746431E-15
  2.55871980E-15 -4.16031146E-15  5.01421231E-02  3.67419751E-15  3.18437515E-15
  9.73704126E-16 -3.12740842E-15 -9.40802351E-16 -2.53312919E-02 -1.46536794E-02
 -1.75452531E-15 -3.59386600E-18  4.39293490E-16 -7.13707184E-02 -3.27984538E-16
  6.12298059E-17 -1.25085280E-15 -6.09214764E-02 -8.38125828E-16 -6.42332957E-16
  1.02255225E-16  2.81498288E-16  5.53878999E-16 -1.35496083E-03  7.11553126E-04
 -6.35646887E-17  7.62500465E-16 -1.26390135E-15 -7.12478721E-02 -4.62519956E-17
 -3.70783723E-16  3.73430765E-15 -6.07683449E-02 -1.67529720E-15 -3.52699746E-16
 -8.47876697E-16 -5.24790881E-16 -5.77669766E-16 -5.91309795E-05 -1.54673215E-03
 -2.25088308E-16 -5.83518409E-16 -3.88795616E-15  5.58811727E-01 -5.41722046E-16
 -2.04745564E-16  1.46381714E-14  3.82715615E-01 -6.28977443E-02  1.04512043E-01
  2.24490073E-15 -1.17833518E-01 -9.76743955E-02  2.31538947E-02  1.67178835E-15
  5.16125479E-02 -2.20477987E-02 -6.97763510E-03 -4.86259876E-04 -1.78753674E-03
 -4.51926603E-16 -4.00019561E-16  3.02000127E-02 -3.82517311E-03 -9.59302977E-04
  8.33530074E-16  1.84130992E-02 -6.82966919E-03  3.52252715E-02  2.48694768E-16
  7.96674574E-03 -1.63689796E-02 -2.82045661E-03 -4.56833606E-03  3.23494209E-04
 -7.25013255E-17 -1.56889791E-16  2.27778568E-03  6.80738117E-03 -6.87237799E-03
  8.08796285E-16  5.70754878E-02  3.97703744E-02 -5.31924990E-02  1.32400656E-16
  3.48707271E-02  3.13301216E-02  4.13879312E-03  9.05088317E-03  5.83945926E-03
 -5.58461098E-17 -3.08347228E-17 -1.84802290E-03  2.26815524E-02 -4.37130671E-02
  7.91038671E-15  4.48430496E-01 -7.39757166E-02 -1.24273983E-01  5.06154451E-15
  2.67147746E-01 -3.64304578E-02  6.05041795E-02  1.55338545E-15 -9.78151903E-02
 -5.85183752E-03  1.37746817E-02  5.52543518E-16 -2.19796588E-02  7.68350394E-02
 -4.02499493E-03  2.46112357E-02 -2.59541389E-02 -4.35143192E-16  3.92286660E-17
  9.99633269E-04  1.00088018E-02 -7.19519681E-03  9.67421485E-16  6.26598628E-02
  3.69305433E-02 -8.14644936E-02  5.90089127E-16  4.72896483E-02  2.51693130E-02
  6.43600165E-03  8.70960390E-03  1.09942151E-02  1.59804640E-16  3.83490437E-17
 -4.97875268E-04 -8.27460394E-03  2.72328704E-03  1.92702194E-17 -2.84901570E-02
 -9.95496340E-04  7.08375823E-02  6.92858429E-17 -3.13301216E-02 -8.08911173E-04
 -5.64483400E-03 -4.32340862E-03 -9.11438130E-03 -7.98439904E-17  5.19214337E-17
 -5.07602241E-04  1.31465463E-02 -2.54021505E-02  4.45036376E-15 -7.39791141E-02
  5.33003159E-01 -7.19955701E-02  2.65539137E-15 -6.65805097E-02  3.43323023E-01
 -1.47944950E-04  2.95936308E-03 -1.33875394E-15 -6.28246157E-03 -3.63651744E-03
  5.15269703E-04 -6.23478449E-16 -2.38582433E-03 -1.39759754E-03 -4.02816030E-04
  8.66563117E-05 -7.40571353E-05  1.31149280E-16  4.35489728E-17  1.69020138E-04
  5.60909677E-04 -7.06466050E-04 -9.67662527E-16 -1.07357001E-02 -2.91621353E-04
  1.40887882E-03 -5.44373591E-16 -6.92257975E-03 -7.51042185E-04 -1.77144189E-04
 -2.54968124E-04 -6.94504806E-05 -3.98354032E-18  5.70847812E-17  4.73436752E-04
  5.62362768E-04 -6.91686179E-04 -4.01463589E-16 -5.65999360E-03 -9.17478136E-03
  1.37406028E-03 -1.22543834E-16 -4.13879312E-03 -5.64483400E-03 -1.73944749E-04
  2.43019697E-04 -5.56756591E-04  2.09223704E-17 -1.97224292E-17  1.39620545E-04
 -2.20563039E-02  1.36135063E-02 -4.07202613E-15  4.14537033E-03  2.34560306E-03
  6.98460187E-03 -2.75417488E-15  1.32389343E-03  7.27745856E-04  8.48633150E-04
 -7.90100216E-03  1.57352115E-02 -3.40243850E-16 -1.30668114E-02 -1.47291849E-02
  3.21570891E-03 -7.29578712E-17 -6.66842921E-04 -3.87700564E-03 -1.46010687E-03
  2.60850724E-04 -4.16251432E-04  2.07438048E-17 -6.71696336E-17  1.56012178E-03
 -3.56990338E-04 -1.59192759E-04 -8.57520110E-16 -1.58379783E-02 -1.91093675E-03
  5.80333431E-03 -5.80758222E-16 -1.05148438E-02 -3.16431785E-03 -4.65339592E-04
 -7.48499011E-04  1.40951111E-04 -1.64879533E-17  2.65854803E-17  8.03332985E-04
 -7.15069944E-04  2.03188772E-03  4.77869493E-16 -1.41373302E-02 -7.12648420E-03
 -1.53389540E-03  3.81895423E-16 -9.05088317E-03 -4.32340862E-03  2.43019697E-04
  1.71512354E-03 -9.55779086E-05 -3.40616528E-17 -3.42444305E-18 -2.28701863E-04
 -2.46543375E-02  1.85335576E-02 -9.44147281E-16  3.79836751E-02 -3.61867279E-03
  2.61476380E-03 -6.91866171E-16  2.11963274E-02 -4.69850510E-03  1.36555418E-03
  3.79409400E-03 -2.55626548E-03  6.57920384E-03 -9.41967649E-16 -1.32142335E-02
 -4.75318424E-04  1.29392185E-03 -4.45929053E-16 -4.52552149E-03  8.43557862E-04
 -6.89639634E-04  4.65588381E-04 -5.06958427E-04  1.00911291E-16  3.36149975E-18
  1.15105047E-04 -5.10436199E-05  6.98171287E-04 -1.03996442E-15 -1.35224518E-02
 -4.85236738E-03 -1.59628565E-03 -6.29873977E-16 -8.43616548E-03 -2.98469347E-03
  1.48239431E-04  1.41808248E-04  7.32744048E-04 -8.85855386E-19  5.59772305E-17
  6.80678871E-04  2.89803981E-04 -1.44082780E-03  2.33184757E-16 -6.51508235E-03
 -1.50318614E-02  5.71208758E-03  2.99085951E-16 -5.83945926E-03 -9.11438130E-03
 -5.56756591E-04 -9.55779086E-05 -1.23814813E-03 -1.28644538E-17 -5.15158728E-18
  2.15205828E-04 -2.24300518E-02  1.43084993E-02 -3.04701197E-15  9.24664747E-05
  2.56714331E-02  3.84673785E-03 -2.09012874E-15 -2.25251217E-03  1.56631509E-02
  1.06907013E-03  1.37248968E-03  2.08350043E-03  3.38760274E-17 -3.05450921E-16
  7.05065156E-03  2.35349176E-16  6.71758048E-17 -2.50974516E-16  3.48854001E-03
  1.83496291E-16  1.87385083E-16  6.06873346E-17 -1.49114880E-16 -6.28623697E-17
 -1.10659461E-03 -7.29162021E-04 -1.04043527E-16  2.40801693E-16  6.82326584E-17
 -8.01502763E-04 -9.52913766E-17  2.48001934E-16  6.61791960E-17 -1.31139457E-03
 -9.34691021E-17  1.03396891E-16 -4.03950010E-18  7.06762253E-18  8.52061036E-18
 -5.91913102E-05 -1.04707008E-04 -1.86171901E-18 -6.84948726E-16 -3.88087970E-17
  1.13453220E-03  4.05016894E-17  1.95648576E-17  2.46705894E-16  5.91309796E-05
 -5.63222262E-17  1.10643547E-17 -3.81321041E-17 -2.71535820E-17 -2.64581014E-17
 -1.82642867E-04  3.20564077E-05 -9.67276869E-18  7.88078664E-16 -2.14215488E-16
  2.86586143E-02 -1.33114934E-16  1.69207379E-18  8.12662962E-16  1.94326775E-02
  2.09840702E-16  1.53601408E-16 -1.60018179E-16 -5.14540369E-17 -1.22551889E-16
  1.02897405E-03 -2.81028785E-17 -1.24358830E-16  4.09165704E-03  1.27471977E-16
  5.74413545E-17 -1.42415904E-16  2.02034595E-03  1.50817166E-16  5.67434519E-17
  3.43979734E-17 -1.07505453E-16 -2.10859050E-17 -7.33124346E-04 -2.67795621E-04
 -4.11926533E-17 -1.22749370E-16 -9.57147786E-18  1.75147613E-03  1.29775038E-16
 -3.20544383E-19  2.75781637E-17  7.98034322E-04  6.75909058E-17 -3.20369362E-17
 -7.70418084E-18 -2.55680970E-18  5.53806891E-18 -3.92145325E-05 -1.42696175E-04
 -5.70093542E-18  8.73639162E-16 -8.79458825E-17 -1.58854657E-03 -4.04364226E-19
 -6.79392742E-17  2.16270485E-17 -1.54673215E-03 -5.15252892E-17 -4.19963269E-17
 -3.11533673E-17 -1.71895485E-17 -2.09373610E-17 -3.20564077E-05 -1.88919588E-05
 -4.60059867E-18 -2.19464375E-16 -1.86012961E-16  1.66462925E-02  9.89921658E-17
 -1.35459567E-16  4.25412135E-16  1.12883372E-02  2.35615423E-16  1.75318113E-18
 -8.99959880E-17 -2.16453272E-17 -7.39087454E-17  5.92754955E-04  3.52573572E-04
 -5.39381931E-03  9.26147666E-03  6.72651232E-16 -8.16829168E-03  2.63468257E-05
  1.94604467E-03  3.44724352E-16 -1.40436163E-04  2.20974114E-03 -7.85303070E-04
  6.61258501E-04 -7.80027769E-04 -9.99966787E-17 -2.55985931E-17  8.87852807E-04
 -7.99136456E-04  2.08019241E-03  6.72685069E-16  1.27128945E-03 -6.11120738E-03
 -2.34908241E-03  4.03019873E-16  1.02605957E-03 -3.53918548E-03  3.30551766E-04
  3.55003139E-04  1.12918180E-03 -9.54661669E-19 -3.70056854E-17  1.18013865E-04
 -5.63639125E-04  6.33249858E-04  8.31174463E-17 -1.60609740E-03  3.80885018E-04
  2.50269023E-03 -3.84779683E-18 -1.84802290E-03  5.07602241E-04 -1.39620545E-04
  2.28701863E-04 -2.15205828E-04 -2.00006610E-17  5.20835036E-18 -2.14150702E-04
 -2.25026232E-03  4.26931651E-03  1.96732219E-15  8.47181685E-03  2.18178034E-02
 -1.21185555E-03  1.28207516E-15  3.95015480E-03  1.34904750E-02  2.94922047E-04
  7.50539868E-04  9.72909556E-04  6.67104496E-17  3.97283771E-17  8.93571618E-04
Grdnt Energy                               R     -3.245532399052893E+02
Grdnt NVar                                 I                0
Grdnt IGetFC                               I                4
Quartic Cent Dist                          R   N=          10
  2.18996163E-07  3.38111038E-07 -1.44121506E-07 -9.70036466E-08 -1.68967411E-07
  1.34507424E-07 -8.43326593E-08  3.62810931E-07  9.70036466E-08 -4.22443697E-08
Sextic Cent Dist                           R   N=          14
  7.02921986E-13  2.03058312E-12 -1.28663513E-12 -2.47103446E-13 -3.50837009E-13
 -2.65745167E-12 -7.00203777E-14 -7.79092121E-15 -3.01284473E-12  8.16173228E-13
  3.40422896E-12 -2.15737090E-13  3.55356454E-13 -1.35099919E-13
Mulliken Charges                           R   N=           4
  6.46070437E-01 -2.11786442E-01 -2.17141997E-01 -2.17141997E-01
APT Charges                                R   N=           4
  1.57103835E+00 -5.23118571E-01 -5.23959890E-01 -5.23959890E-01
Optimization MaxStp                        I                2
Optimization MaxJob                        I                1
Optimization Job offset                    I                0
Optimization Num results per geometry      I                8
Optimization Num geometry variables        I               12
Optimization Reference Energy              R     -3.240000000000000E+02
Optimization Number of geometries          I   N=           1
           1
Opt point       1 Results for each geome   R   N=           8
 -5.53239905E-01  0.00000000E+00  5.22936034E-06  1.82992134E-06  6.08825190E-06
  2.08361064E-06  0.00000000E+00  0.00000000E+00
Opt point       1 Geometries               R   N=          12
  1.30145356E-38 -1.01968835E-23 -5.27932284E-07 -6.13868479E-32  4.80965713E-17
  2.49014639E+00  1.53467101E-32  2.15654600E+00 -1.24507304E+00 -2.64100716E-16
 -2.15654600E+00 -1.24507304E+00
Opt point       1 Gradient at each geome   R   N=          12
  1.60025441E-15  9.60909655E-15  5.22936034E-06  3.21276405E-16 -1.91895185E-15
 -2.86515127E-06  3.21275696E-16  9.57418743E-07 -1.18210460E-06 -2.24280651E-15
 -9.57418722E-07 -1.18210458E-06
ONIOM Charges                              I   N=          16
           0           0           0           0           0           0
           0           0           0           0           0           0
           0           0           0           0
ONIOM Multiplicities                       I   N=          16
           1           0           0           0           0           0
           0           0           0           0           0           0
           0           0           0           0
Atom Layers                                I   N=           4
           1           1           1           1
Atom Modifiers                             I   N=           4
           0           0           0           0
Int Atom Modified Types                    I   N=           4
           0           0           0           0
Atom Modified Types                        C   N=           4
                                                
Link Atoms                                 I   N=           4
           0           0           0           0
Atom Modified MM Charges                   R   N=           4
  0.00000000E+00  0.00000000E+00  0.00000000E+00  0.00000000E+00
Link Distances                             R   N=          16
  0.00000000E+00  0.00000000E+00  0.00000000E+00  0.00000000E+00  0.00000000E+00
  0.00000000E+00  0.00000000E+00  0.00000000E+00  0.00000000E+00  0.00000000E+00
  0.00000000E+00  0.00000000E+00  0.00000000E+00  0.00000000E+00  0.00000000E+00
  0.00000000E+00
Cartesian Gradient                         R   N=          12
  1.60025441E-15  9.60909655E-15  5.22936034E-06  3.21276405E-16 -1.91895185E-15
 -2.86515127E-06  3.21275696E-16  9.57418743E-07 -1.18210460E-06 -2.24280651E-15
 -9.57418722E-07 -1.18210458E-06
Cartesian Force Constants                  R   N=          78
  1.63724320E-01 -1.23545237E-15  7.04601643E-01 -7.13278683E-16 -5.25490030E-16
  7.04619628E-01 -5.45866276E-02 -2.52917915E-16  5.64458541E-17  1.82009303E-02
 -6.63126993E-17 -6.17039415E-02 -3.01510643E-16 -9.21811741E-18  6.59487519E-02
  6.01256973E-17  2.12188394E-15 -4.08064156E-01 -2.14444920E-16  8.49752217E-16
  4.86445006E-01 -5.45688464E-02 -8.07817204E-17 -2.44274859E-16  1.81928486E-02
 -1.07566927E-17 -1.50058841E-17  1.81825018E-02  1.89121035E-17 -3.21448851E-01
  1.49964971E-01 -1.91490802E-17 -2.12240520E-03  2.49125791E-02 -1.87165806E-16
  3.81295608E-01 -8.74987221E-17  1.49961096E-01 -1.48277736E-01 -2.06341429E-18
  3.93000140E-02 -3.91904249E-02  9.73018836E-17 -1.82069330E-01  1.71059451E-01
 -5.45688464E-02  1.14993892E-15  6.97364872E-16  1.81928486E-02  9.69304977E-17
  2.11565609E-16  1.81934960E-02  2.15000799E-16 -2.87520649E-17  1.81825018E-02
  9.22102501E-16 -3.21448851E-01 -1.49964971E-01  2.63804923E-16 -2.12240520E-03
 -2.49125791E-02  3.03294883E-16 -5.77243516E-02 -7.19177967E-03 -1.10823023E-15
  3.81295608E-01  5.59667020E-16 -1.49961096E-01 -1.48277736E-01  1.87995843E-16
 -3.93000140E-02 -3.91904249E-02  1.37946966E-16  7.19177967E-03  1.64087100E-02
 -7.03095197E-16  1.82069330E-01  1.71059451E-01
Cartesian 3rd/4th derivatives              R   N=         936
 -3.22157332E-06  1.53704080E-14 -1.54805482E-02 -4.81101375E-14  7.03716170E-10
  1.54506006E-02 -2.33615854E-03 -8.81034494E-15  4.52736881E-14  7.09755799E-03
 -3.89298873E-15 -5.94282360E-03 -1.35306768E-09  7.67996226E-15 -4.36549344E-03
  4.34393724E-14 -1.20205273E-09  2.90167712E-02 -4.05518841E-14  5.94370476E-10
 -3.85592942E-02  1.16969014E-03 -5.43460673E-15 -1.70725478E-15 -2.38069958E-03
 -9.65754700E-17  4.76606222E-15 -3.56520267E-03 -4.22157765E-15  1.07116845E-02
  1.85522096E-02 -1.30209968E-15  5.15415833E-03 -6.46888394E-03  9.17825197E-15
  5.66655268E-03  2.44227299E-15  2.06485620E-02 -2.22336855E-02 -2.79585950E-16
 -7.16475707E-03  4.77126077E-03 -2.26860855E-15 -1.27835651E-02  1.57525641E-02
  1.16968996E-03 -1.12545632E-15  4.54370421E-15 -2.38069997E-03 -3.69039806E-15
 -7.65355056E-15  4.77621183E-03 -3.65457464E-15  1.05921507E-16 -3.56520181E-03
 -7.25584161E-15  1.07116873E-02 -1.85522089E-02  2.43248236E-15  5.15415847E-03
  6.46888456E-03 -3.64706977E-15 -2.15323957E-02 -7.00239813E-04  8.47042902E-15
  5.66655019E-03  2.22849209E-15 -2.06485614E-02 -2.22336863E-02 -4.44221805E-15
  7.16475782E-03  4.77126216E-03 -7.90198880E-16  7.00239441E-04  1.70986047E-03
  3.00392484E-15  1.27835642E-02  1.57525639E-02  1.43821156E-11 -2.75309147E-15
 -6.24729024E-10  2.40133039E-14 -1.54535652E-02  7.11303718E-10 -1.08664874E-10
 -5.30523584E-16 -3.85691136E-14  3.47614795E-10 -1.02192654E-15 -2.72461190E-10
  2.89928557E-02 -1.89128689E-16 -2.93564361E-10 -5.40739992E-14  2.65619641E-02
  1.35342876E-09  4.99627239E-14 -1.24062753E-02 -1.93809583E-09 -2.02268543E-03
 -8.06609639E-15  6.48721219E-15 -4.14152483E-03  9.74863389E-16 -1.95259955E-15
  6.16421001E-03 -1.97144707E-14  2.95891976E-02 -6.76964437E-03  8.54122116E-15
  1.74700919E-03 -7.07784467E-03  4.19053200E-15 -3.13362058E-02  1.27914693E-14
 -5.55419847E-03 -9.61359727E-03 -6.42256046E-15 -8.29329051E-03  1.54017563E-02
 -3.34094318E-15  9.72656998E-03 -5.78815907E-03  2.02268554E-03  1.13497114E-14
  8.06859744E-15  4.14152461E-03  2.36191845E-16  6.06387486E-15  2.18939510E-10
  6.98271749E-15 -3.02796562E-15 -6.16421032E-03  2.34894887E-14 -2.95891967E-02
 -6.76964611E-03 -7.82156888E-15 -1.74700872E-03 -7.07784407E-03  2.90070100E-15
 -9.86285305E-10  4.12091900E-03 -1.85686208E-14  3.13362064E-02  1.72692260E-14
 -5.55420040E-03  9.61359522E-03 -4.97104986E-15 -8.29328985E-03 -1.54017559E-02
 -1.19366946E-15  4.12091906E-03  7.98536422E-11 -1.11045067E-14  9.72657119E-03
  5.78816055E-03  2.29361844E-11  1.53803561E-13 -5.59304497E-12 -2.36511651E-05
 -3.24367824E-13 -3.90103137E-12  4.70003779E-13 -5.14679448E-15  4.76501727E-02
  7.58116095E-11 -1.53230077E-14  4.70003779E-14  9.43687628E-14  2.00526102E-15
  8.24386628E-11  3.98868965E-02  1.07236748E-13 -1.16032183E-12 -4.44318106E-02
 -8.92430668E-14  9.71732813E-11  1.03400831E-12  4.12568912E-02 -2.38132608E-02
  1.01344565E-12 -5.39867332E-04  2.27245708E-03  6.11004913E-12  3.45301021E-02
  2.23251795E-13 -3.76003023E-13  1.70222192E-03 -2.54830174E-13  2.93752362E-14
 -3.84746739E-02  1.92453329E-10 -1.99316227E-02 -3.29002645E-13 -2.58502078E-13
 -1.60918102E-03 -5.87504724E-15  7.63756141E-13  2.22074660E-02  7.28505857E-13
  5.31104270E-12 -1.50871213E-11 -4.12568912E-02 -2.38132608E-02 -1.03400831E-12
  5.39867332E-04  2.27245708E-03 -5.64004535E-13  2.24234992E-03 -6.66662293E-04
 -9.32487497E-11 -3.45301021E-02 -7.75506235E-13 -2.35001889E-13 -1.70222192E-03
 -5.87504724E-13 -8.81257086E-14 -2.24234992E-03 -1.35126086E-13 -3.15783789E-14
  3.84746739E-02 -3.16811922E-12 -1.99316227E-02 -3.52502834E-13 -1.80951455E-12
 -1.60918102E-03  1.17500945E-14 -2.35001889E-14 -6.66662293E-04 -4.77347588E-14
 -1.53186945E-30  2.22074660E-02  3.05502456E-13  8.73032019E-11 -4.81355903E-02
 -1.07241561E-14  2.70092415E-01  6.22561729E-15  5.55214971E-11  2.70105095E-01
  1.60428807E-02 -4.34608296E-15  4.77466448E-14 -2.55133919E-02 -5.26082337E-15
  1.41750444E-02 -3.36694917E-11  2.91975859E-15 -1.12705087E-02  7.76379518E-14
 -3.25444002E-11 -1.94268486E-01 -5.88775393E-14  2.98472686E-11  2.18278638E-01
  1.60463548E-02  5.95377237E-14 -2.95844808E-14  4.73525549E-03 -3.89641060E-16
 -1.27162202E-14 -2.55139532E-02  8.34725915E-14 -1.42133730E-01  9.02581034E-02
 -7.09646378E-15 -1.45226790E-03  6.42744138E-03 -6.84313896E-14  1.60856485E-01
 -4.60371707E-14  9.02577138E-02 -3.79183043E-02  5.68120763E-15  1.18160585E-02
 -1.20050760E-02  3.49472953E-14 -9.93796585E-02  4.61247649E-02  1.60463548E-02
 -4.44674846E-14 -2.43877813E-14  4.73525549E-03  2.73070583E-15 -6.04419230E-15
  4.73234279E-03 -7.94473805E-15  5.40866770E-15 -2.55139530E-02 -6.74876120E-14
 -1.42133730E-01 -9.02581034E-02  8.52278815E-15 -1.45226790E-03 -6.42744138E-03
  9.28330699E-15 -1.72704875E-02 -2.69411375E-03  4.96815168E-14  1.60856485E-01
 -3.78263985E-14 -9.02577138E-02 -3.79183043E-02  5.44968692E-15 -1.18160585E-02
 -1.20050760E-02  7.35340566E-15  2.69411375E-03  3.79861540E-03  2.50233059E-14
  9.93796585E-02  4.61247649E-02 -5.35804308E-12  3.68705998E-14  1.22746189E-09
 -2.29459532E-15  4.83203464E-01 -1.20856770E-09 -1.27089022E-10  4.14566370E-17
  3.42451829E-14  4.60603703E-11 -1.69060922E-15 -1.08382873E-10 -3.18730487E-02
 -3.46190774E-15  3.17722570E-11  4.33524736E-14 -3.91258733E-02  1.33119170E-09
 -2.46567966E-14  3.90972925E-02 -1.19990790E-09 -4.41903927E-02  7.72438352E-15
 -4.59085517E-15 -8.15507709E-04  5.10652347E-15 -1.07360717E-14  4.50059005E-02
  1.98996444E-14  3.19201006E-01 -2.25665208E-01  1.85870336E-15 -3.41949998E-03
  1.42904174E-05 -1.56778260E-14 -3.15781505E-01 -1.12653854E-14 -2.22038795E-01
  1.01752958E-01 -7.67482485E-15 -3.61212187E-03  8.79894981E-04  1.51370184E-14
  2.23742799E-01 -1.02632853E-01  4.41903928E-02 -4.46364400E-14 -2.73597324E-14
  8.15507707E-04  4.59934904E-17 -7.95960529E-15  2.52039526E-12 -6.08052180E-15
  3.80319179E-15 -4.50059005E-02 -5.50796351E-14 -3.19201007E-01 -2.25665208E-01
  1.56174774E-15  3.41949998E-03  1.42904209E-05  2.84691903E-15 -4.89978932E-12
  1.90811796E-03  5.06709683E-14  3.15781507E-01 -2.97924929E-14 -2.22038796E-01
 -1.01752959E-01 -1.91356148E-15 -3.61212186E-03 -8.79894993E-04  1.89908478E-16
  1.90811797E-03  1.07572116E-11  3.15161460E-14  2.23742800E-01  1.02632854E-01
  3.10948524E-05  4.92689820E-15  4.83164286E-01 -2.51160278E-15 -1.06608016E-09
 -4.83337911E-01 -5.10413587E-02 -4.62044327E-15  2.46022741E-14  5.19776700E-02
 -7.12030865E-15 -4.35767874E-02 -4.26423067E-11  4.98564129E-15  4.36855981E-02
  2.82604532E-14 -5.62848803E-11  5.29804411E-01 -2.26782582E-14  4.44325725E-11
 -5.27006232E-01  2.55051320E-02  1.27592707E-14 -9.08033527E-15 -4.68155616E-04
  1.26782819E-15 -3.19054751E-15 -2.59740839E-02  2.67797503E-14 -2.19793750E-01
  1.05578211E-01 -2.58479631E-15 -5.44053670E-05 -1.09439827E-03 -1.56503809E-14
  2.21431605E-01 -1.13995739E-14  1.11871610E-01 -2.32332502E-02 -2.44488792E-15
 -3.19640969E-03 -1.39908935E-03  1.10355640E-14 -1.06579506E-01  2.01361354E-02
  2.55051318E-02 -1.30657256E-14 -1.30103360E-14 -4.68155619E-04  8.66839179E-16
 -2.39164752E-15  9.37107455E-04 -8.54457308E-15  2.80889780E-15 -2.59740838E-02
 -2.45863398E-14 -2.19793748E-01 -1.05578209E-01  2.21959829E-15 -5.44053839E-05
  1.09439829E-03  1.62328200E-15 -1.58344926E-03 -2.09569387E-03  2.07434595E-14
  2.21431603E-01 -1.43492765E-14 -1.11871609E-01 -2.32332497E-02  5.20872010E-16
  3.19640970E-03 -1.39908935E-03  1.23531874E-15  2.09569386E-03  4.49620397E-03
  1.25930857E-14  1.06579505E-01  2.01361350E-02  9.54152302E-04  6.19232041E-11
 -4.63693292E-02  3.63762084E-11 -2.31465090E-10 -1.81669310E-03  1.01732444E-03
 -1.34722665E-12 -1.15085790E-12 -1.16333189E-03 -1.37847162E-12  1.12306144E-03
  2.87173782E-10  1.04271239E-12  1.98438880E-03  9.14952411E-12  8.36881138E-11
 -1.50277647E-03 -2.70832295E-13  2.69278812E-10  1.18450452E-03 -9.85739139E-04
  3.48019616E-13 -4.90430199E-13  7.30161805E-05  8.63028534E-14  8.43551447E-14
 -2.37608112E-04  7.94834310E-12  2.26231324E-02 -1.19159018E-02 -3.50339654E-13
 -1.55372615E-03  1.41270419E-03 -3.95320424E-13 -1.24221659E-02 -5.64559374E-12
 -1.28985444E-02  1.65973350E-03  8.92360797E-13  7.50325965E-04  1.59150597E-04
  3.61270573E-13  1.13257079E-02 -2.58080255E-03 -9.85739542E-04 -5.85761647E-11
 -3.35938443E-11  7.30162266E-05  1.89849564E-13 -9.19961787E-12  1.15030638E-03
 -7.35724766E-12  4.50964333E-12 -2.37562174E-04 -6.64726672E-11  2.26231312E-02
  1.19159017E-02  7.52752944E-13 -1.55372597E-03 -1.41270455E-03 -1.76723791E-13
 -8.64724022E-03  8.22510540E-04  6.37629771E-11 -1.24221402E-02 -3.88665213E-11
  1.28985444E-02  1.65973300E-03  3.72886639E-13 -7.50326445E-04  1.59149946E-04
  1.79396794E-13 -8.22510359E-04  7.61879782E-04  3.72920518E-11 -1.13257076E-02
 -2.58072524E-03  9.14696288E-04  6.01566425E-11 -2.06089807E-03  3.53650324E-11
  1.20893716E-09 -4.60268005E-02 -1.61850312E-03  1.74736540E-13  2.77611336E-12
  2.48421208E-05 -5.59644047E-14 -5.51666960E-03 -5.36430434E-11  2.43229434E-13
  5.66332752E-03  1.35354884E-11 -1.66215779E-10  3.77992079E-02 -3.08833117E-12
 -3.98291288E-10 -2.65119554E-02  3.51903825E-04  3.63073109E-12 -1.42881491E-12
  7.96848049E-04 -1.71546371E-13 -6.63128365E-13 -8.71748321E-04  1.23854855E-11
  3.78878297E-03 -5.76115093E-03 -7.01882431E-13 -7.33252998E-05  2.89246299E-03
 -3.52156977E-12 -4.97018001E-03 -6.93652685E-12 -4.76728762E-03  4.11379556E-03
  4.09686884E-13  1.55246782E-03 -5.64361064E-03  1.85480670E-12  3.04175402E-03
  2.00044379E-03  3.51903780E-04 -6.16142778E-11 -3.55712549E-11  7.96847878E-04
 -7.53254634E-14 -1.00205998E-11 -2.77056289E-04 -8.31659791E-12  4.78971423E-12
 -8.71669105E-04 -7.04657553E-11  3.78878161E-03  5.76114977E-03  3.81815490E-13
 -7.33245007E-05 -2.89246242E-03 -7.53366969E-14  1.25471660E-03  1.73065675E-04
  6.80256155E-11 -4.97017009E-03 -4.09503765E-11  4.76728657E-03  4.11379489E-03
 -2.53911837E-13 -1.55246737E-03 -5.64361002E-03  3.71728893E-13 -1.73066197E-04
 -4.70676850E-04  3.98103734E-11 -3.04175300E-03  2.00051624E-03  3.75953139E-02
  1.09281768E-11 -1.13019022E-01 -2.78202248E-10  3.14324572E-09 -1.13462558E-01
 -1.23492662E-02 -1.71424101E-12  8.84553186E-12  1.60143580E-02 -1.06409215E-12
 -2.06779965E-03 -1.70489418E-11  9.55299123E-13  3.14739154E-03 -2.00202216E-11
  2.41107546E-12  7.80049946E-02 -5.18619178E-13  1.74077852E-12 -7.54618633E-02
 -1.26230229E-02  9.27404412E-12  4.37500753E-12 -1.83253122E-03  2.24447209E-12
  7.62868864E-12  1.62862477E-02 -2.42390739E-11  5.75434126E-02 -3.44551420E-02
  8.68415850E-12 -5.39791992E-04  2.16053543E-03  3.04961612E-12 -5.53667919E-02
  1.43151153E-11 -3.44608923E-02  1.77287825E-02 -2.37540611E-12 -8.93062089E-04
 -1.27154993E-03 -4.09108200E-12  3.38242804E-02 -1.62872039E-02 -1.26230246E-02
  3.49620882E-10  2.66392500E-10 -1.83253122E-03 -3.27062793E-12  1.28709261E-11
 -1.83070648E-03  1.19032172E-11 -7.53724458E-12  1.62862782E-02  3.82326348E-10
  5.75434067E-02  3.44551389E-02 -1.03306536E-11 -5.39791975E-04 -2.16053540E-03
 -1.45187559E-11 -1.63681395E-03  1.52967392E-03 -3.59977964E-10 -5.53667879E-02
  2.85355850E-10  3.44608892E-02  1.77287812E-02 -6.06089017E-12  8.93062095E-04
 -1.27154997E-03 -8.92778357E-12 -1.52967393E-03 -1.70045505E-04 -2.71737903E-10
 -3.38242774E-02 -1.62871693E-02 -3.41116664E-02  6.01413028E-11  1.01755289E-01
  3.77762061E-11  1.90739152E-09  1.01546252E-01  1.14399071E-02 -7.31806360E-13
 -9.66852998E-15 -1.45485924E-02 -1.04220819E-12  1.01146128E-02 -5.19994125E-11
  6.73736014E-13 -9.10678343E-03  1.14058729E-11 -8.23942722E-12 -7.76233356E-02
 -6.25317374E-13  3.11678301E-10  8.49421604E-02  1.13358793E-02  3.87998617E-12
 -2.27191890E-12  1.55435981E-03  2.12878814E-13 -1.29342899E-12 -1.44456268E-02
  1.30643841E-11 -5.59349496E-02  3.82035164E-02 -5.69042197E-13 -5.03918201E-04
  1.10367714E-03 -4.34958087E-12  6.16650117E-02 -7.94355538E-12  3.81962547E-02
 -1.19614595E-02  1.81991064E-13  4.34256754E-03 -3.65939744E-03  3.17510390E-12
 -4.09230081E-02  1.45467340E-02  1.13358793E-02 -6.09416502E-11 -3.43535426E-11
  1.55435955E-03  9.59865529E-14 -9.72369745E-12  1.55536437E-03 -8.30032569E-12
  4.70414138E-12 -1.44455876E-02 -7.01430703E-11 -5.59349533E-02 -3.82035182E-02
  7.25011576E-13 -5.03918714E-04 -1.10367737E-03  1.18994144E-13 -5.22614869E-03
 -1.61581420E-03  6.71654037E-11  6.16650478E-02 -4.02249061E-11 -3.81962565E-02
 -1.19614598E-02  2.96552077E-13 -4.34256778E-03 -3.65939713E-03  5.24836302E-13
  1.61581445E-03  1.07409146E-03  3.83813317E-11  4.09230098E-02  1.45467888E-02
 -1.32181469E-01  6.27702262E-11  4.97885954E-01  3.44049459E-11 -1.24524151E-09
  1.61587952E-01 -1.79780737E-03  1.84100532E-13  2.43232312E-12  3.38123997E-03
 -7.37309987E-14 -1.00106208E-02  3.43106420E-10 -4.77149293E-13  8.85663181E-03
  1.27746186E-11  3.41134264E-10  5.35755712E-02 -3.27312413E-12 -1.35080561E-10
 -5.63703512E-02  6.69896380E-02  6.24762710E-13 -2.62900711E-13 -7.91694902E-04
  1.78057996E-13 -4.48393314E-13 -6.61359165E-02  9.07837723E-12 -2.43937669E-01
  2.38868004E-01 -4.79971248E-13  5.77011465E-04  3.80957985E-05 -8.22717749E-13
  2.45225480E-01 -5.61294686E-12  2.36668941E-01 -1.07581763E-01  2.18045552E-13
 -1.34348870E-03  1.39741581E-03  6.02234039E-13 -2.37115776E-01  1.05790348E-01
  6.69896384E-02 -6.12312571E-11 -3.54332923E-11 -7.91694904E-04  3.13215491E-13
 -9.28967211E-12 -6.20485122E-05 -7.93025286E-12  4.91034823E-12 -6.61358761E-02
 -6.97544641E-11 -2.43937667E-01 -2.38868003E-01  8.70919042E-13  5.77011511E-04
 -3.80960105E-05 -1.17824703E-13 -1.86481444E-03  1.79032344E-03  6.68677088E-11
  2.45225488E-01 -4.05530001E-11 -2.36668941E-01 -1.07581762E-01  4.66312699E-13
  1.34348849E-03  1.39741586E-03  2.43652298E-13 -1.79032353E-03  3.93974467E-04
  3.88208491E-11  2.37115776E-01  1.05790385E-01 -1.32925556E-01  5.79804333E-11
  1.61160075E-01  2.91302894E-11 -1.66658271E-09  4.96286289E-01  9.06638997E-02
 -1.68608413E-14  8.78051729E-12 -9.00471586E-02 -2.52033231E-13  8.86670959E-02
  1.34174472E-10  4.66168046E-13 -8.88997237E-02  1.95883818E-11 -1.27934156E-10
 -5.69676651E-01 -8.91938197E-12 -2.73196903E-10  5.70398226E-01  2.11308291E-02
  3.09659921E-12 -2.37876533E-12 -3.08352017E-04  2.50874125E-13 -1.23230357E-12
 -1.97946749E-02  1.29902534E-11 -1.24913588E-01  2.00640053E-02 -1.23571484E-12
  1.16316010E-04  1.72649297E-03 -4.28186589E-12  1.21792140E-01 -8.03973962E-12
  2.23164035E-02  3.66951813E-02  3.77364929E-13 -1.06475886E-03 -3.60771664E-04
  3.19814498E-12 -2.15210717E-02 -3.64900425E-02  2.11308288E-02 -5.87123393E-11
 -3.43909654E-11 -3.08351971E-04 -5.24615746E-13 -9.67326715E-12 -1.02781285E-03
 -7.62723732E-12  4.58191067E-12 -1.97946460E-02 -6.86982451E-11 -1.24913583E-01
 -2.00640038E-02  8.84306671E-13  1.16316496E-04 -1.72649277E-03  7.96670811E-13
  3.00514091E-03  2.69426940E-04  6.48836067E-11  1.21792132E-01 -3.96653141E-11
 -2.23164016E-02  3.66951818E-02 -3.94943011E-13  1.06475899E-03 -3.60771579E-04
  5.47516229E-13 -2.69426842E-04  1.55618200E-04  3.84905548E-11  2.15210696E-02
 -3.64899976E-02
Dipole Moment                              R   N=           3
  9.95689225E-17 -6.96042975E-16  3.31084921E-06
Dipole Derivatives                         R   N=          36
  9.01869334E-01  2.05416677E-15  1.18592851E-15 -2.59622197E-16  1.90560590E+00
 -2.07850269E-15 -1.49893841E-16 -2.47793124E-15  1.90562515E+00 -3.00630068E-01
 -1.50008874E-16 -1.83971316E-17 -2.40165692E-17 -3.86129314E-01  2.20016361E-15
 -7.55773684E-17 -7.92775513E-15 -8.84298553E-01 -3.00619633E-01 -5.44843431E-17
 -1.54408013E-16 -7.74590203E-17 -7.59738294E-01  2.15714852E-01  1.69892141E-17
  2.15719614E-01 -5.10663300E-01 -3.00619633E-01 -6.34169146E-16 -2.75449969E-16
  2.32082988E-16 -7.59738294E-01 -2.15714852E-01  1.46117956E-16 -2.15719614E-01
 -5.10663300E-01
Polarizability                             R   N=           6
  8.74029871E+00  8.36672341E-17  1.27115919E+01  4.82897510E-17  3.29643283E-15
  1.27115243E+01
Quadrupole Moment                          R   N=           6
  1.76182211E+00 -8.80931060E-01 -8.80891049E-01 -1.80722371E-16 -1.04339876E-16
 -1.26937995E-16
NDeriv for static properties               I                6
ND12 for static properties                 I               -2
Dipole Moment num derivs                   R   N=          36
 -2.94962404E-17 -4.83318092E-09  1.05302355E-01 -1.53509659E-16  1.05294001E-01
  4.83354446E-09  2.96902161E-01  1.88087106E-15  1.06801512E-15  1.01451569E-15
 -4.22814101E-13 -1.98117412E-05  6.59122748E-16 -6.26310853E-01 -1.57113270E-09
  3.83278414E-16  1.57111669E-09 -6.26316174E-01 -5.32626079E-15  9.41584975E-10
  1.03377220E-02 -4.72017441E-15 -9.48946943E-10 -1.03315351E-02 -1.10753252E-14
 -1.46213350E-13  1.42632447E-06  5.32097965E-15 -1.16370724E-12  1.82734464E-06
 -1.20336979E-15 -1.07033036E-10 -2.13505774E-02 -5.42777930E-15  9.52081381E-11
  2.13962919E-02
Dipole Derivatives num derivs              R   N=         432
 -3.87037458E-07  2.73755300E-14 -3.10978053E-14  3.92168143E-15 -3.78340581E-02
  1.81502648E-09  2.27489186E-14  1.63207115E-09  3.78219159E-02  2.95871563E-03
 -7.01054374E-15  1.10836288E-14  6.81686565E-15  4.41263263E-03 -2.57825471E-09
 -3.14659281E-14  7.76269478E-11  7.86862174E-03 -1.47916439E-03 -2.62329420E-14
  1.05642459E-14  9.35824274E-15  1.67107119E-02 -1.16151424E-02  5.61640624E-15
  3.64324328E-02 -2.28452684E-02 -1.47916420E-03  5.86795569E-15  9.44993062E-15
 -2.00967898E-14  1.67107136E-02  1.16151432E-02  3.10060329E-15 -3.64324345E-02
 -2.28452693E-02 -1.52751228E-12  2.92477472E-14 -2.49906365E-15 -1.66107560E-14
 -1.73788010E-09 -3.78191681E-02  6.24651920E-15 -3.78099277E-02  1.73323293E-09
  1.36555192E-10 -1.17066871E-14 -7.78653969E-15  1.30056222E-14  2.02884476E-10
  5.46557131E-02  1.36610703E-14 -8.13721971E-04  3.63712425E-10  2.55678348E-03
 -8.63962940E-15  9.34642975E-15  8.58308601E-15  1.77245835E-02 -8.41827305E-03
 -2.70514425E-15  1.93118265E-02 -7.09462159E-03 -2.55678362E-03 -8.90143065E-15
  9.39173596E-16 -4.97795216E-15 -1.77245820E-02 -8.41827198E-03 -1.72024453E-14
  1.93118232E-02  7.09461949E-03 -4.70003779E-14 -4.45730822E-13  4.32173177E-06
 -7.39404905E-14 -8.34256708E-13 -1.77018455E-13  6.33872664E-07 -2.19205826E-13
 -4.11253307E-13  1.01344565E-13  1.89883958E-14  8.84658748E-02 -1.77580356E-14
  5.50785678E-13  7.54456996E-14  1.08720643E-02  7.41332035E-14 -3.52502834E-14
  3.34877692E-13  7.66175938E-02 -4.42350983E-02  9.41648400E-03  6.99130621E-13
  7.34380905E-14 -5.43634906E-03  2.85674172E-13  4.43566066E-13 -4.71472541E-13
 -7.66175938E-02 -4.42350983E-02 -9.41648400E-03 -3.87753118E-13  5.87504724E-14
 -5.43634906E-03 -1.37329229E-13  4.40628543E-14 -1.31287072E-02  6.52116481E-15
  2.58133897E-14  2.31976238E-14  2.41460261E-02  2.15919734E-11 -1.19188868E-15
 -3.46776663E-12  2.41663230E-02  4.37092627E-03 -1.68044424E-14  3.14743324E-14
 -7.00217342E-15  2.35928196E-03 -2.11051309E-11 -6.66087618E-15  4.35259344E-12
 -1.84866796E-02  4.37889047E-03  4.70625670E-14 -2.87401074E-14 -2.52384117E-14
 -1.32526540E-02  9.02445272E-03  4.10638700E-16  9.02060556E-03 -2.83982173E-03
  4.37889047E-03 -3.67792894E-14 -2.85476146E-14  9.04296133E-15 -1.32526540E-02
 -9.02445272E-03  7.44212616E-15 -9.02060556E-03 -2.83982173E-03 -1.70376370E-13
  3.91551275E-14 -4.15114886E-14  7.90775556E-15  1.77391179E-10  7.08269380E-02
 -1.04537388E-15  7.07860777E-02 -1.78331181E-10 -2.31960084E-10 -1.81335969E-14
  2.78611183E-14 -1.08823253E-14 -9.58014581E-11 -2.12138737E-02 -9.96427141E-15
  4.71583780E-03  1.01127188E-10 -7.99361020E-02 -2.77930025E-15  1.15638560E-14
 -4.77361040E-15  1.40711505E-02 -2.48065321E-02 -4.71613516E-15 -3.77509577E-02
 -1.25101003E-02  7.99361022E-02 -1.82422304E-14  2.08651422E-15  7.74818013E-15
 -1.40711506E-02 -2.48065322E-02  1.57257805E-14 -3.77509577E-02  1.25101004E-02
  2.95017075E-06  9.37205817E-15 -1.92607879E-14 -4.63696442E-15  7.08148050E-02
  3.25747570E-11  1.15344394E-14 -1.70438512E-10 -7.09577232E-02 -9.23069489E-02
 -5.55187597E-15  1.09244912E-14 -7.97124833E-15 -3.80336018E-02 -1.26002754E-10
 -1.10606322E-14 -1.69885096E-10  3.99505571E-02  4.61519996E-02  1.48951410E-14
  5.46830959E-15  2.51440757E-14 -1.63906017E-02  2.44854236E-02 -3.04250276E-15
  2.06060701E-03  1.55035831E-02  4.61519992E-02 -1.87153232E-14  2.86798709E-15
 -1.25358629E-14 -1.63906015E-02 -2.44854236E-02  2.56869559E-15 -2.06060677E-03
  1.55035830E-02 -3.11436090E-03  4.28697612E-11  2.49757710E-11  1.05289389E-12
 -1.57157074E-02  1.52365406E-10  2.71143736E-13 -3.58240081E-10 -7.02049718E-03
  3.42396887E-03 -2.42801512E-12 -1.89541333E-12 -3.77858459E-12  1.94410881E-03
 -1.09011966E-10  9.03202834E-14  6.22503391E-10  8.80725979E-04 -1.54804024E-04
 -1.34639899E-12 -1.00648428E-12 -4.39840543E-12  6.88579858E-03 -3.45683642E-03
 -3.26902116E-12 -4.10214869E-03  3.06988530E-03 -1.54804339E-04 -4.59028651E-11
 -2.62052652E-11  7.84665259E-12  6.88579962E-03  3.45683631E-03  3.25683133E-12
  4.10214880E-03  3.06988551E-03 -3.11444812E-03  3.51377359E-11  2.26338133E-11
  1.50588097E-12 -6.91397298E-03  5.44369372E-10 -1.76944784E-12  5.00735553E-10
 -1.57852859E-02 -1.51890560E-03  6.85312412E-14 -4.08943943E-12 -4.07863071E-12
  2.05768624E-04  5.81091149E-11 -1.95624647E-12  3.29422139E-11  1.18630186E-02
  2.31667655E-03 -1.61454839E-12  6.99053193E-13 -2.56477995E-12  3.35410236E-03
 -1.05601407E-03 -1.64263856E-12 -5.30409066E-04  1.96113364E-03  2.31667683E-03
 -4.03992368E-11 -2.33748189E-11  5.86008616E-12  3.35410173E-03  1.05601347E-03
  5.71760706E-12  5.30408573E-04  1.96113342E-03  4.35564675E-03 -5.04404296E-11
 -1.90124376E-11 -4.24305684E-12 -3.96798655E-02 -1.80072977E-11 -1.34770045E-10
 -1.19716919E-10 -3.96942378E-02 -1.51331740E-03 -1.68584399E-12  1.86267371E-11
  1.06089796E-11 -1.11466074E-03  9.53929423E-12  2.48521455E-11 -4.03642443E-11
  2.75068481E-02 -1.42116500E-03  1.61429907E-12 -5.26081258E-12 -8.36181084E-11
  2.03972626E-02 -1.23540555E-02  5.57410080E-11 -1.24132854E-02  6.09369454E-03
 -1.42116490E-03  5.46154595E-11  1.27671675E-12  9.54568867E-11  2.03972631E-02
  1.23540556E-02  5.73990073E-11  1.24132856E-02  6.09369471E-03 -6.09344353E-03
  3.72110246E-11  1.99583370E-11  1.75461898E-12 -1.23458805E-02  7.57040423E-11
  2.67030900E-12 -1.33261269E-11 -1.23814423E-02  1.97763596E-03 -1.43083555E-12
 -1.85190266E-12 -4.32545680E-12  2.72292422E-03 -2.65800650E-11 -1.83869313E-12
  2.96937707E-11  5.44409726E-03  2.05790359E-03 -3.33951295E-12  1.14572510E-12
 -4.11248409E-12  4.81147786E-03 -1.13496850E-03 -3.40656283E-12 -1.19026098E-03
  3.46867238E-03  2.05790361E-03 -3.92481941E-11 -2.33835512E-11  7.40587837E-12
  4.81147807E-03  1.13496842E-03  2.92422115E-12  1.19026101E-03  3.46867244E-03
 -2.47079794E-02  3.80651617E-11  2.38691159E-11  1.07403472E-12  6.77495318E-02
  1.24999329E-10  2.29083810E-12  1.78201738E-10  2.56233307E-02 -8.08953139E-04
 -1.49076123E-12 -2.92213477E-12 -3.45050748E-12 -1.65769983E-02  4.43435490E-11
 -2.03725388E-12  1.74813035E-11  4.63570009E-03  1.27584662E-02 -2.51869586E-12
  5.18195326E-13 -3.24750059E-12 -2.55862667E-02  7.28829579E-03 -4.13950204E-12
  2.07518945E-02 -1.51295154E-02  1.27584661E-02 -4.08632227E-11 -2.55965682E-11
  6.34652982E-12 -2.55862670E-02 -7.28829596E-03  4.23519201E-12 -2.07518946E-02
 -1.51295155E-02 -2.51441620E-02  3.59916033E-11  1.31252638E-11  1.59556352E-12
  2.55680689E-02  1.54646695E-09 -2.72015961E-13  2.61907088E-10  6.68809309E-02
  1.71331278E-02 -5.35280741E-13  2.22243003E-12 -2.33182352E-12 -1.99060150E-03
 -2.74710362E-10 -4.19901139E-12  1.25488387E-09 -4.81911924E-02  4.00551693E-03
 -1.01393156E-12  2.09031092E-12 -4.32482638E-12 -1.17887319E-02  3.66276240E-03
  2.45707284E-13 -9.92426964E-03 -9.34486926E-03  4.00551675E-03 -4.12499090E-11
 -2.15693965E-11  5.78364284E-12 -1.17887360E-02 -3.66276388E-03  4.57459425E-12
  9.92426777E-03 -9.34486964E-03
Polarizability num derivs                  R   N=          72
 -2.23931468E-05 -1.82520829E-13 -6.50741007E-01 -2.73387623E-14  2.95948533E-08
  6.50698939E-01  2.86702305E-12 -2.33799477E-14 -2.98734872E-08  7.43317169E-14
 -6.50668152E-01  2.98714191E-08  9.16507369E-12 -5.34283873E-15  4.60603703E-12
 -3.49450450E-05 -2.19814904E-12  1.04810843E-11 -3.47515050E-01 -2.71618985E-14
 -1.24294359E+00  9.70206143E-14 -1.50593077E-11 -1.24290695E+00 -1.01990820E-11
 -7.11136235E-14 -8.85158131E-10  6.73963050E-14 -3.53150321E-01  8.90657147E-10
  1.93489557E-05 -9.12762447E-14 -3.53172627E-01 -2.01635806E-13  8.65705048E-10
  3.53102909E-01  7.60774824E-02 -8.80775776E-12  1.18892385E-01  1.84622231E-12
 -1.79447710E-09  1.48990164E-01  7.60733372E-02  9.77435800E-12  1.50145823E-01
 -3.95351427E-12  1.32021478E-09  1.17670721E-01  8.85773194E-01  1.01419592E-11
  2.67892117E-01  2.20807594E-11  6.82625473E-10  2.67009856E-01 -1.51882550E-02
  1.69900278E-11  1.56728409E-01  5.74210815E-13  9.61242593E-11  1.55748377E-01
  7.67148148E-03  1.54205073E-11  5.98203762E-01 -2.81257556E-12  1.31069366E-09
  5.20584864E-02  8.84592448E-03  1.56442463E-11  5.62310388E-02 -7.32997569E-12
 -1.38326533E-10  5.97767722E-01
Quadrupole Moment num derivs               R   N=          72
 -6.09214776E-06  1.24864242E-01 -1.24858150E-01  6.43031093E-14 -8.74758703E-14
 -5.75817214E-09 -1.03400831E-12  5.72911107E-09 -5.72807705E-09  5.68409321E-14
 -3.51067457E-14  1.24872925E-01 -1.22200983E-12 -5.64004535E-13  1.69201360E-12
 -6.20185944E-14 -3.07461717E-06 -2.25861169E-12 -1.36671758E-01  6.83533562E-02
  6.83184021E-02  2.32515044E-14 -4.99929874E-14 -2.05933816E-11  4.18303363E-12
  1.45376871E-09 -1.45799870E-09  5.15684623E-14  1.88375559E-14  5.80537027E-01
  4.63404818E-06  5.80535739E-01 -5.80540373E-01  1.34868470E-13 -1.30680274E-14
 -1.08035900E-09  2.15170319E-03 -4.29425375E-02  4.07908343E-02 -3.07751658E-11
 -5.96924167E-12 -3.39061673E-09  2.14800460E-03  4.28247842E-02 -4.49727888E-02
 -2.84937480E-11 -1.33294183E-11  3.88895071E-09  2.01511374E-01 -9.99360604E-02
 -1.01575313E-01  4.80549485E-12  5.50167319E-13  4.78764890E-10  1.09037407E-02
 -4.58278165E-03 -6.32095909E-03 -4.38407173E-11 -1.51696277E-11  2.17306331E-11
 -5.18529352E-02  1.17132174E-01 -6.52792384E-02 -3.29036728E-11 -1.13306138E-11
  4.75177928E-10 -5.28081851E-02 -6.21771383E-02  1.14985323E-01 -4.33416930E-11
 -1.21141868E-11 -4.77133344E-10
QEq coupling tensors                       R   N=          24
 -2.55324240E-01 -1.24352021E-17  1.27661188E-01 -7.17935280E-18  1.09056847E-17
  1.27663053E-01  2.59298183E-01 -2.05022107E-19  1.10963642E+00 -2.83727157E-20
  5.37427172E-17 -1.36893460E+00  2.59320610E-01 -1.27060718E-19 -7.49320363E-01
 -1.63355554E-19  1.07324511E+00  4.89999753E-01  2.59320610E-01  3.89729645E-16
 -7.49320363E-01  2.25008435E-16 -1.07324511E+00  4.89999753E-01
NDeriv for magnetic props                  I                6
ND12 for magnetic props                    I               -2
QEq coupling tensors num derivs            R   N=         288
 -1.74057815E-07 -1.46690129E-14 -7.74138682E-03  3.44206214E-14  3.53609755E-10
  7.74156088E-03  9.50085174E-02 -3.75575079E-15 -2.97665898E-02  4.75579790E-14
 -2.16206506E-08 -6.52419276E-02 -4.75011336E-02 -4.29904346E-14  3.81056290E-01
 -5.33925355E-14  1.96055212E-01 -3.33555157E-01 -4.75011261E-02 -2.60870217E-14
  3.81056304E-01  1.21740075E-13 -1.96055224E-01 -3.33555178E-01  5.00847777E-13
 -7.41049500E-15 -3.55949284E-10 -7.13316033E-14 -7.74131849E-03  3.53944424E-10
  4.36965598E-09 -8.37328883E-15 -1.37567167E-09 -4.63562589E-14  4.70493747E-01
 -2.98797263E-09  8.22775111E-02 -3.74395878E-15  1.54906479E-01 -7.04474900E-15
  1.30936354E-01 -2.37183990E-01 -8.22775155E-02 -1.94962694E-14 -1.54906444E-01
 -1.12205172E-14  1.30936336E-01  2.37183959E-01 -1.00316432E-12  7.61765666E-15
  2.00559425E-12 -7.48504902E-08  5.87504724E-15 -1.00242993E-12  2.00485987E-12
  6.66531053E-16  2.00339111E-12  4.82542409E-01 -7.00599383E-13 -4.01265726E-12
  6.01604837E-12  4.17897175E-01 -6.01604837E-12 -2.41270000E-01  1.16913440E-12
 -6.01604837E-12  4.01118850E-12 -4.17897175E-01  1.00257681E-11 -2.41270000E-01
 -1.55101247E-12 -2.00485987E-12  4.30566776E-03 -1.40694366E-14 -2.15117842E-03
 -6.47449338E-15  3.35974284E-12 -2.15448934E-03 -1.66015993E-01 -9.03586810E-16
 -7.09357029E-02 -5.07535522E-14  2.33231696E-11  2.36951696E-01 -1.66036835E-01
 -5.88131321E-14  1.59993889E-01 -4.05162874E-14 -1.33343741E-01  6.04294642E-03
 -1.66036835E-01 -7.76251426E-15  1.59993889E-01  3.05445533E-15  1.33343741E-01
  6.04294644E-03  1.00169555E-12 -9.59842503E-15  1.27340182E-10  5.28074315E-14
  5.09346173E-02 -1.28341874E-10  8.84359110E-10 -2.50417537E-15  4.87299903E-10
  2.75891099E-14 -3.81316080E-01 -1.35962695E-09  3.02736544E-01  3.92785538E-15
 -4.73136002E-01  1.48566459E-14  1.75996787E-01  1.70399458E-01 -3.02736545E-01
  4.14755972E-14  4.73136002E-01  2.30878458E-14  1.75996788E-01 -1.70399457E-01
 -2.20077026E-06  2.75182427E-15  5.09342665E-02 -4.90606037E-14 -7.21326554E-11
 -5.09320657E-02  3.49572071E-01 -4.78301717E-16  1.86997552E-01 -1.19787047E-14
  9.34907225E-10 -5.36569623E-01 -1.74778175E-01 -2.10679853E-15 -1.08148197E-01
  2.83965593E-15 -3.21762788E-01  2.82926372E-01 -1.74778174E-01 -2.54969785E-14
 -1.08148199E-01  8.19235386E-15  3.21762787E-01  2.82926373E-01  7.18361331E-04
  3.61777428E-12 -1.63891410E-03 -6.44427456E-12 -5.73775515E-11  9.20553251E-04
 -6.82418616E-03 -4.16423277E-13  1.09008033E-02  1.93732997E-12  1.16010393E-09
 -4.07662096E-03  1.11203137E-02 -9.52501811E-12  4.04797539E-02 -4.19481215E-12
 -6.09311119E-02 -5.16000708E-02  1.11203194E-02  2.59738486E-11  4.04797565E-02
  1.81493735E-11  6.09311190E-02 -5.16000791E-02  7.17817686E-04  4.58118635E-12
  9.38447806E-04  1.21613386E-12  1.54317953E-10 -1.65626470E-03  1.77422172E-02
  8.85452017E-13 -1.12991098E-01 -9.83279443E-13 -8.61073390E-10  9.52488751E-02
 -1.16104064E-03  4.10035498E-13  2.51213001E-03  3.03978942E-13 -2.19505056E-02
 -1.35109128E-03 -1.16104043E-03  2.89701256E-11  2.51212703E-03  1.34995859E-11
  2.19504972E-02 -1.35108724E-03  9.95627437E-04 -3.25033272E-12 -4.94982105E-04
  7.54820117E-12  4.56434377E-11 -5.00644696E-04 -1.69999465E-01 -7.85001038E-13
  3.70363080E-02  5.11422402E-11  9.20527094E-11  1.32963152E-01 -1.70391057E-01
  1.77216759E-11  1.08991154E-01 -2.57304305E-11 -4.11502169E-02  6.13999010E-02
 -1.70391058E-01 -4.04535867E-14  1.08991153E-01 -7.67722434E-12  4.11502169E-02
  6.13998989E-02  5.11417190E-03  7.53521323E-12 -2.55343266E-03 -6.64873937E-12
  2.52558977E-11 -2.56073876E-03 -1.26663069E-04 -6.71526944E-14  9.51957054E-03
 -8.53970485E-12  1.76068851E-11 -9.39291066E-03 -5.57932144E-04 -1.96314951E-12
 -4.63239253E-03  9.27298316E-13  8.58158505E-03  5.19032340E-03 -5.57930870E-04
  2.75593467E-11 -4.63239381E-03  1.63740057E-11 -8.58158559E-03  5.19032086E-03
  2.86189561E-02  3.73746714E-12 -2.87261223E-02 -2.69711494E-13 -1.41537946E-10
  1.07166868E-04  8.11696261E-02 -2.39735511E-13 -1.02312094E-01  1.52465784E-12
 -1.85029289E-10  2.11424641E-02 -6.65224109E-02 -5.32488023E-13  1.09490795E-01
  3.43394495E-12 -1.88324368E-01 -4.29683869E-02 -6.65224115E-02  2.92914673E-11
  1.09490795E-01  1.60578064E-11  1.88324369E-01 -4.29683895E-02  2.86438221E-02
  7.08349146E-12  1.25505847E-04  1.06863407E-13 -4.81953905E-11 -2.87693275E-02
 -1.15042954E-01 -4.73032916E-14 -1.90704977E-01 -9.63232191E-12 -1.70846302E-10
  3.05747927E-01  3.14453581E-02  8.41959871E-13  6.27249879E-02 -4.83973643E-13
 -7.92827775E-02 -9.41703473E-02  3.14453583E-02  3.24224251E-11  6.27249869E-02
  1.15711094E-11  7.92827770E-02 -9.41703496E-02
Number of Normal Modes                     I                6
Vib-LE2Fix                                 I               14
Vib-NDFDPol                                I                0
Vib-NumROA                                 I                0
Vib-NDim                                   I                4
Vib-NDim0                                  I                4
Vib-LFlags                                 I                8
Vib-IFlags                                 I   N=          48
           0           0           1           0           0           0
           0           0           0           0           2           0
           0           0           0           0           0           0
           3           0           0           0           0           0
           0           0           4           0           0           0
           0           0           0           0           5           0
           0           0           0           0           0           0
           6           0           0           0           0           0
Vib-AtMass                                 R   N=           4
  1.10093053E+01  1.89984032E+01  1.89984032E+01  1.89984032E+01
Vib-E2                                     R   N=          84
  4.79350068E+02  4.79384347E+02  6.84747750E+02  8.89428540E+02  1.48938130E+03
  1.48940791E+03  1.79011071E+01  1.79011920E+01  1.18135401E+01  1.89984032E+01
  1.22816278E+01  1.22816677E+01  2.42345902E+00  2.42381714E+00  3.26355916E+00
  8.85501754E+00  1.60515852E+01  1.60522110E+01  1.08100428E+01  1.08083278E+01
  8.59365600E+01  3.82645439E-07  3.82411658E+02  3.82418156E+02  0.00000000E+00
  0.00000000E+00  0.00000000E+00  0.00000000E+00  0.00000000E+00  0.00000000E+00
  0.00000000E+00  0.00000000E+00  0.00000000E+00  0.00000000E+00  0.00000000E+00
  0.00000000E+00  0.00000000E+00  0.00000000E+00  0.00000000E+00  0.00000000E+00
  0.00000000E+00  0.00000000E+00  0.00000000E+00  0.00000000E+00  0.00000000E+00
  0.00000000E+00  0.00000000E+00  0.00000000E+00  0.00000000E+00  0.00000000E+00
  0.00000000E+00  0.00000000E+00  0.00000000E+00  0.00000000E+00  0.00000000E+00
  0.00000000E+00  0.00000000E+00  0.00000000E+00  0.00000000E+00  0.00000000E+00
  0.00000000E+00  0.00000000E+00  0.00000000E+00  0.00000000E+00  0.00000000E+00
  0.00000000E+00  0.00000000E+00  0.00000000E+00  0.00000000E+00  0.00000000E+00
  0.00000000E+00  0.00000000E+00  0.00000000E+00  0.00000000E+00  0.00000000E+00
  0.00000000E+00  0.00000000E+00  0.00000000E+00  0.00000000E+00  0.00000000E+00
  0.00000000E+00  0.00000000E+00  0.00000000E+00  0.00000000E+00
Vib-Modes                                  R   N=          72
  1.13316417E-16  1.70110697E-08 -3.70606511E-01 -4.57378364E-17 -2.76808446E-08
 -4.59851437E-01  1.82176828E-17  4.60237096E-01  3.37306306E-01 -3.81451036E-17
 -4.60237078E-01  3.37306349E-01  6.10750224E-16 -3.70592180E-01 -1.70117766E-08
 -8.54321435E-17  6.03027231E-01 -2.11075900E-08 -1.22357002E-16 -1.94137137E-01
  4.60239694E-01 -1.46131949E-16 -1.94137180E-01 -4.60239663E-01  9.48331937E-01
  1.90107730E-15  1.04390467E-15 -1.83181544E-01 -3.12912249E-16  1.14645926E-15
 -1.83181683E-01  9.83012811E-16 -8.28665882E-16 -1.83181683E-01 -1.77174790E-15
 -9.22721335E-16 -3.88121942E-15  1.19633832E-12  3.71380368E-05  7.70114675E-16
 -1.40066932E-12  5.77335769E-01  7.70115032E-16  5.00006344E-01 -2.88678645E-01
  7.08881915E-16 -5.00006344E-01 -2.88678645E-01 -1.87468938E-15  9.16920205E-01
  2.30007284E-09  3.71141977E-16 -2.97487069E-02 -8.14267070E-10  3.72963843E-16
 -2.50796775E-01  1.27621133E-01  3.42250096E-16 -2.50796776E-01 -1.27621134E-01
 -1.09092778E-15 -2.30007842E-09  9.16917478E-01  2.18038008E-16  7.44857200E-11
 -3.24500096E-01  2.14883672E-16  1.27613702E-01 -1.03420291E-01  1.99255501E-16
 -1.27613701E-01 -1.03420291E-01
Anharmonic Number of Normal Modes          I               27
Anharmonic Vib-LE2Fix                      I               14
Anharmonic Vib-NDFDPol                     I                0
Anharmonic Vib-NumROA                      I                0
Anharmonic Vib-NDim                        I                4
Anharmonic Vib-NDim0                       I                4
Anharmonic Vib-LFlags                      I                8
Anharmonic Vib-IFlags                      I   N=         216
           1           0           3           0           0           0
           0           0           1           0           6           0
           0           0           0           0           1           0
           4           0           0           0           0           0
           1           0           2           0           0           0
           0           0           1           0           5           0
           0           0           0           0           1           0
           1           0           0           0           0           0
           2           0           3           0           0           0
           0           0           3           0           6           3
           0           0           0           0           2           0
           6           0           0           0           0           0
           3           0           4           3           0           0
           0           0           3           0           6           4
           0           0           0           0           2           0
           4           0           0           0           0           0
           3           0           3           2           0           0
           0           0           3           0           6           2
           0           0           0           0           3           0
           4           2           0           0           0           0
           2           0           2           0           0           0
           0           0           3           0           5           3
           0           0           0           0           3           0
           6           5           0           0           0           0
           3           0           5           4           0           0
           0           0           3           0           5           2
           0           0           0           0           2           0
           5           0           0           0           0           0
           3           0           3           1           0           0
           0           0           3           0           6           1
           0           0           0           0           3           0
           4           1           0           0           0           0
           3           0           2           1           0           0
           0           0           3           0           5           1
           0           0           0           0           2           0
           1           0           0           0           0           0
Anharmonic Vib-AtMass                      R   N=           4
  1.10093053E+01  1.89984032E+01  1.89984032E+01  1.89984032E+01
Anharmonic Vib-E2                          R   N=         378
  4.76501757E+02  4.76535091E+02  6.80185044E+02  8.78432779E+02  1.46747098E+03
  1.46742838E+03  9.53706238E+02  9.53877052E+02  9.53767974E+02  1.15710956E+03
  1.15713248E+03  1.36284638E+03  1.35149400E+03  1.35153427E+03  1.55495506E+03
  1.75474929E+03  1.93643866E+03  1.93997861E+03  2.13985237E+03  2.33789548E+03
  2.92840440E+03  1.93991936E+03  1.93645878E+03  2.13975360E+03  2.33782103E+03
  2.92859853E+03  2.90472081E+03  0.00000000E+00  0.00000000E+00  0.00000000E+00
  0.00000000E+00  0.00000000E+00  0.00000000E+00  0.00000000E+00  0.00000000E+00
  0.00000000E+00  0.00000000E+00  0.00000000E+00  0.00000000E+00  0.00000000E+00
  0.00000000E+00  0.00000000E+00  0.00000000E+00  0.00000000E+00  0.00000000E+00
  0.00000000E+00  0.00000000E+00  0.00000000E+00  0.00000000E+00  0.00000000E+00
  0.00000000E+00  0.00000000E+00  0.00000000E+00  0.00000000E+00  0.00000000E+00
  0.00000000E+00  0.00000000E+00  0.00000000E+00  0.00000000E+00  0.00000000E+00
  0.00000000E+00  0.00000000E+00  0.00000000E+00  0.00000000E+00  0.00000000E+00
  0.00000000E+00  0.00000000E+00  0.00000000E+00  0.00000000E+00  0.00000000E+00
  0.00000000E+00  0.00000000E+00  0.00000000E+00  0.00000000E+00  0.00000000E+00
  0.00000000E+00  0.00000000E+00  0.00000000E+00  0.00000000E+00  0.00000000E+00
  0.00000000E+00  1.07587084E+01  1.07616356E+01  8.58373899E+01  1.20824481E-07
  3.69037473E+02  3.69036379E+02  2.65095675E-04  5.29998021E-04  2.62465413E-04
  2.71717242E-12  1.51208236E-23  1.32717381E-09  7.06203807E+00  7.05809855E+00
  9.13538031E-02  6.19316852E-11  6.79799786E-02  6.78781038E-02  1.91057640E-24
  3.20447351E+00  2.09768835E+00  6.78251871E-02  6.77255767E-02  2.24507583E-11
  3.20484307E+00  2.09622699E+00  2.14977121E-05  0.00000000E+00  0.00000000E+00
  0.00000000E+00  0.00000000E+00  0.00000000E+00  0.00000000E+00  0.00000000E+00
  0.00000000E+00  0.00000000E+00  0.00000000E+00  0.00000000E+00  0.00000000E+00
  0.00000000E+00  0.00000000E+00  0.00000000E+00  0.00000000E+00  0.00000000E+00
  0.00000000E+00  0.00000000E+00  0.00000000E+00  0.00000000E+00  0.00000000E+00
  0.00000000E+00  0.00000000E+00  0.00000000E+00  0.00000000E+00  0.00000000E+00
  0.00000000E+00  0.00000000E+00  0.00000000E+00  0.00000000E+00  0.00000000E+00
  0.00000000E+00  0.00000000E+00  0.00000000E+00  0.00000000E+00  0.00000000E+00
  0.00000000E+00  0.00000000E+00  0.00000000E+00  0.00000000E+00  0.00000000E+00
  0.00000000E+00  0.00000000E+00  0.00000000E+00  0.00000000E+00  0.00000000E+00
  0.00000000E+00  0.00000000E+00  0.00000000E+00  0.00000000E+00  0.00000000E+00
  0.00000000E+00  0.00000000E+00  0.00000000E+00  0.00000000E+00  0.00000000E+00
  0.00000000E+00  0.00000000E+00  0.00000000E+00  0.00000000E+00  0.00000000E+00
  0.00000000E+00  0.00000000E+00  0.00000000E+00  0.00000000E+00  0.00000000E+00
  0.00000000E+00  0.00000000E+00  0.00000000E+00  0.00000000E+00  0.00000000E+00
  0.00000000E+00  0.00000000E+00  0.00000000E+00  0.00000000E+00  0.00000000E+00
  0.00000000E+00  0.00000000E+00  0.00000000E+00  0.00000000E+00  9.00747433E+01
  9.00929481E+01  5.03450560E+02  5.48723816E-07  1.00324811E+03  1.00327426E+03
  1.10890776E-03  2.21660981E-03  1.09783418E-03  9.36806983E-12  5.21314455E-23
  3.88497565E-09  2.08460289E+01  2.08337792E+01  2.34377649E-01  1.40800834E-10
  1.40050506E-01  1.39585454E-01  3.56195150E-24  5.46813209E+00  2.85770450E+00
  1.39480895E-01  1.39524944E-01  4.18576318E-11  5.46893688E+00  2.85552437E+00
  2.95253632E-05  0.00000000E+00  0.00000000E+00  0.00000000E+00  0.00000000E+00
  0.00000000E+00  0.00000000E+00  0.00000000E+00  0.00000000E+00  0.00000000E+00
  0.00000000E+00  0.00000000E+00  0.00000000E+00  0.00000000E+00  0.00000000E+00
  0.00000000E+00  0.00000000E+00  0.00000000E+00  0.00000000E+00  0.00000000E+00
  0.00000000E+00  0.00000000E+00  0.00000000E+00  0.00000000E+00  0.00000000E+00
  0.00000000E+00  0.00000000E+00  0.00000000E+00  0.00000000E+00  0.00000000E+00
  0.00000000E+00  0.00000000E+00  0.00000000E+00  0.00000000E+00  0.00000000E+00
  0.00000000E+00  0.00000000E+00  0.00000000E+00  0.00000000E+00  0.00000000E+00
  0.00000000E+00  0.00000000E+00  0.00000000E+00  0.00000000E+00  0.00000000E+00
  0.00000000E+00  0.00000000E+00  0.00000000E+00  0.00000000E+00  0.00000000E+00
  0.00000000E+00  0.00000000E+00  0.00000000E+00  0.00000000E+00  0.00000000E+00
  0.00000000E+00  0.00000000E+00  0.00000000E+00  0.00000000E+00  0.00000000E+00
  0.00000000E+00  0.00000000E+00  0.00000000E+00  0.00000000E+00  0.00000000E+00
  0.00000000E+00  0.00000000E+00  0.00000000E+00  0.00000000E+00  0.00000000E+00
  0.00000000E+00  0.00000000E+00  0.00000000E+00  0.00000000E+00  0.00000000E+00
  0.00000000E+00  0.00000000E+00  0.00000000E+00  0.00000000E+00  0.00000000E+00
  0.00000000E+00  0.00000000E+00  0.00000000E+00  0.00000000E+00  0.00000000E+00
  0.00000000E+00  0.00000000E+00  0.00000000E+00  0.00000000E+00  0.00000000E+00
  0.00000000E+00  0.00000000E+00  0.00000000E+00  0.00000000E+00  0.00000000E+00
  0.00000000E+00  0.00000000E+00  0.00000000E+00  0.00000000E+00  0.00000000E+00
  0.00000000E+00  0.00000000E+00  0.00000000E+00  0.00000000E+00  0.00000000E+00
  0.00000000E+00  0.00000000E+00  0.00000000E+00  0.00000000E+00  0.00000000E+00
  0.00000000E+00  0.00000000E+00  0.00000000E+00  0.00000000E+00  0.00000000E+00
  0.00000000E+00  0.00000000E+00  0.00000000E+00  0.00000000E+00  0.00000000E+00
  0.00000000E+00  0.00000000E+00  0.00000000E+00  0.00000000E+00  0.00000000E+00
  0.00000000E+00  0.00000000E+00  0.00000000E+00  0.00000000E+00  0.00000000E+00
  0.00000000E+00  0.00000000E+00  0.00000000E+00  0.00000000E+00  0.00000000E+00
  0.00000000E+00  0.00000000E+00  0.00000000E+00  0.00000000E+00  0.00000000E+00
  0.00000000E+00  0.00000000E+00  0.00000000E+00  0.00000000E+00  0.00000000E+00
  0.00000000E+00  0.00000000E+00  0.00000000E+00  0.00000000E+00  0.00000000E+00
  0.00000000E+00  0.00000000E+00  0.00000000E+00  0.00000000E+00  0.00000000E+00
  0.00000000E+00  0.00000000E+00  0.00000000E+00  0.00000000E+00  0.00000000E+00
  0.00000000E+00  0.00000000E+00  0.00000000E+00
Anharmonic Vib-Modes                       R   N=         324
 -7.15263143E-17 -4.01673030E-09  8.77408774E-02 -4.43795109E-17  6.54770382E-09
  1.08630251E-01  1.37856601E-17 -1.08761726E-01 -7.97374178E-02  7.20423358E-17
  1.08761722E-01 -7.97374278E-02 -1.26548143E-16  8.77485050E-02  4.01691562E-09
 -9.18885854E-18 -1.42531745E-01  4.99557546E-09  9.37365439E-17  4.58413604E-02
 -1.08756467E-01 -1.12148308E-17  4.58413704E-02  1.08756460E-01  2.75911846E-01
  4.96108319E-16  4.43968668E-16 -5.32956405E-02 -8.00299438E-17  3.06464837E-16
 -5.32956809E-02  2.97012175E-16 -2.68186740E-16 -5.32956809E-02 -5.04469968E-16
 -2.95551645E-16  8.90432334E-16 -2.04108527E-13  3.36312968E-06 -1.09347500E-16
 -6.26029786E-12 -1.32463356E-01 -2.34043910E-16 -1.14709306E-01  6.62307037E-02
 -1.72601502E-16  1.14709306E-01  6.62307036E-02  5.81616119E-16 -2.46998002E-01
 -1.17537963E-06 -1.19521360E-16 -1.13475797E-02 -1.82708104E-02 -9.17277957E-17
  6.14161242E-02 -4.20097479E-02 -1.25789138E-16  9.30632956E-02  6.02812395E-02
  5.53067452E-16  8.07807267E-11 -2.46996338E-01 -1.29492172E-16  8.90076130E-10
  8.84898800E-02 -1.13438994E-16 -6.69772546E-02  2.73204987E-02 -7.75635796E-17
  6.69772537E-02  2.73204972E-02 -1.27871541E-16 -8.06872289E-09  1.73861844E-01
 -9.17005344E-17  1.31627703E-08  2.17545882E-01  2.38472917E-17 -2.20496264E-01
 -1.59148168E-01  1.41952988E-16  2.20496255E-01 -1.59148188E-01 -2.01515216E-16
  8.94628265E-02  8.75937498E-02 -5.22978677E-17 -1.40543072E-01  1.08687005E-01
  1.06949584E-16 -6.44278380E-02 -1.86470631E-01  6.21234945E-17  1.53128471E-01
  2.70242897E-02 -2.43876907E-16  1.75180302E-01  1.32252616E-03 -1.85479208E-17
 -2.85053215E-01 -3.65148083E-03  1.84885425E-16  9.16998311E-02 -2.16114460E-01
 -2.50142945E-17  9.18388831E-02  2.18999556E-01  2.75911846E-01 -4.01636784E-09
  8.75937459E-02 -5.32956405E-02  6.54769453E-09  1.08687000E-01 -5.32956809E-02
 -1.08778152E-01 -7.97231619E-02 -5.32956809E-02  1.08778147E-01 -7.97231719E-02
  2.75911846E-01  8.75901510E-02  4.01652650E-09 -5.32956405E-02 -1.42526608E-01
  4.99571614E-09 -5.32956809E-02  4.58846735E-02 -1.08778508E-01 -5.32956809E-02
  4.58846835E-02  1.08778500E-01  5.51823691E-01  1.15948038E-14  3.28643320E-07
 -1.06591281E-01  2.34697744E-13  5.10898152E-03 -1.06591362E-01  4.42467504E-03
 -2.55458598E-03 -1.06591362E-01 -4.42467504E-03 -2.55458598E-03  7.49904261E-16
 -4.07255248E-09  1.22968555E-01 -1.37301987E-16  6.49034401E-09 -3.61669915E-02
 -2.06605333E-16 -2.16478749E-01 -1.75457663E-02 -9.06515660E-17  2.16478745E-01
 -1.75457762E-02  6.90386717E-16  1.22963035E-01 -8.43488635E-06 -1.03118932E-16
 -1.42530016E-01 -1.31189287E-01 -1.28798626E-16 -7.79802192E-02 -3.72671278E-02
 -1.68151756E-16  1.49254900E-01  1.68461303E-01  2.67788396E-01 -2.74401215E-13
 -8.52040799E-06 -5.17264999E-02 -6.08900204E-12 -1.32455475E-01 -5.17265392E-02
 -1.14714143E-01  6.62302063E-02 -5.17265392E-02  1.14714143E-01  6.62302063E-02
  1.81567050E-15 -5.60496255E-13 -1.73734341E-05 -2.22978156E-16 -1.24155470E-11
 -2.70081723E-01 -4.77232916E-16 -2.33906475E-01  1.35045895E-01 -3.51944239E-16
  2.33906475E-01  1.35045895E-01  4.05840084E-16 -2.59525568E-01  8.75937453E-02
 -1.47935376E-16  7.82003635E-03  1.08687000E-01 -5.84938023E-17 -3.74924744E-02
 -1.16364776E-01 -2.87493962E-17  1.80063825E-01 -4.30815581E-02  3.64446930E-16
 -1.74049510E-01  2.10844040E-03 -1.14474305E-16 -1.34037928E-01 -2.08997557E-03
  1.77429653E-17  1.15538959E-01 -1.44760622E-01 -1.14460489E-16  1.19358193E-01
  1.45628787E-01  2.75911846E-01 -2.61639661E-01 -6.43654276E-10 -5.32956405E-02
  8.48867932E-03  2.31937474E-10 -5.32956809E-02  7.15638970E-02 -3.64162005E-02
 -5.32956809E-02  7.15638972E-02  3.64162007E-02  1.41413378E-15 -2.84765877E-01
 -8.52107684E-06 -2.23078602E-16  8.07415525E-03 -1.32455475E-01 -3.13063560E-16
 -3.62423266E-02  2.55864246E-02 -2.83328313E-16  1.93185959E-01  1.06873988E-01
  7.11292207E-17 -3.71103941E-01  3.59785684E-01  2.64468012E-18  1.20401561E-02
 -1.27522012E-01  1.15569726E-17  1.51719210E-01 -9.21362833E-02 -5.54200276E-17
  5.12901057E-02  1.11675929E-02  3.86355981E-16 -3.35546743E-09 -1.74421037E-01
 -1.55135067E-16  6.50271097E-09  1.98870589E-01 -7.35872937E-17 -1.46408887E-01
 -4.88980304E-02  4.83454829E-18  1.46408882E-01 -4.88980406E-02  3.14303994E-16
  8.96982344E-02 -2.61638453E-01 -1.17885699E-16 -1.43194589E-01  9.25947111E-02
  1.07391560E-17  9.19384118E-03 -7.94938129E-02 -7.49881651E-17  8.20218924E-02
  1.38514876E-01  2.75911846E-01  6.43655804E-10 -2.61638457E-01 -5.32956405E-02
 -1.67730755E-11  9.25947060E-02 -5.32956809E-02 -3.64140208E-02  2.95105351E-02
 -5.32956809E-02  3.64140204E-02  2.95105349E-02  1.33414636E-15  6.09880001E-10
 -2.60916360E-01 -2.19008833E-16  3.17522310E-11 -3.89542136E-02 -3.17772855E-16
 -1.52035479E-01  9.50757726E-02 -2.36337213E-16  1.52035479E-01  9.50757723E-02
  9.58400184E-16 -2.79742972E-01 -2.61638458E-01 -2.20584209E-16  9.25340098E-03
  9.25947063E-02 -1.62116011E-16  4.00128217E-02 -9.27175686E-03 -1.72679097E-16
  1.12840863E-01  6.82928270E-02  1.35802649E-15 -3.68921554E-01 -3.80072216E-01
 -3.09852540E-16  1.19693504E-02  1.29367441E-01 -2.33989373E-16  4.35576154E-02
 -5.90867400E-03 -2.43115185E-16  1.58257844E-01  9.67876931E-02
Anharmonic number of displacements         I                6
Anharmonic displacement N1                 I                0
Anharmonic displacement flags              I   N=           6
           1           2           3           4           5           6
Anharmonic displacements                   R   N=          72
 -2.67826095E-17 -4.02060749E-09  8.75937459E-02  1.08102483E-17  6.54243463E-09
  1.08687000E-01 -4.30579343E-18 -1.08778152E-01 -7.97231619E-02  9.01568756E-18
  1.08778147E-01 -7.97231719E-02 -1.44351951E-16  8.75901510E-02  4.02076505E-09
  2.01920460E-17 -1.42526608E-01  4.98881816E-09  2.89193050E-17  4.58846735E-02
 -1.08778508E-01  3.45385581E-17  4.58846835E-02  1.08778500E-01  2.75911846E-01
  5.53107754E-16  3.03718196E-16 -5.32956405E-02 -9.10400598E-17  3.33555877E-16
 -5.32956809E-02  2.86002051E-16 -2.41095680E-16 -5.32956809E-02 -5.15480092E-16
 -2.68460585E-16  8.90450219E-16 -2.74470366E-13 -8.52040799E-06 -1.76683848E-16
  3.21346525E-13 -1.32455475E-01 -1.76683930E-16 -1.14714143E-01  6.62302063E-02
 -1.62635499E-16  1.14714143E-01  6.62302063E-02  5.34935419E-16 -2.61639661E-01
 -6.56316961E-10 -1.05903938E-16  8.48867932E-03  2.32347983E-10 -1.06423801E-16
  7.15638970E-02 -3.64162005E-02 -9.76597512E-17  7.15638972E-02  3.64162007E-02
  3.11291548E-16  6.56317475E-10 -2.61638457E-01 -6.22162074E-17 -2.12541779E-11
  9.25947060E-02 -6.13161311E-17 -3.64140208E-02  2.95105351E-02 -5.68566998E-17
  3.64140204E-02  2.95105349E-02
ClPar MaxAn                                I              200
ClPar NIntPar                              I               12
ClPar NRealPar                             I               16
ClPar NBits                                I               30
ClPar LenBitVec                            I                1
ClPar Read BitMap                          I   N=         200
           0           0           0           0           0           0
           0           0           0           0           0           0
           0           0           0           0           0           0
           0           0           0           0           0           0
           0           0           0           0           0           0
           0           0           0           0           0           0
           0           0           0           0           0           0
           0           0           0           0           0           0
           0           0           0           0           0           0
           0           0           0           0           0           0
           0           0           0           0           0           0
           0           0           0           0           0           0
           0           0           0           0           0           0
           0           0           0           0           0           0
           0           0           0           0           0           0
           0           0           0           0           0           0
           0           0           0           0           0           0
           0           0           0           0           0           0
           0           0           0           0           0           0
           0           0           0           0           0           0
           0           0           0           0           0           0
           0           0           0           0           0           0
           0           0           0           0           0           0
           0           0           0           0           0           0
           0           0           0           0           0           0
           0           0           0           0           0           0
           0           0           0           0           0           0
           0           0           0           0           0           0
           0           0           0           0           0           0
           0           0           0           0           0           0
           0           0           0           0           0           0
           0           0           0           0           0           0
           0           0           0           0           0           0
           0           0
ClPar Default BitMap                       I   N=         200
      516096      516096      516096      516096      516096      516096
      516096      516096      516096      516096      516096      516096
      516096      516096      516096      516096      516096      516096
      516096      516096      516096      516096      516096      516096
      516096      516096      516096      516096      516096      516096
      516096      516096      516096      516096      516096      516096
      516096      516096      516096      516096      516096      516096
      516096      516096      516096      516096      516096      516096
      516096      516096      516096      516096      516096      516096
      516096      516096      516096      516096      516096      516096
      516096      516096      516096      516096      516096      516096
      516096      516096      516096      516096      516096      516096
      516096      516096      516096      516096      516096      516096
      516096      516096      516096      516096      516096      516096
      516096      516096      122880      122880      122880      122880
      122880      122880      122880      122880      122880      122880
      122880      122880      122880      122880      122880      122880
      122880      122880      122880      122880      122880      122880
      122880      122880      122880      122880      122880      122880
      122880      122880      122880      122880      122880      122880
      122880      122880      122880      122880      122880      122880
      122880      122880      122880      122880      122880      122880
      122880      122880      122880      122880      122880      122880
      122880      122880      122880      122880      122880      122880
      122880      122880      122880      122880      122880      122880
      122880      122880      122880      122880      122880      122880
      122880      122880      122880      122880      122880      122880
      122880      122880      122880      122880      122880      122880
      122880      122880      122880      122880      122880      122880
      122880      122880      122880      122880      122880      122880
      122880      122880      122880      122880      122880      122880
      122880      122880      122880      122880      122880      122880
      122880      122880      122880      122880      122880      122880
      122880      122880
ClPar Int Params                           I   N=        2400
           0           0           0           0           0           0
           0           0           0           0           0           0
           0           0           0           0           0           0
           0           0           0           0           0           0
           0           0           0           0           0           0
           0           0           0           0           0           0
           0           0           0           0           0           0
           0           0           0           0           0           0
           0           0           0           0           0           0
           0           0           0           0           0           0
           0           0           0           0           0           0
           0           0           0           0           0           0
           0           0           0           0           0           0
           0           0           0           0           0           0
           0           0           0           0           0           0
           0           0           0           0           0           0
           0           0           0           0           0           0
           0           0           0           0           0           0
           0           0           0           0           0           0
           0           0           0           0           0           0
           0           0           0           0           0           0
           0           0           0           0           0           0
           0           0           0           0           0           0
           0           0           0           0           0           0
           0           0           0           0           0           0
           0           0           0           0           0           0
           0           0           0           0           0           0
           0           0           0           0           0           0
           0           0           0           0           0           0
           0           0           0           0           0           0
           0           0           0           0           0           0
           0           0           0           0           0           0
           0           0           0           0           0           0
           0           0           0           0           0           0
           0           0           0           0           0           0
           0           0           0           0           0           0
           0           0           0           0           0           0
           0           0           0           0           0           0
           0           0           0           0           0           0
           0           0           0           0           0           0
           0           0           0           0           0           0
           0           0           0           0           0           0
           0           0           0           0           0           0
           0           0           0           0           0           0
           0           0           0           0           0           0
           0           0           0           0           0           0
           0           0           0           0           0           0
           0           0           0           0           0           0
           0           0           0           0           0           0
           0           0           0           0           0           0
           0           0           0           0           0           0
           0           0           0           0           0           0
           0           0           0           0           0           0
           0           0           0           0           0           0
           0           0           0           0           0           0
           0           0           0           0           0           0
           0           0           0           0           0           0
           0           0           0           0           0           0
           0           0           0           0           0           0
           0           0           0           0           0           0
           0           0           0           0           0           0
           0           0           0           0           0           0
           0           0           0           0           0           0
           0           0           0           0           0           0
           0           0           0           0           0           0
           0           0           0           0           0           0
           0           0           0           0           0           0
           0           0           0           0           0           0
           0           0           0           0           0           0
           0           0           0           0           0           0
           0           0           0           0           0           0
           0           0           0           0           0           0
           0           0           0           0           0           0
           0           0           0           0           0           0
           0           0           0           0           0           0
           0           0           0           0           0           0
           0           0           0           0           0           0
           0           0           0           0           0           0
           0           0           0           0           0           0
           0           0           0           0           0           0
           0           0           0           0           0           0
           0           0           0           0           0           0
           0           0           0           0           0           0
           0           0           0           0           0           0
           0           0           0           0           0           0
           0           0           0           0           0           0
           0           0           0           0           0           0
           0           0           0           0           0           0
           0           0           0           0           0           0
           0           0           0           0           0           0
           0           0           0           0           0           0
           0           0           0           0           0           0
           0           0           0           0           0           0
           0           0           0           0           0           0
           0           0           0           0           0           0
           0           0           0           0           0           0
           0           0           0           0           0           0
           0           0           0           0           0           0
           0           0           0           0           0           0
           0           0           0           0           0           0
           0           0           0           0           0           0
           0           0           0           0           0           0
           0           0           0           0           0           0
           0           0           0           0           0           0
           0           0           0           0           0           0
           0           0           0           0           0           0
           0           0           0           0           0           0
           0           0           0           0           0           0
           0           0           0           0           0           0
           0           0           0           0           0           0
           0           0           0           0           0           0
           0           0           0           0           0           0
           0           0           0           0           0           0
           0           0           0           0           0           0
           0           0           0           0           0           0
           0           0           0           0           0           0
           0           0           0           0           0           0
           0           0           0           0           0           0
           0           0           0           0           0           0
           0           0           0           0           0           0
           0           0           0           0           0           0
           0           0           0           0           0           0
           0           0           0           0           0           0
           0           0           0           0           0           0
           0           0           0           0           0           0
           0           0           0           0           0           0
           0           0           0           0           0           0
           0           0           0           0           0           0
           0           0           0           0           0           0
           0           0           0           0           0           0
           0           0           0           0           0           0
           0           0           0           0           0           0
           0           0           0           0           0           0
           0           0           0           0           0           0
           0           0           0           0           0           0
           0           0           0           0           0           0
           0           0           0           0           0           0
           0           0           0           0           0           0
           0           0           0           0           0           0
           0           0           0           0           0           0
           0           0           0           0           0           0
           0           0           0           0           0           0
           0           0           0           0           0           0
           0           0           0           0           0           0
           0           0           0           0           0           0
           0           0           0           0           0           0
           0           0           0           0           0           0
           0           0           0           0           0           0
           0           0           0           0           0           0
           0           0           0           0           0           0
           0           0           0           0           0           0
           0           0           0           0           0           0
           0           0           0           0           0           0
           0           0           0           0           0           0
           0           0           0           0           0           0
           0           0           0           0           0           0
           0           0           0           0           0           0
           0           0           0           0           0           0
           0           0           0           0           0           0
           0           0           0           0           0           0
           0           0           0           0           0           0
           0           0           0           0           0           0
           0           0           0           0           0           0
           0           0           0           0           0           0
           0           0           0           0           0           0
           0           0           0           0           0           0
           0           0           0           0           0           0
           0           0           0           0           0           0
           0           0           0           0           0           0
           0           0           0           0           0           0
           0           0           0           0           0           0
           0           0           0           0           0           0
           0           0           0           0           0           0
           0           0           0           0           0           0
           0           0           0           0           0           0
           0           0           0           0           0           0
           0           0           0           0           0           0
           0           0           0           0           0           0
           0           0           0           0           0           0
           0           0           0           0           0           0
           0           0           0           0           0           0
           0           0           0           0           0           0
           0           0           0           0           0           0
           0           0           0           0           0           0
           0           0           0           0           0           0
           0           0           0           0           0           0
           0           0           0           0           0           0
           0           0           0           0           0           0
           0           0           0           0           0           0
           0           0           0           0           0           0
           0           0           0           0           0           0
           0           0           0           0           0           0
           0           0           0           0           0           0
           0           0           0           0           0           0
           0           0           0           0           0           0
           0           0           0           0           0           0
           0           0           0           0           0           0
           0           0           0           0           0           0
           0           0           0           0           0           0
           0           0           0           0           0           0
           0           0           0           0           0           0
           0           0           0           0           0           0
           0           0           0           0           0           0
           0           0           0           0           0           0
           0           0           0           0           0           0
           0           0           0           0           0           0
           0           0           0           0           0           0
           0           0           0           0           0           0
           0           0           0           0           0           0
           0           0           0           0           0           0
           0           0           0           0           0           0
           0           0           0           0           0           0
           0           0           0           0           0           0
           0           0           0           0           0           0
           0           0           0           0           0           0
           0           0           0           0           0           0
           0           0           0           0           0           0
           0           0           0           0           0           0
           0           0           0           0           0           0
           0           0           0           0           0           0
           0           0           0           0           0           0
           0           0           0           0           0           0
           0           0           0           0           0           0
           0           0           0           0           0           0
           0           0           0           0           0           0
           0           0           0           0           0           0
           0           0           0           0           0           0
           0           0           0           0           0           0
           0           0           0           0           0           0
           0           0           0           0           0           0
           0           0           0           0           0           0
           0           0           0           0           0           0
           0           0           0           0           0           0
           0           0           0           0           0           0
           0           0           0           0           0           0
           0           0           0           0           0           0
           0           0           0           0           0           0
           0           0           0           0           0           0
           0           0           0           0           0           0
           0           0           0           0           0           0
           0           0           0           0           0           0
           0           0           0           0           0           0
           0           0           0           0           0           0
           0           0           0           0           0           0
           0           0           0           0           0           0
           0           0           0           0           0           0
           0           0           0           0           0           0
           0           0           0           0           0           0
           0           0           0           0           0           0
           0           0           0           0           0           0
           0           0           0           0           0           0
           0           0           0           0           0           0
           0           0           0           0           0           0
           0           0           0           0           0           0
           0           0           0           0           0           0
           0           0           0           0           0           0
           0           0           0           0           0           0
           0           0           0           0           0           0
           0           0           0           0           0           0
           0           0           0           0           0           0
           0           0           0           0           0           0
           0           0           0           0           0           0
           0           0           0           0           0           0
           0           0           0           0           0           0
           0           0           0           0           0           0
           0           0           0           0           0           0
           0           0           0           0           0           0
           0           0           0           0           0           0
           0           0           0           0           0           0
           0           0           0           0           0           0
           0           0           0           0           0           0
           0           0           0           0           0           0
           0           0           0           0           0           0
           0           0           0           0           0           0
           0           0           0           0           0           0
           0           0           0           0           0           0
           0           0           0           0           0           0
           0           0           0           0           0           0
           0           0           0           0           0           0
           0           0           0           0           0           0
           0           0           0           0           0           0
           0           0           0           0           0           0
           0           0           0           0           0           0
           0           0           0           0           0           0
           0           0           0           0           0           0
           0           0           0           0           0           0
           0           0           0           0           0           0
           0           0           0           0           0           0
           0           0           0           0           0           0
           0           0           0           0           0           0
           0           0           0           0           0           0
           0           0           0           0           0           0
           0           0           0           0           0           0
           0           0           0           0           0           0
           0           0           0           0           0           0
           0           0           0           0           0           0
           0           0           0           0           0           0
           0           0           0           0           0           0
           0           0           0           0           0           0
           0           0           0           0           0           0
           0           0           0           0           0           0
           0           0           0           0           0           0
           0           0           0           0           0           0
           0           0           0           0           0           0
           0           0           0           0           0           0
           0           0           0           0           0           0
           0           0           0           0           0           0
           0           0           0           0           0           0
           0           0           0           0           0           0
           0           0           0           0           0           0
           0           0           0           0           0           0
           0           0           0           0           0           0
           0           0           0           0           0           0
           0           0           0           0           0           0
           0           0           0           0           0           0
           0           0           0           0           0           0
           0           0           0           0           0           0
           0           0           0           0           0           0
           0           0           0           0           0           0
           0           0           0           0           0           0
           0           0           0           0           0           0
           0           0           0           0           0           0
           0           0           0           0           0           0
           0           0           0           0           0           0
           0           0           0           0           0           0
           0           0           0           0           0           0
           0           0           0           0           0           0
           0           0           0           0           0           0
           0           0           0           0           0           0
           0           0           0           0           0           0
           0           0           0           0           0           0
           0           0           0           0           0           0
           0           0           0           0           0           0
           0           0           0           0           0           0
           0           0           0           0           0           0
           0           0           0           0           0           0
           0           0           0           0           0           0
           0           0           0           0           0           0
           0           0           0           0           0           0
           0           0           0           0           0           0
           0           0           0           0           0           0
           0           0           0           0           0           0
           0           0           0           0           0           0
           0           0           0           0           0           0
           0           0           0           0           0           0
           0           0           0           0           0           0
           0           0           0           0           0           0
           0           0           0           0           0           0
           0           0           0           0           0           0
           0           0           0           0           0           0
           0           0           0           0           0           0
           0           0           0           0           0           0
           0           0           0           0           0           0
           0           0           0           0           0           0
           0           0           0           0           0           0
           0           0           0           0           0           0
           0           0           0           0           0           0
           0           0           0           0           0           0
           0           0           0           0           0           0
           0           0           0           0           0           0
           0           0           0           0           0           0
           0           0           0           0           0           0
           0           0           0           0           0           0
           0           0           0           0           0           0
           0           0           0           0           0           0
           0           0           0           0           0           0
           0           0           0           0           0           0
           0           0           0           0           0           0
           0           0           0           0           0           0
           0           0           0           0           0           0
           0           0           0           0           0           0
           0           0           0           0           0           0
           0           0           0           0           0           0
           0           0           0           0           0           0
           0           0           0           0           0           0
           0           0           0           0           0           0
           0           0           0           0           0           0
           0           0           0           0           0           0
           0           0           0           0           0           0
           0           0           0           0           0           0
           0           0           0           0           0           0
           0           0           0           0           0           0
           0           0           0           0           0           0
           0           0           0           0           0           0
           0           0           0           0           0           0
           0           0           0           0           0           0
           0           0           0           0           0           0
           0           0           0           0           0           0
           0           0           0           0           0           0
           0           0           0           0           0           0
           0           0           0           0           0           0
           0           0           0           0           0           0
           0           0           0           0           0           0
           0           0           0           0           0           0
           0           0           0           0           0           0
           0           0           0           0           0           0
           0           0           0           0           0           0
           0           0           0           0           0           0
           0           0           0           0           0           0
           0           0           0           0           0           0
ClPar Real Params                          R   N=        3200
  0.00000000E+00  0.00000000E+00  0.00000000E+00  0.00000000E+00  0.00000000E+00
  0.00000000E+00  0.00000000E+00  0.00000000E+00  0.00000000E+00  0.00000000E+00
  0.00000000E+00  0.00000000E+00  0.00000000E+00  0.00000000E+00  0.00000000E+00
  0.00000000E+00  0.00000000E+00  0.00000000E+00  0.00000000E+00  0.00000000E+00
  0.00000000E+00  0.00000000E+00  0.00000000E+00  0.00000000E+00  0.00000000E+00
  0.00000000E+00  0.00000000E+00  0.00000000E+00  0.00000000E+00  0.00000000E+00
  0.00000000E+00  0.00000000E+00  0.00000000E+00  0.00000000E+00  0.00000000E+00
  0.00000000E+00  0.00000000E+00  0.00000000E+00  0.00000000E+00  0.00000000E+00
  0.00000000E+00  0.00000000E+00  0.00000000E+00  0.00000000E+00  0.00000000E+00
  0.00000000E+00  0.00000000E+00  0.00000000E+00  0.00000000E+00  0.00000000E+00
  0.00000000E+00  0.00000000E+00  0.00000000E+00  0.00000000E+00  0.00000000E+00
  0.00000000E+00  0.00000000E+00  0.00000000E+00  0.00000000E+00  0.00000000E+00
  0.00000000E+00  0.00000000E+00  0.00000000E+00  0.00000000E+00  0.00000000E+00
  0.00000000E+00  0.00000000E+00  0.00000000E+00  0.00000000E+00  0.00000000E+00
  0.00000000E+00  0.00000000E+00  0.00000000E+00  0.00000000E+00  0.00000000E+00
  0.00000000E+00  0.00000000E+00  0.00000000E+00  0.00000000E+00  0.00000000E+00
  0.00000000E+00  0.00000000E+00  0.00000000E+00  0.00000000E+00  0.00000000E+00
  0.00000000E+00  0.00000000E+00  0.00000000E+00  0.00000000E+00  0.00000000E+00
  0.00000000E+00  0.00000000E+00  0.00000000E+00  0.00000000E+00  0.00000000E+00
  0.00000000E+00  0.00000000E+00  0.00000000E+00  0.00000000E+00  0.00000000E+00
  0.00000000E+00  0.00000000E+00  0.00000000E+00  0.00000000E+00  0.00000000E+00
  0.00000000E+00  0.00000000E+00  0.00000000E+00  0.00000000E+00  0.00000000E+00
  0.00000000E+00  0.00000000E+00  0.00000000E+00  0.00000000E+00  0.00000000E+00
  0.00000000E+00  0.00000000E+00  0.00000000E+00  0.00000000E+00  0.00000000E+00
  0.00000000E+00  0.00000000E+00  0.00000000E+00  0.00000000E+00  0.00000000E+00
  0.00000000E+00  0.00000000E+00  0.00000000E+00  0.00000000E+00  0.00000000E+00
  0.00000000E+00  0.00000000E+00  0.00000000E+00  0.00000000E+00  0.00000000E+00
  0.00000000E+00  0.00000000E+00  0.00000000E+00  0.00000000E+00  0.00000000E+00
  0.00000000E+00  0.00000000E+00  0.00000000E+00  0.00000000E+00  0.00000000E+00
  0.00000000E+00  0.00000000E+00  0.00000000E+00  0.00000000E+00  0.00000000E+00
  0.00000000E+00  0.00000000E+00  0.00000000E+00  0.00000000E+00  0.00000000E+00
  0.00000000E+00  0.00000000E+00  0.00000000E+00  0.00000000E+00  0.00000000E+00
  0.00000000E+00  0.00000000E+00  0.00000000E+00  0.00000000E+00  0.00000000E+00
  0.00000000E+00  0.00000000E+00  0.00000000E+00  0.00000000E+00  0.00000000E+00
  0.00000000E+00  0.00000000E+00  0.00000000E+00  0.00000000E+00  0.00000000E+00
  0.00000000E+00  0.00000000E+00  0.00000000E+00  0.00000000E+00  0.00000000E+00
  0.00000000E+00  0.00000000E+00  0.00000000E+00  0.00000000E+00  0.00000000E+00
  0.00000000E+00  0.00000000E+00  0.00000000E+00  0.00000000E+00  0.00000000E+00
  0.00000000E+00  0.00000000E+00  0.00000000E+00  0.00000000E+00  0.00000000E+00
  0.00000000E+00  0.00000000E+00  0.00000000E+00  0.00000000E+00  0.00000000E+00
  2.26000000E-01  4.43000000E-01  1.01000000E-01  1.47000000E-01  1.92000000E-01
  2.40000000E-01  2.75000000E-01  3.03000000E-01  3.25000000E-01  4.13000000E-01
  9.60000000E-02  1.35000000E-01  1.73000000E-01  2.11000000E-01  2.48000000E-01
  2.86000000E-01  3.23000000E-01  3.60000000E-01  8.20000000E-02  1.04000000E-01
  1.17000000E-01  1.23000000E-01  1.29000000E-01  1.34000000E-01  1.40000000E-01
  1.44000000E-01  1.48000000E-01  1.52000000E-01  1.55000000E-01  1.76000000E-01
  1.98000000E-01  2.19000000E-01  2.39000000E-01  2.60000000E-01  2.80000000E-01
  3.00000000E-01  7.90000000E-02  9.90000000E-02  1.19000000E-01  1.26000000E-01
  1.33000000E-01  1.40000000E-01  1.47000000E-01  1.53000000E-01  1.58000000E-01
  1.63000000E-01  1.57000000E-01  1.70000000E-01  1.87000000E-01  2.03000000E-01
  2.19000000E-01  2.34000000E-01  2.50000000E-01  2.65000000E-01  7.40000000E-02
  9.20000000E-02  1.05000000E-01  1.06000000E-01  1.07000000E-01  1.08000000E-01
  1.09000000E-01  1.10000000E-01  1.11000000E-01  1.12000000E-01  1.13000000E-01
  1.14000000E-01  1.15000000E-01  1.16000000E-01  1.17000000E-01  1.17000000E-01
  1.26000000E-01  1.36000000E-01  1.46000000E-01  1.55000000E-01  1.65000000E-01
  1.73000000E-01  1.82000000E-01  1.90000000E-01  1.62000000E-01  1.78000000E-01
  1.10000000E-01  1.35000000E-01  1.59000000E-01  1.83000000E-01  2.07000000E-01
  2.31000000E-01  6.90000000E-02  9.40000000E-02  1.02000000E-01  1.03000000E-01
  1.05000000E-01  1.07000000E-01  1.09000000E-01  1.11000000E-01  1.13000000E-01
  1.15000000E-01  1.17000000E-01  1.19000000E-01  1.20000000E-01  1.22000000E-01
  1.24000000E-01  1.26000000E-01  1.28000000E-01  1.28000000E-01  1.28000000E-01
  1.28000000E-01  1.28000000E-01  1.28000000E-01  1.28000000E-01  1.28000000E-01
  1.28000000E-01  1.28000000E-01  1.28000000E-01  1.28000000E-01  1.28000000E-01
  1.28000000E-01  1.28000000E-01  1.28000000E-01  1.28000000E-01  1.28000000E-01
  1.28000000E-01  1.28000000E-01  1.28000000E-01  1.28000000E-01  1.28000000E-01
  1.28000000E-01  1.28000000E-01  1.28000000E-01  1.28000000E-01  1.28000000E-01
  1.28000000E-01  1.28000000E-01  1.28000000E-01  1.28000000E-01  1.28000000E-01
  1.28000000E-01  1.28000000E-01  1.28000000E-01  1.28000000E-01  1.28000000E-01
  1.28000000E-01  1.28000000E-01  1.28000000E-01  1.28000000E-01  1.28000000E-01
  1.28000000E-01  1.28000000E-01  1.28000000E-01  1.28000000E-01  1.28000000E-01
  1.28000000E-01  1.28000000E-01  1.28000000E-01  1.28000000E-01  1.28000000E-01
  1.28000000E-01  1.28000000E-01  1.28000000E-01  1.28000000E-01  1.28000000E-01
  1.28000000E-01  1.28000000E-01  1.28000000E-01  1.28000000E-01  1.28000000E-01
  1.28000000E-01  1.28000000E-01  1.28000000E-01  1.28000000E-01  1.28000000E-01
  1.28000000E-01  1.28000000E-01  1.28000000E-01  1.28000000E-01  1.28000000E-01
  1.28000000E-01  1.28000000E-01  1.28000000E-01  1.28000000E-01  1.28000000E-01
  1.28000000E-01  1.28000000E-01  1.28000000E-01  1.28000000E-01  1.28000000E-01
  1.28000000E-01  1.28000000E-01  1.28000000E-01  1.28000000E-01  1.28000000E-01
  1.28000000E-01  1.28000000E-01  1.28000000E-01  1.28000000E-01  1.28000000E-01
  1.28000000E-01  1.28000000E-01  1.28000000E-01  1.28000000E-01  1.28000000E-01
  5.47000000E-01  5.92000000E-01  5.99000000E-01  6.68000000E-01  6.98000000E-01
  7.18000000E-01  7.26000000E-01  7.36000000E-01  7.43000000E-01  7.45000000E-01
  6.07000000E-01  6.66000000E-01  6.93000000E-01  7.09000000E-01  7.20000000E-01
  7.29000000E-01  7.35000000E-01  7.40000000E-01  6.08000000E-01  7.34000000E-01
  7.46000000E-01  7.55000000E-01  7.61000000E-01  7.65000000E-01  7.67000000E-01
  7.60000000E-01  7.49000000E-01  7.33000000E-01  7.08000000E-01  6.48000000E-01
  6.88000000E-01  7.09000000E-01  7.22000000E-01  7.31000000E-01  7.38000000E-01
  7.44000000E-01  6.09000000E-01  7.30000000E-01  7.41000000E-01  7.52000000E-01
  7.58000000E-01  7.63000000E-01  7.66000000E-01  7.58000000E-01  7.48000000E-01
  7.33000000E-01  7.01000000E-01  6.45000000E-01  6.86000000E-01  7.08000000E-01
  7.22000000E-01  7.31000000E-01  7.38000000E-01  7.44000000E-01  6.08000000E-01
  7.28000000E-01  7.32000000E-01  7.32000000E-01  7.32000000E-01  7.32000000E-01
  7.32000000E-01  7.32000000E-01  7.32000000E-01  7.32000000E-01  7.32000000E-01
  7.31000000E-01  7.31000000E-01  7.31000000E-01  7.31000000E-01  7.46000000E-01
  7.37000000E-01  7.46000000E-01  7.51000000E-01  7.55000000E-01  7.58000000E-01
  7.47000000E-01  7.32000000E-01  7.11000000E-01  7.41000000E-01  7.07000000E-01
  7.47000000E-01  7.43000000E-01  7.42000000E-01  7.42000000E-01  7.43000000E-01
  7.44000000E-01  6.05000000E-01  7.24000000E-01  7.26000000E-01  7.26000000E-01
  7.27000000E-01  7.27000000E-01  7.27000000E-01  7.28000000E-01  7.28000000E-01
  7.28000000E-01  7.28000000E-01  7.28000000E-01  7.29000000E-01  7.29000000E-01
  7.29000000E-01  7.29000000E-01  7.29000000E-01  7.29000000E-01  7.29000000E-01
  7.29000000E-01  7.29000000E-01  7.29000000E-01  7.29000000E-01  7.29000000E-01
  7.29000000E-01  7.29000000E-01  7.29000000E-01  7.29000000E-01  7.29000000E-01
  7.29000000E-01  7.29000000E-01  7.29000000E-01  7.29000000E-01  7.29000000E-01
  7.29000000E-01  7.29000000E-01  7.29000000E-01  7.29000000E-01  7.29000000E-01
  7.29000000E-01  7.29000000E-01  7.29000000E-01  7.29000000E-01  7.29000000E-01
  7.29000000E-01  7.29000000E-01  7.29000000E-01  7.29000000E-01  7.29000000E-01
  7.29000000E-01  7.29000000E-01  7.29000000E-01  7.29000000E-01  7.29000000E-01
  7.29000000E-01  7.29000000E-01  7.29000000E-01  7.29000000E-01  7.29000000E-01
  7.29000000E-01  7.29000000E-01  7.29000000E-01  7.29000000E-01  7.29000000E-01
  7.29000000E-01  7.29000000E-01  7.29000000E-01  7.29000000E-01  7.29000000E-01
  7.29000000E-01  7.29000000E-01  7.29000000E-01  7.29000000E-01  7.29000000E-01
  7.29000000E-01  7.29000000E-01  7.29000000E-01  7.29000000E-01  7.29000000E-01
  7.29000000E-01  7.29000000E-01  7.29000000E-01  7.29000000E-01  7.29000000E-01
  7.29000000E-01  7.29000000E-01  7.29000000E-01  7.29000000E-01  7.29000000E-01
  7.29000000E-01  7.29000000E-01  7.29000000E-01  7.29000000E-01  7.29000000E-01
  7.29000000E-01  7.29000000E-01  7.29000000E-01  7.29000000E-01  7.29000000E-01
  7.29000000E-01  7.29000000E-01  7.29000000E-01  7.29000000E-01  7.29000000E-01
  7.29000000E-01  7.29000000E-01  7.29000000E-01  7.29000000E-01  7.29000000E-01
  7.29000000E-01  7.29000000E-01  7.29000000E-01  7.29000000E-01  7.29000000E-01
  1.00000000E+00  1.70400000E+00  3.23000000E-01  3.89000000E-01  4.67000000E-01
  5.67000000E-01  6.36000000E-01  6.64000000E-01  6.96000000E-01  8.79000000E-01
  3.07000000E-01  3.48000000E-01  4.00000000E-01  4.54000000E-01  5.09000000E-01
  5.65000000E-01  6.21000000E-01  6.77000000E-01  2.56000000E-01  3.50000000E-01
  3.64000000E-01  3.62000000E-01  3.62000000E-01  3.62000000E-01  3.62000000E-01
  3.65000000E-01  3.69000000E-01  3.75000000E-01  3.86000000E-01  4.46000000E-01
  4.55000000E-01  4.74000000E-01  4.96000000E-01  5.20000000E-01  5.45000000E-01
  5.70000000E-01  2.45000000E-01  3.22000000E-01  3.55000000E-01  3.59000000E-01
  3.64000000E-01  3.70000000E-01  3.76000000E-01  3.85000000E-01  3.95000000E-01
  4.08000000E-01  3.76000000E-01  4.23000000E-01  4.22000000E-01  4.32000000E-01
  4.45000000E-01  4.59000000E-01  4.75000000E-01  4.91000000E-01  2.28000000E-01
  2.92000000E-01  2.89000000E-01  2.92000000E-01  2.95000000E-01  2.98000000E-01
  3.00000000E-01  3.03000000E-01  3.06000000E-01  3.09000000E-01  3.12000000E-01
  3.15000000E-01  3.18000000E-01  3.21000000E-01  3.24000000E-01  3.61000000E-01
  3.69000000E-01  3.70000000E-01  3.72000000E-01  3.75000000E-01  3.78000000E-01
  3.85000000E-01  3.94000000E-01  4.07000000E-01  5.26000000E-01  6.21000000E-01
  3.36000000E-01  3.54000000E-01  3.71000000E-01  3.86000000E-01  4.02000000E-01
  4.17000000E-01  2.09000000E-01  2.94000000E-01  2.65000000E-01  2.72000000E-01
  2.78000000E-01  2.84000000E-01  2.91000000E-01  2.97000000E-01  3.03000000E-01
  3.10000000E-01  3.16000000E-01  3.22000000E-01  3.29000000E-01  3.35000000E-01
  3.41000000E-01  3.48000000E-01  3.54000000E-01  3.54000000E-01  3.54000000E-01
  3.54000000E-01  3.54000000E-01  3.54000000E-01  3.54000000E-01  3.54000000E-01
  3.54000000E-01  3.54000000E-01  3.54000000E-01  3.54000000E-01  3.54000000E-01
  3.54000000E-01  3.54000000E-01  3.54000000E-01  3.54000000E-01  3.54000000E-01
  3.54000000E-01  3.54000000E-01  3.54000000E-01  3.54000000E-01  3.54000000E-01
  3.54000000E-01  3.54000000E-01  3.54000000E-01  3.54000000E-01  3.54000000E-01
  3.54000000E-01  3.54000000E-01  3.54000000E-01  3.54000000E-01  3.54000000E-01
  3.54000000E-01  3.54000000E-01  3.54000000E-01  3.54000000E-01  3.54000000E-01
  3.54000000E-01  3.54000000E-01  3.54000000E-01  3.54000000E-01  3.54000000E-01
  3.54000000E-01  3.54000000E-01  3.54000000E-01  3.54000000E-01  3.54000000E-01
  3.54000000E-01  3.54000000E-01  3.54000000E-01  3.54000000E-01  3.54000000E-01
  3.54000000E-01  3.54000000E-01  3.54000000E-01  3.54000000E-01  3.54000000E-01
  3.54000000E-01  3.54000000E-01  3.54000000E-01  3.54000000E-01  3.54000000E-01
  3.54000000E-01  3.54000000E-01  3.54000000E-01  3.54000000E-01  3.54000000E-01
  3.54000000E-01  3.54000000E-01  3.54000000E-01  3.54000000E-01  3.54000000E-01
  3.54000000E-01  3.54000000E-01  3.54000000E-01  3.54000000E-01  3.54000000E-01
  3.54000000E-01  3.54000000E-01  3.54000000E-01  3.54000000E-01  3.54000000E-01
  3.54000000E-01  3.54000000E-01  3.54000000E-01  3.54000000E-01  3.54000000E-01
  3.54000000E-01  3.54000000E-01  3.54000000E-01  3.54000000E-01  3.54000000E-01
  3.54000000E-01  3.54000000E-01  3.54000000E-01  3.54000000E-01  3.54000000E-01
  2.74000000E-01  2.96000000E-01  5.80000000E-02  4.40000000E-02  3.90000000E-02
  3.90000000E-02  3.60000000E-02  3.20000000E-02  2.90000000E-02  3.30000000E-02
  5.50000000E-02  3.90000000E-02  3.30000000E-02  3.00000000E-02  2.80000000E-02
  2.60000000E-02  2.50000000E-02  2.50000000E-02  4.50000000E-02  4.40000000E-02
  3.30000000E-02  2.50000000E-02  2.10000000E-02  1.80000000E-02  1.50000000E-02
  1.80000000E-02  2.10000000E-02  2.50000000E-02  3.30000000E-02  5.00000000E-02
  3.80000000E-02  3.10000000E-02  2.70000000E-02  2.40000000E-02  2.20000000E-02
  2.10000000E-02  4.30000000E-02  4.00000000E-02  3.20000000E-02  2.50000000E-02
  2.10000000E-02  1.80000000E-02  1.60000000E-02  1.90000000E-02  2.20000000E-02
  2.80000000E-02  3.10000000E-02  4.70000000E-02  3.40000000E-02  2.80000000E-02
  2.40000000E-02  2.10000000E-02  1.90000000E-02  1.80000000E-02  3.90000000E-02
  3.60000000E-02  2.50000000E-02  2.50000000E-02  2.50000000E-02  2.60000000E-02
  2.60000000E-02  2.60000000E-02  2.70000000E-02  2.70000000E-02  2.70000000E-02
  2.70000000E-02  2.80000000E-02  2.80000000E-02  2.80000000E-02  3.30000000E-02
  3.30000000E-02  2.60000000E-02  2.10000000E-02  1.80000000E-02  1.60000000E-02
  1.80000000E-02  2.20000000E-02  2.60000000E-02  4.90000000E-02  8.20000000E-02
  3.00000000E-02  2.40000000E-02  2.10000000E-02  1.80000000E-02  1.60000000E-02
  1.50000000E-02  3.50000000E-02  3.60000000E-02  2.20000000E-02  2.30000000E-02
  2.40000000E-02  2.40000000E-02  2.50000000E-02  2.50000000E-02  2.60000000E-02
  2.70000000E-02  2.70000000E-02  2.80000000E-02  2.80000000E-02  2.90000000E-02
  3.00000000E-02  3.00000000E-02  3.10000000E-02  3.10000000E-02  3.10000000E-02
  3.10000000E-02  3.10000000E-02  3.10000000E-02  3.10000000E-02  3.10000000E-02
  3.10000000E-02  3.10000000E-02  3.10000000E-02  3.10000000E-02  3.10000000E-02
  3.10000000E-02  3.10000000E-02  3.10000000E-02  3.10000000E-02  3.10000000E-02
  3.10000000E-02  3.10000000E-02  3.10000000E-02  3.10000000E-02  3.10000000E-02
  3.10000000E-02  3.10000000E-02  3.10000000E-02  3.10000000E-02  3.10000000E-02
  3.10000000E-02  3.10000000E-02  3.10000000E-02  3.10000000E-02  3.10000000E-02
  3.10000000E-02  3.10000000E-02  3.10000000E-02  3.10000000E-02  3.10000000E-02
  3.10000000E-02  3.10000000E-02  3.10000000E-02  3.10000000E-02  3.10000000E-02
  3.10000000E-02  3.10000000E-02  3.10000000E-02  3.10000000E-02  3.10000000E-02
  3.10000000E-02  3.10000000E-02  3.10000000E-02  3.10000000E-02  3.10000000E-02
  3.10000000E-02  3.10000000E-02  3.10000000E-02  3.10000000E-02  3.10000000E-02
  3.10000000E-02  3.10000000E-02  3.10000000E-02  3.10000000E-02  3.10000000E-02
  3.10000000E-02  3.10000000E-02  3.10000000E-02  3.10000000E-02  3.10000000E-02
  3.10000000E-02  3.10000000E-02  3.10000000E-02  3.10000000E-02  3.10000000E-02
  3.10000000E-02  3.10000000E-02  3.10000000E-02  3.10000000E-02  3.10000000E-02
  3.10000000E-02  3.10000000E-02  3.10000000E-02  3.10000000E-02  3.10000000E-02
  3.10000000E-02  3.10000000E-02  3.10000000E-02  3.10000000E-02  3.10000000E-02
  3.10000000E-02  3.10000000E-02  3.10000000E-02  3.10000000E-02  3.10000000E-02
  3.10000000E-02  3.10000000E-02  3.10000000E-02  3.10000000E-02  3.10000000E-02
 -5.92770000E-01 -9.17860000E-01 -2.48668000E+00 -8.36430000E-01 -3.18470000E-01
 -4.55790000E-01 -5.70730000E-01 -6.77940000E-01 -7.69860000E-01 -8.51140000E-01
 -1.51908000E+00 -3.18830000E-01 -2.17900000E-01 -3.01260000E-01 -3.72750000E-01
 -4.15890000E-01 -4.45930000E-01 -5.91320000E-01 -9.56370000E-01 -2.88450000E-01
 -4.87320000E-01 -6.34280000E-01 -7.17490000E-01 -7.91980000E-01 -8.68490000E-01
 -9.17520000E-01 -9.54890000E-01 -9.88460000E-01 -1.50055000E+00 -2.92560000E-01
 -2.14960000E-01 -2.91180000E-01 -3.42080000E-01 -3.84480000E-01 -4.34940000E-01
 -5.24310000E-01 -8.10070000E-01 -2.58460000E-01 -4.35550000E-01 -5.32740000E-01
 -6.08450000E-01 -6.10260000E-01 -7.58920000E-01 -8.90130000E-01 -8.45780000E-01
 -8.69340000E-01 -1.38234000E+00 -2.64850000E-01 -1.97280000E-01 -2.65040000E-01
 -2.94470000E-01 -3.16570000E-01 -3.63590000E-01 -4.57840000E-01 -8.61830000E-01
 -1.33004000E+00 -6.82880000E-01 -6.25540000E-01 -6.35430000E-01 -8.79690000E-01
 -9.02690000E-01 -9.59650000E-01 -1.01869000E+00 -6.81170000E-01 -7.96500000E-01
 -9.04950000E-01 -8.34790000E-01 -9.01560000E-01 -9.74130000E-01 -1.03326000E+00
 -7.15490000E-01 -7.83960000E-01 -8.28380000E-01 -5.61040000E-01 -1.03841000E+00
 -8.62500000E-01 -9.59300000E-01 -1.01755000E+00 -7.64900000E-01 -1.29467000E+00
 -1.92740000E-01 -2.56010000E-01 -3.19820000E-01 -1.94660000E-01 -2.60090000E-01
 -4.27990000E-01  0.00000000E+00  0.00000000E+00  0.00000000E+00  0.00000000E+00
  0.00000000E+00  0.00000000E+00  0.00000000E+00  0.00000000E+00  0.00000000E+00
  0.00000000E+00  0.00000000E+00  0.00000000E+00  0.00000000E+00  0.00000000E+00
  0.00000000E+00  0.00000000E+00  0.00000000E+00  0.00000000E+00  0.00000000E+00
  0.00000000E+00  0.00000000E+00  0.00000000E+00  0.00000000E+00  0.00000000E+00
  0.00000000E+00  0.00000000E+00  0.00000000E+00  0.00000000E+00  0.00000000E+00
  0.00000000E+00  0.00000000E+00  0.00000000E+00  0.00000000E+00  0.00000000E+00
  0.00000000E+00  0.00000000E+00  0.00000000E+00  0.00000000E+00  0.00000000E+00
  0.00000000E+00  0.00000000E+00  0.00000000E+00  0.00000000E+00  0.00000000E+00
  0.00000000E+00  0.00000000E+00  0.00000000E+00  0.00000000E+00  0.00000000E+00
  0.00000000E+00  0.00000000E+00  0.00000000E+00  0.00000000E+00  0.00000000E+00
  0.00000000E+00  0.00000000E+00  0.00000000E+00  0.00000000E+00  0.00000000E+00
  0.00000000E+00  0.00000000E+00  0.00000000E+00  0.00000000E+00  0.00000000E+00
  0.00000000E+00  0.00000000E+00  0.00000000E+00  0.00000000E+00  0.00000000E+00
  0.00000000E+00  0.00000000E+00  0.00000000E+00  0.00000000E+00  0.00000000E+00
  0.00000000E+00  0.00000000E+00  0.00000000E+00  0.00000000E+00  0.00000000E+00
  0.00000000E+00  0.00000000E+00  0.00000000E+00  0.00000000E+00  0.00000000E+00
  0.00000000E+00  0.00000000E+00  0.00000000E+00  0.00000000E+00  0.00000000E+00
  0.00000000E+00  0.00000000E+00  0.00000000E+00  0.00000000E+00  0.00000000E+00
  0.00000000E+00  0.00000000E+00  0.00000000E+00  0.00000000E+00  0.00000000E+00
  0.00000000E+00  0.00000000E+00  0.00000000E+00  0.00000000E+00  0.00000000E+00
  0.00000000E+00  0.00000000E+00  0.00000000E+00  0.00000000E+00  0.00000000E+00
  0.00000000E+00  0.00000000E+00  0.00000000E+00  0.00000000E+00  0.00000000E+00
  1.90440000E+00  1.36430000E+00  4.84000000E-01  7.31600000E+00  9.24030000E+00
  8.78200000E+00  5.61290000E+00  4.83340000E+00  3.24870000E+00  2.71090000E+00
  2.01130000E+00  1.50282000E+01  1.46788000E+01  2.13546000E+01  2.38290000E+01
  1.98022000E+01  1.50468000E+01  1.09745000E+01  1.27219000E+01  1.51949000E+01
  1.57342000E+01  2.79222000E+01  1.61366000E+01  2.21252000E+01  2.45676000E+01
  1.96016000E+01  1.79818000E+01  1.72396000E+01  5.01500000E+00  1.92898000E+01
  2.34477000E+01  2.23993000E+01  2.96586000E+01  2.60081000E+01  2.15580000E+01
  1.69594000E+01  1.56479000E+01  1.86897000E+01  1.93530000E+01  3.43444000E+01
  1.98480000E+01  2.72140000E+01  3.02182000E+01  2.41099000E+01  2.21176000E+01
  2.12047000E+01  7.56690000E+00  2.37264000E+01  2.93879000E+01  3.01278000E+01
  4.19382000E+01  3.85203000E+01  3.39511000E+01  2.75774000E+01  1.56460000E+01
  1.04460000E+01  2.01830000E+01  4.99540000E+01  4.76430000E+01  1.18690000E+01
  1.08670000E+01  9.96100000E+00  9.18700000E+00  3.67980000E+01  1.34070000E+01
  9.38200000E+00  9.81700000E+00  8.90800000E+00  8.40700000E+00  8.05800000E+00
  1.29600000E+01  2.67920000E+01  2.49300000E+01  3.45630000E+01  1.11860000E+01
  1.09440000E+01  1.01270000E+01  9.40400000E+00  1.36660000E+01  7.81000000E+00
  6.93600000E+01  5.86630000E+01  4.79690000E+01  4.52740000E+01  3.92290000E+01
  3.30660000E+01  0.00000000E+00  0.00000000E+00  0.00000000E+00  0.00000000E+00
  0.00000000E+00  0.00000000E+00  0.00000000E+00  0.00000000E+00  0.00000000E+00
  0.00000000E+00  0.00000000E+00  0.00000000E+00  0.00000000E+00  0.00000000E+00
  0.00000000E+00  0.00000000E+00  0.00000000E+00  0.00000000E+00  0.00000000E+00
  0.00000000E+00  0.00000000E+00  0.00000000E+00  0.00000000E+00  0.00000000E+00
  0.00000000E+00  0.00000000E+00  0.00000000E+00  0.00000000E+00  0.00000000E+00
  0.00000000E+00  0.00000000E+00  0.00000000E+00  0.00000000E+00  0.00000000E+00
  0.00000000E+00  0.00000000E+00  0.00000000E+00  0.00000000E+00  0.00000000E+00
  0.00000000E+00  0.00000000E+00  0.00000000E+00  0.00000000E+00  0.00000000E+00
  0.00000000E+00  0.00000000E+00  0.00000000E+00  0.00000000E+00  0.00000000E+00
  0.00000000E+00  0.00000000E+00  0.00000000E+00  0.00000000E+00  0.00000000E+00
  0.00000000E+00  0.00000000E+00  0.00000000E+00  0.00000000E+00  0.00000000E+00
  0.00000000E+00  0.00000000E+00  0.00000000E+00  0.00000000E+00  0.00000000E+00
  0.00000000E+00  0.00000000E+00  0.00000000E+00  0.00000000E+00  0.00000000E+00
  0.00000000E+00  0.00000000E+00  0.00000000E+00  0.00000000E+00  0.00000000E+00
  0.00000000E+00  0.00000000E+00  0.00000000E+00  0.00000000E+00  0.00000000E+00
  0.00000000E+00  0.00000000E+00  0.00000000E+00  0.00000000E+00  0.00000000E+00
  0.00000000E+00  0.00000000E+00  0.00000000E+00  0.00000000E+00  0.00000000E+00
  0.00000000E+00  0.00000000E+00  0.00000000E+00  0.00000000E+00  0.00000000E+00
  0.00000000E+00  0.00000000E+00  0.00000000E+00  0.00000000E+00  0.00000000E+00
  0.00000000E+00  0.00000000E+00  0.00000000E+00  0.00000000E+00  0.00000000E+00
  0.00000000E+00  0.00000000E+00  0.00000000E+00  0.00000000E+00  0.00000000E+00
  0.00000000E+00  0.00000000E+00  0.00000000E+00  0.00000000E+00  0.00000000E+00
  0.00000000E+00  0.00000000E+00  0.00000000E+00  0.00000000E+00  0.00000000E+00
  0.00000000E+00  0.00000000E+00  0.00000000E+00  0.00000000E+00  0.00000000E+00
  0.00000000E+00  0.00000000E+00  0.00000000E+00  0.00000000E+00  0.00000000E+00
  0.00000000E+00  0.00000000E+00  0.00000000E+00  0.00000000E+00  0.00000000E+00
  0.00000000E+00  0.00000000E+00  0.00000000E+00  0.00000000E+00  0.00000000E+00
  0.00000000E+00  0.00000000E+00  0.00000000E+00  0.00000000E+00  0.00000000E+00
  0.00000000E+00  0.00000000E+00  0.00000000E+00  0.00000000E+00  0.00000000E+00
  0.00000000E+00  0.00000000E+00  0.00000000E+00  0.00000000E+00  0.00000000E+00
  0.00000000E+00  0.00000000E+00  0.00000000E+00  0.00000000E+00  0.00000000E+00
  0.00000000E+00  0.00000000E+00  0.00000000E+00  0.00000000E+00  0.00000000E+00
  0.00000000E+00  0.00000000E+00  0.00000000E+00  0.00000000E+00  0.00000000E+00
  0.00000000E+00  0.00000000E+00  0.00000000E+00  0.00000000E+00  0.00000000E+00
  0.00000000E+00  0.00000000E+00  0.00000000E+00  0.00000000E+00  0.00000000E+00
  0.00000000E+00  0.00000000E+00  0.00000000E+00  0.00000000E+00  0.00000000E+00
  0.00000000E+00  0.00000000E+00  0.00000000E+00  0.00000000E+00  0.00000000E+00
  0.00000000E+00  0.00000000E+00  0.00000000E+00  0.00000000E+00  0.00000000E+00
  0.00000000E+00  0.00000000E+00  0.00000000E+00  0.00000000E+00  0.00000000E+00
  0.00000000E+00  0.00000000E+00  0.00000000E+00  0.00000000E+00  0.00000000E+00
  0.00000000E+00  0.00000000E+00  0.00000000E+00  0.00000000E+00  0.00000000E+00
  0.00000000E+00  0.00000000E+00  0.00000000E+00  0.00000000E+00  0.00000000E+00
  0.00000000E+00  0.00000000E+00  0.00000000E+00  0.00000000E+00  0.00000000E+00
  0.00000000E+00  0.00000000E+00  0.00000000E+00  0.00000000E+00  0.00000000E+00
  0.00000000E+00  0.00000000E+00  0.00000000E+00  0.00000000E+00  0.00000000E+00
  0.00000000E+00  0.00000000E+00  0.00000000E+00  0.00000000E+00  0.00000000E+00
  0.00000000E+00  0.00000000E+00  0.00000000E+00  0.00000000E+00  0.00000000E+00
  0.00000000E+00  0.00000000E+00  0.00000000E+00  0.00000000E+00  0.00000000E+00
  0.00000000E+00  0.00000000E+00  0.00000000E+00  0.00000000E+00  0.00000000E+00
  0.00000000E+00  0.00000000E+00  0.00000000E+00  0.00000000E+00  0.00000000E+00
  0.00000000E+00  0.00000000E+00  0.00000000E+00  0.00000000E+00  0.00000000E+00
  0.00000000E+00  0.00000000E+00  0.00000000E+00  0.00000000E+00  0.00000000E+00
  0.00000000E+00  0.00000000E+00  0.00000000E+00  0.00000000E+00  0.00000000E+00
  0.00000000E+00  0.00000000E+00  0.00000000E+00  0.00000000E+00  0.00000000E+00
  0.00000000E+00  0.00000000E+00  0.00000000E+00  0.00000000E+00  0.00000000E+00
  0.00000000E+00  0.00000000E+00  0.00000000E+00  0.00000000E+00  0.00000000E+00
  0.00000000E+00  0.00000000E+00  0.00000000E+00  0.00000000E+00  0.00000000E+00
  0.00000000E+00  0.00000000E+00  0.00000000E+00  0.00000000E+00  0.00000000E+00
  0.00000000E+00  0.00000000E+00  0.00000000E+00  0.00000000E+00  0.00000000E+00
  0.00000000E+00  0.00000000E+00  0.00000000E+00  0.00000000E+00  0.00000000E+00
  0.00000000E+00  0.00000000E+00  0.00000000E+00  0.00000000E+00  0.00000000E+00
  0.00000000E+00  0.00000000E+00  0.00000000E+00  0.00000000E+00  0.00000000E+00
  0.00000000E+00  0.00000000E+00  0.00000000E+00  0.00000000E+00  0.00000000E+00
  0.00000000E+00  0.00000000E+00  0.00000000E+00  0.00000000E+00  0.00000000E+00
  0.00000000E+00  0.00000000E+00  0.00000000E+00  0.00000000E+00  0.00000000E+00
  0.00000000E+00  0.00000000E+00  0.00000000E+00  0.00000000E+00  0.00000000E+00
  0.00000000E+00  0.00000000E+00  0.00000000E+00  0.00000000E+00  0.00000000E+00
  0.00000000E+00  0.00000000E+00  0.00000000E+00  0.00000000E+00  0.00000000E+00
  0.00000000E+00  0.00000000E+00  0.00000000E+00  0.00000000E+00  0.00000000E+00
  0.00000000E+00  0.00000000E+00  0.00000000E+00  0.00000000E+00  0.00000000E+00
  0.00000000E+00  0.00000000E+00  0.00000000E+00  0.00000000E+00  0.00000000E+00
  0.00000000E+00  0.00000000E+00  0.00000000E+00  0.00000000E+00  0.00000000E+00
  0.00000000E+00  0.00000000E+00  0.00000000E+00  0.00000000E+00  0.00000000E+00
  0.00000000E+00  0.00000000E+00  0.00000000E+00  0.00000000E+00  0.00000000E+00
  0.00000000E+00  0.00000000E+00  0.00000000E+00  0.00000000E+00  0.00000000E+00
  0.00000000E+00  0.00000000E+00  0.00000000E+00  0.00000000E+00  0.00000000E+00
  0.00000000E+00  0.00000000E+00  0.00000000E+00  0.00000000E+00  0.00000000E+00
  0.00000000E+00  0.00000000E+00  0.00000000E+00  0.00000000E+00  0.00000000E+00
  0.00000000E+00  0.00000000E+00  0.00000000E+00  0.00000000E+00  0.00000000E+00
  0.00000000E+00  0.00000000E+00  0.00000000E+00  0.00000000E+00  0.00000000E+00
  0.00000000E+00  0.00000000E+00  0.00000000E+00  0.00000000E+00  0.00000000E+00
  0.00000000E+00  0.00000000E+00  0.00000000E+00  0.00000000E+00  0.00000000E+00
  0.00000000E+00  0.00000000E+00  0.00000000E+00  0.00000000E+00  0.00000000E+00
  0.00000000E+00  0.00000000E+00  0.00000000E+00  0.00000000E+00  0.00000000E+00
  0.00000000E+00  0.00000000E+00  0.00000000E+00  0.00000000E+00  0.00000000E+00
  0.00000000E+00  0.00000000E+00  0.00000000E+00  0.00000000E+00  0.00000000E+00
  0.00000000E+00  0.00000000E+00  0.00000000E+00  0.00000000E+00  0.00000000E+00
  0.00000000E+00  0.00000000E+00  0.00000000E+00  0.00000000E+00  0.00000000E+00
  0.00000000E+00  0.00000000E+00  0.00000000E+00  0.00000000E+00  0.00000000E+00
  0.00000000E+00  0.00000000E+00  0.00000000E+00  0.00000000E+00  0.00000000E+00
  0.00000000E+00  0.00000000E+00  0.00000000E+00  0.00000000E+00  0.00000000E+00
  0.00000000E+00  0.00000000E+00  0.00000000E+00  0.00000000E+00  0.00000000E+00
  0.00000000E+00  0.00000000E+00  0.00000000E+00  0.00000000E+00  0.00000000E+00
  0.00000000E+00  0.00000000E+00  0.00000000E+00  0.00000000E+00  0.00000000E+00
  0.00000000E+00  0.00000000E+00  0.00000000E+00  0.00000000E+00  0.00000000E+00
  0.00000000E+00  0.00000000E+00  0.00000000E+00  0.00000000E+00  0.00000000E+00
  0.00000000E+00  0.00000000E+00  0.00000000E+00  0.00000000E+00  0.00000000E+00
  0.00000000E+00  0.00000000E+00  0.00000000E+00  0.00000000E+00  0.00000000E+00
  0.00000000E+00  0.00000000E+00  0.00000000E+00  0.00000000E+00  0.00000000E+00
  0.00000000E+00  0.00000000E+00  0.00000000E+00  0.00000000E+00  0.00000000E+00
  0.00000000E+00  0.00000000E+00  0.00000000E+00  0.00000000E+00  0.00000000E+00
  0.00000000E+00  0.00000000E+00  0.00000000E+00  0.00000000E+00  0.00000000E+00
  0.00000000E+00  0.00000000E+00  0.00000000E+00  0.00000000E+00  0.00000000E+00
  0.00000000E+00  0.00000000E+00  0.00000000E+00  0.00000000E+00  0.00000000E+00
  0.00000000E+00  0.00000000E+00  0.00000000E+00  0.00000000E+00  0.00000000E+00
  0.00000000E+00  0.00000000E+00  0.00000000E+00  0.00000000E+00  0.00000000E+00
  0.00000000E+00  0.00000000E+00  0.00000000E+00  0.00000000E+00  0.00000000E+00
  0.00000000E+00  0.00000000E+00  0.00000000E+00  0.00000000E+00  0.00000000E+00
  0.00000000E+00  0.00000000E+00  0.00000000E+00  0.00000000E+00  0.00000000E+00
  0.00000000E+00  0.00000000E+00  0.00000000E+00  0.00000000E+00  0.00000000E+00
  0.00000000E+00  0.00000000E+00  0.00000000E+00  0.00000000E+00  0.00000000E+00
  0.00000000E+00  0.00000000E+00  0.00000000E+00  0.00000000E+00  0.00000000E+00
  0.00000000E+00  0.00000000E+00  0.00000000E+00  0.00000000E+00  0.00000000E+00
  0.00000000E+00  0.00000000E+00  0.00000000E+00  0.00000000E+00  0.00000000E+00
  0.00000000E+00  0.00000000E+00  0.00000000E+00  0.00000000E+00  0.00000000E+00
  0.00000000E+00  0.00000000E+00  0.00000000E+00  0.00000000E+00  0.00000000E+00
  0.00000000E+00  0.00000000E+00  0.00000000E+00  0.00000000E+00  0.00000000E+00
  0.00000000E+00  0.00000000E+00  0.00000000E+00  0.00000000E+00  0.00000000E+00
  0.00000000E+00  0.00000000E+00  0.00000000E+00  0.00000000E+00  0.00000000E+00
  0.00000000E+00  0.00000000E+00  0.00000000E+00  0.00000000E+00  0.00000000E+00
  0.00000000E+00  0.00000000E+00  0.00000000E+00  0.00000000E+00  0.00000000E+00
  0.00000000E+00  0.00000000E+00  0.00000000E+00  0.00000000E+00  0.00000000E+00
  0.00000000E+00  0.00000000E+00  0.00000000E+00  0.00000000E+00  0.00000000E+00
  0.00000000E+00  0.00000000E+00  0.00000000E+00  0.00000000E+00  0.00000000E+00
  0.00000000E+00  0.00000000E+00  0.00000000E+00  0.00000000E+00  0.00000000E+00
  0.00000000E+00  0.00000000E+00  0.00000000E+00  0.00000000E+00  0.00000000E+00
  0.00000000E+00  0.00000000E+00  0.00000000E+00  0.00000000E+00  0.00000000E+00
  0.00000000E+00  0.00000000E+00  0.00000000E+00  0.00000000E+00  0.00000000E+00
  0.00000000E+00  0.00000000E+00  0.00000000E+00  0.00000000E+00  0.00000000E+00
  0.00000000E+00  0.00000000E+00  0.00000000E+00  0.00000000E+00  0.00000000E+00
  0.00000000E+00  0.00000000E+00  0.00000000E+00  0.00000000E+00  0.00000000E+00
  0.00000000E+00  0.00000000E+00  0.00000000E+00  0.00000000E+00  0.00000000E+00
  0.00000000E+00  0.00000000E+00  0.00000000E+00  0.00000000E+00  0.00000000E+00
  0.00000000E+00  0.00000000E+00  0.00000000E+00  0.00000000E+00  0.00000000E+00
  0.00000000E+00  0.00000000E+00  0.00000000E+00  0.00000000E+00  0.00000000E+00
  0.00000000E+00  0.00000000E+00  0.00000000E+00  0.00000000E+00  0.00000000E+00
  0.00000000E+00  0.00000000E+00  0.00000000E+00  0.00000000E+00  0.00000000E+00
  0.00000000E+00  0.00000000E+00  0.00000000E+00  0.00000000E+00  0.00000000E+00
  0.00000000E+00  0.00000000E+00  0.00000000E+00  0.00000000E+00  0.00000000E+00
  0.00000000E+00  0.00000000E+00  0.00000000E+00  0.00000000E+00  0.00000000E+00
  0.00000000E+00  0.00000000E+00  0.00000000E+00  0.00000000E+00  0.00000000E+00
  0.00000000E+00  0.00000000E+00  0.00000000E+00  0.00000000E+00  0.00000000E+00
  0.00000000E+00  0.00000000E+00  0.00000000E+00  0.00000000E+00  0.00000000E+00
  0.00000000E+00  0.00000000E+00  0.00000000E+00  0.00000000E+00  0.00000000E+00
  0.00000000E+00  0.00000000E+00  0.00000000E+00  0.00000000E+00  0.00000000E+00
  0.00000000E+00  0.00000000E+00  0.00000000E+00  0.00000000E+00  0.00000000E+00
  0.00000000E+00  0.00000000E+00  0.00000000E+00  0.00000000E+00  0.00000000E+00
  0.00000000E+00  0.00000000E+00  0.00000000E+00  0.00000000E+00  0.00000000E+00
  0.00000000E+00  0.00000000E+00  0.00000000E+00  0.00000000E+00  0.00000000E+00
  0.00000000E+00  0.00000000E+00  0.00000000E+00  0.00000000E+00  0.00000000E+00
  0.00000000E+00  0.00000000E+00  0.00000000E+00  0.00000000E+00  0.00000000E+00
  0.00000000E+00  0.00000000E+00  0.00000000E+00  0.00000000E+00  0.00000000E+00
  0.00000000E+00  0.00000000E+00  0.00000000E+00  0.00000000E+00  0.00000000E+00
  0.00000000E+00  0.00000000E+00  0.00000000E+00  0.00000000E+00  0.00000000E+00
  0.00000000E+00  0.00000000E+00  0.00000000E+00  0.00000000E+00  0.00000000E+00
  0.00000000E+00  0.00000000E+00  0.00000000E+00  0.00000000E+00  0.00000000E+00
  0.00000000E+00  0.00000000E+00  0.00000000E+00  0.00000000E+00  0.00000000E+00
  0.00000000E+00  0.00000000E+00  0.00000000E+00  0.00000000E+00  0.00000000E+00
  0.00000000E+00  0.00000000E+00  0.00000000E+00  0.00000000E+00  0.00000000E+00
  0.00000000E+00  0.00000000E+00  0.00000000E+00  0.00000000E+00  0.00000000E+00
  0.00000000E+00  0.00000000E+00  0.00000000E+00  0.00000000E+00  0.00000000E+00
  0.00000000E+00  0.00000000E+00  0.00000000E+00  0.00000000E+00  0.00000000E+00
  0.00000000E+00  0.00000000E+00  0.00000000E+00  0.00000000E+00  0.00000000E+00
  0.00000000E+00  0.00000000E+00  0.00000000E+00  0.00000000E+00  0.00000000E+00
  0.00000000E+00  0.00000000E+00  0.00000000E+00  0.00000000E+00  0.00000000E+00
  0.00000000E+00  0.00000000E+00  0.00000000E+00  0.00000000E+00  0.00000000E+00
  0.00000000E+00  0.00000000E+00  0.00000000E+00  0.00000000E+00  0.00000000E+00
  0.00000000E+00  0.00000000E+00  0.00000000E+00  0.00000000E+00  0.00000000E+00
  0.00000000E+00  0.00000000E+00  0.00000000E+00  0.00000000E+00  0.00000000E+00
  0.00000000E+00  0.00000000E+00  0.00000000E+00  0.00000000E+00  0.00000000E+00
  0.00000000E+00  0.00000000E+00  0.00000000E+00  0.00000000E+00  0.00000000E+00
  0.00000000E+00  0.00000000E+00  0.00000000E+00  0.00000000E+00  0.00000000E+00
  0.00000000E+00  0.00000000E+00  0.00000000E+00  0.00000000E+00  0.00000000E+00
  0.00000000E+00  0.00000000E+00  0.00000000E+00  0.00000000E+00  0.00000000E+00
  0.00000000E+00  0.00000000E+00  0.00000000E+00  0.00000000E+00  0.00000000E+00
  0.00000000E+00  0.00000000E+00  0.00000000E+00  0.00000000E+00  0.00000000E+00
  0.00000000E+00  0.00000000E+00  0.00000000E+00  0.00000000E+00  0.00000000E+00
  0.00000000E+00  0.00000000E+00  0.00000000E+00  0.00000000E+00  0.00000000E+00
  0.00000000E+00  0.00000000E+00  0.00000000E+00  0.00000000E+00  0.00000000E+00
  0.00000000E+00  0.00000000E+00  0.00000000E+00  0.00000000E+00  0.00000000E+00
  0.00000000E+00  0.00000000E+00  0.00000000E+00  0.00000000E+00  0.00000000E+00
  0.00000000E+00  0.00000000E+00  0.00000000E+00  0.00000000E+00  0.00000000E+00
  0.00000000E+00  0.00000000E+00  0.00000000E+00  0.00000000E+00  0.00000000E+00
  0.00000000E+00  0.00000000E+00  0.00000000E+00  0.00000000E+00  0.00000000E+00
  0.00000000E+00  0.00000000E+00  0.00000000E+00  0.00000000E+00  0.00000000E+00
  0.00000000E+00  0.00000000E+00  0.00000000E+00  0.00000000E+00  0.00000000E+00
  0.00000000E+00  0.00000000E+00  0.00000000E+00  0.00000000E+00  0.00000000E+00
  0.00000000E+00  0.00000000E+00  0.00000000E+00  0.00000000E+00  0.00000000E+00
  0.00000000E+00  0.00000000E+00  0.00000000E+00  0.00000000E+00  0.00000000E+00
  0.00000000E+00  0.00000000E+00  0.00000000E+00  0.00000000E+00  0.00000000E+00
  0.00000000E+00  0.00000000E+00  0.00000000E+00  0.00000000E+00  0.00000000E+00
  0.00000000E+00  0.00000000E+00  0.00000000E+00  0.00000000E+00  0.00000000E+00
  0.00000000E+00  0.00000000E+00  0.00000000E+00  0.00000000E+00  0.00000000E+00
  0.00000000E+00  0.00000000E+00  0.00000000E+00  0.00000000E+00  0.00000000E+00
  0.00000000E+00  0.00000000E+00  0.00000000E+00  0.00000000E+00  0.00000000E+00
  0.00000000E+00  0.00000000E+00  0.00000000E+00  0.00000000E+00  0.00000000E+00
  0.00000000E+00  0.00000000E+00  0.00000000E+00  0.00000000E+00  0.00000000E+00
  0.00000000E+00  0.00000000E+00  0.00000000E+00  0.00000000E+00  0.00000000E+00
  0.00000000E+00  0.00000000E+00  0.00000000E+00  0.00000000E+00  0.00000000E+00
  0.00000000E+00  0.00000000E+00  0.00000000E+00  0.00000000E+00  0.00000000E+00
  0.00000000E+00  0.00000000E+00  0.00000000E+00  0.00000000E+00  0.00000000E+00
  0.00000000E+00  0.00000000E+00  0.00000000E+00  0.00000000E+00  0.00000000E+00
  0.00000000E+00  0.00000000E+00  0.00000000E+00  0.00000000E+00  0.00000000E+00
  0.00000000E+00  0.00000000E+00  0.00000000E+00  0.00000000E+00  0.00000000E+00
  0.00000000E+00  0.00000000E+00  0.00000000E+00  0.00000000E+00  0.00000000E+00
  0.00000000E+00  0.00000000E+00  0.00000000E+00  0.00000000E+00  0.00000000E+00
  0.00000000E+00  0.00000000E+00  0.00000000E+00  0.00000000E+00  0.00000000E+00
  0.00000000E+00  0.00000000E+00  0.00000000E+00  0.00000000E+00  0.00000000E+00
  0.00000000E+00  0.00000000E+00  0.00000000E+00  0.00000000E+00  0.00000000E+00
  0.00000000E+00  0.00000000E+00  0.00000000E+00  0.00000000E+00  0.00000000E+00
  0.00000000E+00  0.00000000E+00  0.00000000E+00  0.00000000E+00  0.00000000E+00
  0.00000000E+00  0.00000000E+00  0.00000000E+00  0.00000000E+00  0.00000000E+00
  0.00000000E+00  0.00000000E+00  0.00000000E+00  0.00000000E+00  0.00000000E+00
  0.00000000E+00  0.00000000E+00  0.00000000E+00  0.00000000E+00  0.00000000E+00
  0.00000000E+00  0.00000000E+00  0.00000000E+00  0.00000000E+00  0.00000000E+00
  0.00000000E+00  0.00000000E+00  0.00000000E+00  0.00000000E+00  0.00000000E+00
  0.00000000E+00  0.00000000E+00  0.00000000E+00  0.00000000E+00  0.00000000E+00
  0.00000000E+00  0.00000000E+00  0.00000000E+00  0.00000000E+00  0.00000000E+00
  0.00000000E+00  0.00000000E+00  0.00000000E+00  0.00000000E+00  0.00000000E+00
  0.00000000E+00  0.00000000E+00  0.00000000E+00  0.00000000E+00  0.00000000E+00
  0.00000000E+00  0.00000000E+00  0.00000000E+00  0.00000000E+00  0.00000000E+00
  0.00000000E+00  0.00000000E+00  0.00000000E+00  0.00000000E+00  0.00000000E+00
  0.00000000E+00  0.00000000E+00  0.00000000E+00  0.00000000E+00  0.00000000E+00
  0.00000000E+00  0.00000000E+00  0.00000000E+00  0.00000000E+00  0.00000000E+00
  0.00000000E+00  0.00000000E+00  0.00000000E+00  0.00000000E+00  0.00000000E+00
  0.00000000E+00  0.00000000E+00  0.00000000E+00  0.00000000E+00  0.00000000E+00
  0.00000000E+00  0.00000000E+00  0.00000000E+00  0.00000000E+00  0.00000000E+00
  0.00000000E+00  0.00000000E+00  0.00000000E+00  0.00000000E+00  0.00000000E+00
  0.00000000E+00  0.00000000E+00  0.00000000E+00  0.00000000E+00  0.00000000E+00
  0.00000000E+00  0.00000000E+00  0.00000000E+00  0.00000000E+00  0.00000000E+00
  0.00000000E+00  0.00000000E+00  0.00000000E+00  0.00000000E+00  0.00000000E+00
  0.00000000E+00  0.00000000E+00  0.00000000E+00  0.00000000E+00  0.00000000E+00
  0.00000000E+00  0.00000000E+00  0.00000000E+00  0.00000000E+00  0.00000000E+00
  0.00000000E+00  0.00000000E+00  0.00000000E+00  0.00000000E+00  0.00000000E+00
  0.00000000E+00  0.00000000E+00  0.00000000E+00  0.00000000E+00  0.00000000E+00
  0.00000000E+00  0.00000000E+00  0.00000000E+00  0.00000000E+00  0.00000000E+00
  0.00000000E+00  0.00000000E+00  0.00000000E+00  0.00000000E+00  0.00000000E+00
  0.00000000E+00  0.00000000E+00  0.00000000E+00  0.00000000E+00  0.00000000E+00
  0.00000000E+00  0.00000000E+00  0.00000000E+00  0.00000000E+00  0.00000000E+00
  0.00000000E+00  0.00000000E+00  0.00000000E+00  0.00000000E+00  0.00000000E+00
  0.00000000E+00  0.00000000E+00  0.00000000E+00  0.00000000E+00  0.00000000E+00
  0.00000000E+00  0.00000000E+00  0.00000000E+00  0.00000000E+00  0.00000000E+00
  0.00000000E+00  0.00000000E+00  0.00000000E+00  0.00000000E+00  0.00000000E+00
  0.00000000E+00  0.00000000E+00  0.00000000E+00  0.00000000E+00  0.00000000E+00
  0.00000000E+00  0.00000000E+00  0.00000000E+00  0.00000000E+00  0.00000000E+00
  0.00000000E+00  0.00000000E+00  0.00000000E+00  0.00000000E+00  0.00000000E+00
  0.00000000E+00  0.00000000E+00  0.00000000E+00  0.00000000E+00  0.00000000E+00
  0.00000000E+00  0.00000000E+00  0.00000000E+00  0.00000000E+00  0.00000000E+00
  0.00000000E+00  0.00000000E+00  0.00000000E+00  0.00000000E+00  0.00000000E+00
  0.00000000E+00  0.00000000E+00  0.00000000E+00  0.00000000E+00  0.00000000E+00
  0.00000000E+00  0.00000000E+00  0.00000000E+00  0.00000000E+00  0.00000000E+00
  0.00000000E+00  0.00000000E+00  0.00000000E+00  0.00000000E+00  0.00000000E+00
  0.00000000E+00  0.00000000E+00  0.00000000E+00  0.00000000E+00  0.00000000E+00
  0.00000000E+00  0.00000000E+00  0.00000000E+00  0.00000000E+00  0.00000000E+00
  0.00000000E+00  0.00000000E+00  0.00000000E+00  0.00000000E+00  0.00000000E+00
  0.00000000E+00  0.00000000E+00  0.00000000E+00  0.00000000E+00  0.00000000E+00
  0.00000000E+00  0.00000000E+00  0.00000000E+00  0.00000000E+00  0.00000000E+00
  0.00000000E+00  0.00000000E+00  0.00000000E+00  0.00000000E+00  0.00000000E+00
  0.00000000E+00  0.00000000E+00  0.00000000E+00  0.00000000E+00  0.00000000E+00
  0.00000000E+00  0.00000000E+00  0.00000000E+00  0.00000000E+00  0.00000000E+00
  0.00000000E+00  0.00000000E+00  0.00000000E+00  0.00000000E+00  0.00000000E+00
  0.00000000E+00  0.00000000E+00  0.00000000E+00  0.00000000E+00  0.00000000E+00
  0.00000000E+00  0.00000000E+00  0.00000000E+00  0.00000000E+00  0.00000000E+00
  0.00000000E+00  0.00000000E+00  0.00000000E+00  0.00000000E+00  0.00000000E+00
  0.00000000E+00  0.00000000E+00  0.00000000E+00  0.00000000E+00  0.00000000E+00
  0.00000000E+00  0.00000000E+00  0.00000000E+00  0.00000000E+00  0.00000000E+00
  0.00000000E+00  0.00000000E+00  0.00000000E+00  0.00000000E+00  0.00000000E+00
  0.00000000E+00  0.00000000E+00  0.00000000E+00  0.00000000E+00  0.00000000E+00
  0.00000000E+00  0.00000000E+00  0.00000000E+00  0.00000000E+00  0.00000000E+00
  0.00000000E+00  0.00000000E+00  0.00000000E+00  0.00000000E+00  0.00000000E+00
  0.00000000E+00  0.00000000E+00  0.00000000E+00  0.00000000E+00  0.00000000E+00
  0.00000000E+00  0.00000000E+00  0.00000000E+00  0.00000000E+00  0.00000000E+00
  0.00000000E+00  0.00000000E+00  0.00000000E+00  0.00000000E+00  0.00000000E+00
  0.00000000E+00  0.00000000E+00  0.00000000E+00  0.00000000E+00  0.00000000E+00
  0.00000000E+00  0.00000000E+00  0.00000000E+00  0.00000000E+00  0.00000000E+00
  0.00000000E+00  0.00000000E+00  0.00000000E+00  0.00000000E+00  0.00000000E+00
  0.00000000E+00  0.00000000E+00  0.00000000E+00  0.00000000E+00  0.00000000E+00
  0.00000000E+00  0.00000000E+00  0.00000000E+00  0.00000000E+00  0.00000000E+00
  0.00000000E+00  0.00000000E+00  0.00000000E+00  0.00000000E+00  0.00000000E+00
  0.00000000E+00  0.00000000E+00  0.00000000E+00  0.00000000E+00  0.00000000E+00
  0.00000000E+00  0.00000000E+00  0.00000000E+00  0.00000000E+00  0.00000000E+00
  0.00000000E+00  0.00000000E+00  0.00000000E+00  0.00000000E+00  0.00000000E+00
  0.00000000E+00  0.00000000E+00  0.00000000E+00  0.00000000E+00  0.00000000E+00
  0.00000000E+00  0.00000000E+00  0.00000000E+00  0.00000000E+00  0.00000000E+00
  0.00000000E+00  0.00000000E+00  0.00000000E+00  0.00000000E+00  0.00000000E+00
  0.00000000E+00  0.00000000E+00  0.00000000E+00  0.00000000E+00  0.00000000E+00
  0.00000000E+00  0.00000000E+00  0.00000000E+00  0.00000000E+00  0.00000000E+00
  0.00000000E+00  0.00000000E+00  0.00000000E+00  0.00000000E+00  0.00000000E+00
  0.00000000E+00  0.00000000E+00  0.00000000E+00  0.00000000E+00  0.00000000E+00
  0.00000000E+00  0.00000000E+00  0.00000000E+00  0.00000000E+00  0.00000000E+00
  0.00000000E+00  0.00000000E+00  0.00000000E+00  0.00000000E+00  0.00000000E+00
  0.00000000E+00  0.00000000E+00  0.00000000E+00  0.00000000E+00  0.00000000E+00
  0.00000000E+00  0.00000000E+00  0.00000000E+00  0.00000000E+00  0.00000000E+00
  0.00000000E+00  0.00000000E+00  0.00000000E+00  0.00000000E+00  0.00000000E+00
  0.00000000E+00  0.00000000E+00  0.00000000E+00  0.00000000E+00  0.00000000E+00
  0.00000000E+00  0.00000000E+00  0.00000000E+00  0.00000000E+00  0.00000000E+00
  0.00000000E+00  0.00000000E+00  0.00000000E+00  0.00000000E+00  0.00000000E+00
  0.00000000E+00  0.00000000E+00  0.00000000E+00  0.00000000E+00  0.00000000E+00
  0.00000000E+00  0.00000000E+00  0.00000000E+00  0.00000000E+00  0.00000000E+00
  0.00000000E+00  0.00000000E+00  0.00000000E+00  0.00000000E+00  0.00000000E+00
  0.00000000E+00  0.00000000E+00  0.00000000E+00  0.00000000E+00  0.00000000E+00
  0.00000000E+00  0.00000000E+00  0.00000000E+00  0.00000000E+00  0.00000000E+00
  0.00000000E+00  0.00000000E+00  0.00000000E+00  0.00000000E+00  0.00000000E+00
  0.00000000E+00  0.00000000E+00  0.00000000E+00  0.00000000E+00  0.00000000E+00
  0.00000000E+00  0.00000000E+00  0.00000000E+00  0.00000000E+00  0.00000000E+00
  0.00000000E+00  0.00000000E+00  0.00000000E+00  0.00000000E+00  0.00000000E+00
  0.00000000E+00  0.00000000E+00  0.00000000E+00  0.00000000E+00  0.00000000E+00
  0.00000000E+00  0.00000000E+00  0.00000000E+00  0.00000000E+00  0.00000000E+00
  0.00000000E+00  0.00000000E+00  0.00000000E+00  0.00000000E+00  0.00000000E+00
  0.00000000E+00  0.00000000E+00  0.00000000E+00  0.00000000E+00  0.00000000E+00
  0.00000000E+00  0.00000000E+00  0.00000000E+00  0.00000000E+00  0.00000000E+00
  0.00000000E+00  0.00000000E+00  0.00000000E+00  0.00000000E+00  0.00000000E+00
  0.00000000E+00  0.00000000E+00  0.00000000E+00  0.00000000E+00  0.00000000E+00
  0.00000000E+00  0.00000000E+00  0.00000000E+00  0.00000000E+00  0.00000000E+00
  0.00000000E+00  0.00000000E+00  0.00000000E+00  0.00000000E+00  0.00000000E+00
  0.00000000E+00  0.00000000E+00  0.00000000E+00  0.00000000E+00  0.00000000E+00
  0.00000000E+00  0.00000000E+00  0.00000000E+00  0.00000000E+00  0.00000000E+00
  0.00000000E+00  0.00000000E+00  0.00000000E+00  0.00000000E+00  0.00000000E+00
  0.00000000E+00  0.00000000E+00  0.00000000E+00  0.00000000E+00  0.00000000E+00
  0.00000000E+00  0.00000000E+00  0.00000000E+00  0.00000000E+00  0.00000000E+00
  0.00000000E+00  0.00000000E+00  0.00000000E+00  0.00000000E+00  0.00000000E+00
  0.00000000E+00  0.00000000E+00  0.00000000E+00  0.00000000E+00  0.00000000E+00
  0.00000000E+00  0.00000000E+00  0.00000000E+00  0.00000000E+00  0.00000000E+00
  0.00000000E+00  0.00000000E+00  0.00000000E+00  0.00000000E+00  0.00000000E+00
  0.00000000E+00  0.00000000E+00  0.00000000E+00  0.00000000E+00  0.00000000E+00
  0.00000000E+00  0.00000000E+00  0.00000000E+00  0.00000000E+00  0.00000000E+00
  0.00000000E+00  0.00000000E+00  0.00000000E+00  0.00000000E+00  0.00000000E+00
  0.00000000E+00  0.00000000E+00  0.00000000E+00  0.00000000E+00  0.00000000E+00
  0.00000000E+00  0.00000000E+00  0.00000000E+00  0.00000000E+00  0.00000000E+00
  0.00000000E+00  0.00000000E+00  0.00000000E+00  0.00000000E+00  0.00000000E+00
  0.00000000E+00  0.00000000E+00  0.00000000E+00  0.00000000E+00  0.00000000E+00
  0.00000000E+00  0.00000000E+00  0.00000000E+00  0.00000000E+00  0.00000000E+00
  0.00000000E+00  0.00000000E+00  0.00000000E+00  0.00000000E+00  0.00000000E+00
  0.00000000E+00  0.00000000E+00  0.00000000E+00  0.00000000E+00  0.00000000E+00
  0.00000000E+00  0.00000000E+00  0.00000000E+00  0.00000000E+00  0.00000000E+00
  0.00000000E+00  0.00000000E+00  0.00000000E+00  0.00000000E+00  0.00000000E+00
  0.00000000E+00  0.00000000E+00  0.00000000E+00  0.00000000E+00  0.00000000E+00
  0.00000000E+00  0.00000000E+00  0.00000000E+00  0.00000000E+00  0.00000000E+00
  0.00000000E+00  0.00000000E+00  0.00000000E+00  0.00000000E+00  0.00000000E+00
  0.00000000E+00  0.00000000E+00  0.00000000E+00  0.00000000E+00  0.00000000E+00
  0.00000000E+00  0.00000000E+00  0.00000000E+00  0.00000000E+00  0.00000000E+00
  0.00000000E+00  0.00000000E+00  0.00000000E+00  0.00000000E+00  0.00000000E+00
  0.00000000E+00  0.00000000E+00  0.00000000E+00  0.00000000E+00  0.00000000E+00
  0.00000000E+00  0.00000000E+00  0.00000000E+00  0.00000000E+00  0.00000000E+00
  0.00000000E+00  0.00000000E+00  0.00000000E+00  0.00000000E+00  0.00000000E+00
  0.00000000E+00  0.00000000E+00  0.00000000E+00  0.00000000E+00  0.00000000E+00
  0.00000000E+00  0.00000000E+00  0.00000000E+00  0.00000000E+00  0.00000000E+00
  0.00000000E+00  0.00000000E+00  0.00000000E+00  0.00000000E+00  0.00000000E+00
  0.00000000E+00  0.00000000E+00  0.00000000E+00  0.00000000E+00  0.00000000E+00
  0.00000000E+00  0.00000000E+00  0.00000000E+00  0.00000000E+00  0.00000000E+00
  0.00000000E+00  0.00000000E+00  0.00000000E+00  0.00000000E+00  0.00000000E+00
  0.00000000E+00  0.00000000E+00  0.00000000E+00  0.00000000E+00  0.00000000E+00
  0.00000000E+00  0.00000000E+00  0.00000000E+00  0.00000000E+00  0.00000000E+00
  0.00000000E+00  0.00000000E+00  0.00000000E+00  0.00000000E+00  0.00000000E+00
  0.00000000E+00  0.00000000E+00  0.00000000E+00  0.00000000E+00  0.00000000E+00
  0.00000000E+00  0.00000000E+00  0.00000000E+00  0.00000000E+00  0.00000000E+00
  0.00000000E+00  0.00000000E+00  0.00000000E+00  0.00000000E+00  0.00000000E+00
  0.00000000E+00  0.00000000E+00  0.00000000E+00  0.00000000E+00  0.00000000E+00
  0.00000000E+00  0.00000000E+00  0.00000000E+00  0.00000000E+00  0.00000000E+00
  0.00000000E+00  0.00000000E+00  0.00000000E+00  0.00000000E+00  0.00000000E+00
  0.00000000E+00  0.00000000E+00  0.00000000E+00  0.00000000E+00  0.00000000E+00
  0.00000000E+00  0.00000000E+00  0.00000000E+00  0.00000000E+00  0.00000000E+00
  0.00000000E+00  0.00000000E+00  0.00000000E+00  0.00000000E+00  0.00000000E+00
  0.00000000E+00  0.00000000E+00  0.00000000E+00  0.00000000E+00  0.00000000E+00
  0.00000000E+00  0.00000000E+00  0.00000000E+00  0.00000000E+00  0.00000000E+00
  0.00000000E+00  0.00000000E+00  0.00000000E+00  0.00000000E+00  0.00000000E+00
  0.00000000E+00  0.00000000E+00  0.00000000E+00  0.00000000E+00  0.00000000E+00
  0.00000000E+00  0.00000000E+00  0.00000000E+00  0.00000000E+00  0.00000000E+00
  0.00000000E+00  0.00000000E+00  0.00000000E+00  0.00000000E+00  0.00000000E+00
  0.00000000E+00  0.00000000E+00  0.00000000E+00  0.00000000E+00  0.00000000E+00
  0.00000000E+00  0.00000000E+00  0.00000000E+00  0.00000000E+00  0.00000000E+00
  0.00000000E+00  0.00000000E+00  0.00000000E+00  0.00000000E+00  0.00000000E+00
  0.00000000E+00  0.00000000E+00  0.00000000E+00  0.00000000E+00  0.00000000E+00
  0.00000000E+00  0.00000000E+00  0.00000000E+00  0.00000000E+00  0.00000000E+00
  0.00000000E+00  0.00000000E+00  0.00000000E+00  0.00000000E+00  0.00000000E+00
  0.00000000E+00  0.00000000E+00  0.00000000E+00  0.00000000E+00  0.00000000E+00
  0.00000000E+00  0.00000000E+00  0.00000000E+00  0.00000000E+00  0.00000000E+00
  0.00000000E+00  0.00000000E+00  0.00000000E+00  0.00000000E+00  0.00000000E+00
  0.00000000E+00  0.00000000E+00  0.00000000E+00  0.00000000E+00  0.00000000E+00
  0.00000000E+00  0.00000000E+00  0.00000000E+00  0.00000000E+00  0.00000000E+00
  0.00000000E+00  0.00000000E+00  0.00000000E+00  0.00000000E+00  0.00000000E+00
  0.00000000E+00  0.00000000E+00  0.00000000E+00  0.00000000E+00  0.00000000E+00
Gaussian Version                           C   N=           2
AppleM1-GDVRevJ.32+     
