HDO                                                                     
Freq      RB3LYP                                                      6-31G(d)            
Number of atoms                            I                3
Info1-9                                    I   N=           9
          13          12           0           0           0         100
           6          18        -502
Full Title                                 C   N=           1
HDO         
Route                                      C   N=           5
#B3LYP 6-31G* freq=anharm symm=com output=pickett           
Point Group                                C   N=           2
C02V                    
Point Group NOp                            I                4
Point Group Abelian NOp                    I                4
Point Group NClass                         I                4
Point Group NIrrep                         I                4
Point Group NGen                           I                2
Point Group NOp symm assign                I                2
Point Group Irrep Names                    H   N=           4
A1      A2      B1      B2      
Point Group Class Names                    H   N=           4
E       C2      Sgm     Sgm'    
Point Group Generators                     I   N=           2
           2           3
Point Group Class of Operators             I   N=           4
           1           2           3           4
Point Group Rotations                      R   N=          48
  1.00000000E+00 -1.47911420E-31 -2.21867130E-31 -1.47911420E-31  1.00000000E+00
  3.71211025E-16 -2.21867130E-31  3.71211025E-16  1.00000000E+00  0.00000000E+00
  0.00000000E+00  0.00000000E+00 -1.00000000E+00 -1.22464680E-16 -2.46519033E-32
  1.22464680E-16 -1.00000000E+00  6.19287194E-32  7.39557099E-32  3.65593093E-32
  1.00000000E+00  0.00000000E+00  0.00000000E+00  0.00000000E+00 -1.00000000E+00
  0.00000000E+00  0.00000000E+00  0.00000000E+00  1.00000000E+00  3.71211025E-16
  0.00000000E+00  3.71211025E-16  1.00000000E+00  0.00000000E+00  0.00000000E+00
  0.00000000E+00  1.00000000E+00 -1.22464680E-16 -2.46519033E-31 -1.22464680E-16
 -1.00000000E+00  3.75159851E-32 -2.71170936E-31  3.65593093E-32  1.00000000E+00
  0.00000000E+00  0.00000000E+00  0.00000000E+00
Point Group Cell Trans                     I   N=          12
           0           0           0           0           0           0
           0           0           0           0           0           0
Point Group Char Table                     R   N=          16
  1.00000000E+00  1.00000000E+00  1.00000000E+00  1.00000000E+00  1.00000000E+00
  1.00000000E+00 -1.00000000E+00 -1.00000000E+00  1.00000000E+00 -1.00000000E+00
 -1.00000000E+00  1.00000000E+00  1.00000000E+00 -1.00000000E+00  1.00000000E+00
 -1.00000000E+00
Point Group Atom Permutations              I   N=          12
           1           2           3           3           2           1
           1           2           3           3           2           1
Charge                                     I                0
Multiplicity                               I                1
Number of electrons                        I               10
Number of alpha electrons                  I                5
Number of beta electrons                   I                5
Number of basis functions                  I               19
Number of independent functions            I               19
Number of point charges in /Mol/           I                0
Number of translation vectors              I                0
Atomic numbers                             I   N=           3
           1           8           1
Nuclear charges                            R   N=           3
  1.00000000E+00  8.00000000E+00  1.00000000E+00
Current cartesian coordinates              R   N=           9
  0.00000000E+00  1.43889416E+00 -1.01768490E+00 -2.77333912E-32  4.23055276E-17
  1.13966247E-01 -1.76213713E-16 -1.43889416E+00 -1.01768490E+00
Number of symbols in /Mol/                 I                0
Int Atom Types                             I   N=           3
           0           0           0
Force Field                                I                0
Atom Types                                 C   N=           3
                                    
MM charges                                 R   N=           3
  0.00000000E+00  0.00000000E+00  0.00000000E+00
Integer atomic weights                     I   N=           3
           1          18           1
Real atomic weights                        R   N=           3
  1.00782504E+00  1.79991594E+01  1.00782504E+00
Atom fragment info                         I   N=           3
           0           0           0
Atom residue num                           I   N=           3
           0           0           0
Nuclear spins                              I   N=           3
           1           0           1
Nuclear ZEff                               R   N=           3
 -1.00000000E+00 -5.60000000E+00 -1.00000000E+00
Nuclear ZNuc                               R   N=           3
  1.00000000E+00  8.00000000E+00  1.00000000E+00
Nuclear QMom                               R   N=           3
  0.00000000E+00  0.00000000E+00  0.00000000E+00
Nuclear GFac                               R   N=           3
  2.79284600E+00  0.00000000E+00  2.79284600E+00
MicOpt                                     I   N=           3
          -1          -1          -1
Number of residues                         I                0
Number of secondary structures             I                0
SymInf integers                            I   N=          26
           2           4           1           1           1          -1
          -1           1          -1           1           1           1
          -1           1           0           0           0           0
           0           0           0           0           0           0
           0           0
RotTr to input orientation                 R   N=          12
  4.28626380E-16  2.00321585E-16  1.00000000E+00 -1.00000000E+00 -3.16910310E-16
  4.28626380E-16  1.31304797E-16 -1.00000000E+00  2.00321585E-16 -1.47155972E-17
 -1.13696618E-01 -1.99274974E-18
Number of contracted shells                I                8
Number of primitive shells                 I               19
Pure/Cartesian d shells                    I                1
Pure/Cartesian f shells                    I                0
Highest angular momentum                   I                2
Largest degree of contraction              I                6
Shell types                                I   N=           8
           0           0           0          -1          -1           2
           0           0
Number of primitives per shell             I   N=           8
           3           1           6           3           1           1
           3           1
Shell to atom map                          I   N=           8
           1           1           2           2           2           2
           3           3
Primitive exponents                        R   N=          19
  1.87311370E+01  2.82539436E+00  6.40121692E-01  1.61277759E-01  5.48467166E+03
  8.25234946E+02  1.88046958E+02  5.29645000E+01  1.68975704E+01  5.79963534E+00
  1.55396162E+01  3.59993359E+00  1.01376175E+00  2.70005823E-01  8.00000000E-01
  1.87311370E+01  2.82539436E+00  6.40121692E-01  1.61277759E-01
Contraction coefficients                   R   N=          19
  3.34946043E-02  2.34726953E-01  8.13757326E-01  1.00000000E+00  1.83107443E-03
  1.39501722E-02  6.84450781E-02  2.32714336E-01  4.70192898E-01  3.58520853E-01
 -1.10777550E-01 -1.48026263E-01  1.13076702E+00  1.00000000E+00  1.00000000E+00
  3.34946043E-02  2.34726953E-01  8.13757326E-01  1.00000000E+00
P(S=P) Contraction coefficients            R   N=          19
  0.00000000E+00  0.00000000E+00  0.00000000E+00  0.00000000E+00  0.00000000E+00
  0.00000000E+00  0.00000000E+00  0.00000000E+00  0.00000000E+00  0.00000000E+00
  7.08742682E-02  3.39752839E-01  7.27158577E-01  1.00000000E+00  0.00000000E+00
  0.00000000E+00  0.00000000E+00  0.00000000E+00  0.00000000E+00
Coordinates of each shell                  R   N=          24
  6.48097499E-33  1.43889416E+00 -1.01768490E+00  6.48097499E-33  1.43889416E+00
 -1.01768490E+00 -1.40474245E-32  2.11527638E-17  1.13966247E-01 -1.40474245E-32
  2.11527638E-17  1.13966247E-01 -1.40474245E-32  2.11527638E-17  1.13966247E-01
 -1.40474245E-32  2.11527638E-17  1.13966247E-01 -1.76213713E-16 -1.43889416E+00
 -1.01768490E+00 -1.76213713E-16 -1.43889416E+00 -1.01768490E+00
Constraint Structure                       R   N=           9
 -4.10890993E-16  1.43889416E+00 -1.01768490E+00 -2.08371496E-17  2.14014816E-17
  1.13966247E-01  8.22604999E-16 -1.43889416E+00 -1.01768490E+00
Constraint Force Constants                 R   N=           9
  0.00000000E+00  0.00000000E+00  0.00000000E+00  0.00000000E+00  0.00000000E+00
  0.00000000E+00  0.00000000E+00  0.00000000E+00  0.00000000E+00
Num ILSW                                   I              100
ILSW                                       I   N=         100
           0           1           0           1           2           0
           0           0           0           0        4002          -1
           5           0           0           0           2          -1
           0           0           0           0           1           0
           1           0           0           0           0           0
           0           0      100000           0          -1           0
           0           0           0           0           0           0
           0           0           0           1           0           0
           0 -2000000000           1           0           0           0
           0           0        2004          68           0           0
           0           0           5           0           0           0
           0           0           0           0           0           1
           0           0           0           0           0           0
           0           0           0           0           0           0
           0           0           0           0           0           0
           0           0           1           0           0           0
           0           0           0           0
Num RLSW                                   I               68
RLSW                                       R   N=          68
  8.00000000E-01  7.20000000E-01  1.00000000E+00  8.10000000E-01  2.00000000E-01
  0.00000000E+00  0.00000000E+00  1.00000000E+00  0.00000000E+00  0.00000000E+00
  0.00000000E+00  0.00000000E+00  1.00000000E+00  0.00000000E+00  0.00000000E+00
  0.00000000E+00  0.00000000E+00  1.00000000E+00  0.00000000E+00  0.00000000E+00
  0.00000000E+00  0.00000000E+00  1.00000000E+00  0.00000000E+00  0.00000000E+00
  0.00000000E+00  0.00000000E+00  1.00000000E+00  0.00000000E+00  0.00000000E+00
  0.00000000E+00  0.00000000E+00  1.00000000E+00  0.00000000E+00  0.00000000E+00
  0.00000000E+00  0.00000000E+00  0.00000000E+00  1.00000000E+00  1.00000000E+00
  0.00000000E+00  1.00000000E+00  0.00000000E+00  0.00000000E+00  0.00000000E+00
  0.00000000E+00  0.00000000E+00  0.00000000E+00  0.00000000E+00  0.00000000E+00
  0.00000000E+00  0.00000000E+00  1.00000000E+00  1.00000000E+00  1.00000000E+00
  1.00000000E+00  1.00000000E+00  1.00000000E+00  0.00000000E+00  0.00000000E+00
  0.00000000E+00  0.00000000E+00  0.00000000E+00  0.00000000E+00  0.00000000E+00
  0.00000000E+00  2.00000000E-10  1.00000000E-02
MxBond                                     I                2
NBond                                      I   N=           3
           1           2           1
IBond                                      I   N=           6
           2           0           1           3           2           0
RBond                                      R   N=           6
  1.00000000E+00  0.00000000E+00  1.00000000E+00  1.00000000E+00  1.00000000E+00
  0.00000000E+00
Virial Ratio                               R      2.007772535256124E+00
SCF Energy                                 R     -7.640895396637686E+01
Total Energy                               R     -7.640895396637686E+01
RMS Force                                  R      2.441843145585844E-05
RMS Density                                R      7.729155986124453E-10
NImag                                      I                0
Zero-point Energy                          R      2.109516485113859E-02
Job Status                                 I                1
Nuclear derivative order                   I                3
Energy with zero-point                     R     -7.638785880152572E+01
Thermal Energy                             R     -7.638502418120058E+01
Thermal Enthalpy                           R     -7.638407999638693E+01
Thermal Free Energy                        R     -7.640568352147928E+01
External E-field                           R   N=         105
  0.00000000E+00  0.00000000E+00  0.00000000E+00  0.00000000E+00  0.00000000E+00
  0.00000000E+00  0.00000000E+00  0.00000000E+00  0.00000000E+00  0.00000000E+00
  0.00000000E+00  0.00000000E+00  0.00000000E+00  0.00000000E+00  0.00000000E+00
  0.00000000E+00  0.00000000E+00  0.00000000E+00  0.00000000E+00  0.00000000E+00
  0.00000000E+00  0.00000000E+00  0.00000000E+00  0.00000000E+00  0.00000000E+00
  0.00000000E+00  0.00000000E+00  0.00000000E+00  0.00000000E+00  0.00000000E+00
  0.00000000E+00  0.00000000E+00  0.00000000E+00  0.00000000E+00  0.00000000E+00
  0.00000000E+00  0.00000000E+00  0.00000000E+00  0.00000000E+00  0.00000000E+00
  0.00000000E+00  0.00000000E+00  0.00000000E+00  0.00000000E+00  0.00000000E+00
  0.00000000E+00  0.00000000E+00  0.00000000E+00  0.00000000E+00  0.00000000E+00
  0.00000000E+00  0.00000000E+00  0.00000000E+00  0.00000000E+00  0.00000000E+00
  0.00000000E+00  0.00000000E+00  0.00000000E+00  0.00000000E+00  0.00000000E+00
  0.00000000E+00  0.00000000E+00  0.00000000E+00  0.00000000E+00  0.00000000E+00
  0.00000000E+00  0.00000000E+00  0.00000000E+00  0.00000000E+00  0.00000000E+00
  0.00000000E+00  0.00000000E+00  0.00000000E+00  0.00000000E+00  0.00000000E+00
  0.00000000E+00  0.00000000E+00  0.00000000E+00  0.00000000E+00  0.00000000E+00
  0.00000000E+00  0.00000000E+00  0.00000000E+00  0.00000000E+00  0.00000000E+00
  0.00000000E+00  0.00000000E+00  0.00000000E+00  0.00000000E+00  0.00000000E+00
  0.00000000E+00  0.00000000E+00  0.00000000E+00  0.00000000E+00  0.00000000E+00
  0.00000000E+00  0.00000000E+00  0.00000000E+00  0.00000000E+00  0.00000000E+00
  0.00000000E+00  0.00000000E+00  0.00000000E+00  0.00000000E+00  0.00000000E+00
IOpCl                                      I                0
IROHF                                      I                0
Alpha Orbital Energies                     R   N=          19
 -1.91381696E+01 -9.97954678E-01 -5.17104450E-01 -3.72260068E-01 -2.91202832E-01
  6.25238048E-02  1.48165252E-01  7.72073011E-01  8.61421625E-01  8.90776217E-01
  8.95108952E-01  1.06585471E+00  1.19354704E+00  1.72902548E+00  1.74636550E+00
  1.77978921E+00  2.28019435E+00  2.57756887E+00  3.55191581E+00
Alpha MO coefficients                      R   N=         361
  3.69975931E-04 -1.03334445E-03  9.92859952E-01  2.62243337E-02  0.00000000E+00
  0.00000000E+00 -1.10154333E-03  1.01095889E-02  0.00000000E+00  0.00000000E+00
 -1.55447926E-06 -7.72424163E-03 -7.76719343E-03 -7.74628208E-03  0.00000000E+00
  0.00000000E+00  0.00000000E+00  3.69975931E-04 -1.03334445E-03  1.39149895E-01
  6.45053384E-03 -2.09497769E-01  4.69207072E-01  0.00000000E+00  0.00000000E+00
 -1.27715292E-01  4.39504759E-01  0.00000000E+00  0.00000000E+00 -6.06632289E-02
 -1.09349215E-02  1.87725067E-02  1.60804403E-02  0.00000000E+00  0.00000000E+00
  0.00000000E+00  1.39149895E-01  6.45053384E-03  2.37428129E-01  1.41975148E-01
  0.00000000E+00  0.00000000E+00  0.00000000E+00  5.17450136E-01  0.00000000E+00
  0.00000000E+00  0.00000000E+00  2.69779842E-01  0.00000000E+00  0.00000000E+00
  0.00000000E+00  0.00000000E+00  0.00000000E+00  0.00000000E+00 -4.12777291E-02
 -2.37428129E-01 -1.41975148E-01 -1.43751052E-01 -1.14282916E-01 -8.81126014E-02
  1.77290576E-01  0.00000000E+00  0.00000000E+00  5.51786998E-01  4.10481954E-01
  0.00000000E+00  0.00000000E+00  3.72099379E-01 -2.64934451E-04  8.84717165E-04
 -5.24292810E-02  0.00000000E+00  0.00000000E+00  0.00000000E+00 -1.43751052E-01
 -1.14282916E-01  0.00000000E+00  0.00000000E+00  0.00000000E+00  0.00000000E+00
  6.44581782E-01  0.00000000E+00  0.00000000E+00  0.00000000E+00  5.06043271E-01
  0.00000000E+00  0.00000000E+00  0.00000000E+00  0.00000000E+00  0.00000000E+00
  0.00000000E+00 -3.54430185E-02  0.00000000E+00  0.00000000E+00  0.00000000E+00
 -9.62523770E-02 -9.69039596E-01 -1.00633923E-01  1.19282490E-01  0.00000000E+00
  0.00000000E+00 -2.80706211E-01  1.25776360E+00  0.00000000E+00  0.00000000E+00
 -4.77537308E-01 -5.80421419E-02 -4.50857152E-02 -2.73025496E-02  0.00000000E+00
  0.00000000E+00  0.00000000E+00 -9.62523770E-02 -9.69039596E-01  1.07378699E-01
  1.27783068E+00  0.00000000E+00  0.00000000E+00  0.00000000E+00 -4.13458389E-01
  0.00000000E+00  0.00000000E+00  0.00000000E+00 -7.58765735E-01  0.00000000E+00
  0.00000000E+00  0.00000000E+00  0.00000000E+00  0.00000000E+00  0.00000000E+00
  1.84333545E-02 -1.07378699E-01 -1.27783068E+00  8.40191515E-01 -6.55380127E-01
  0.00000000E+00  0.00000000E+00  0.00000000E+00 -1.72086118E-01  0.00000000E+00
  0.00000000E+00  0.00000000E+00 -4.30528042E-01  0.00000000E+00  0.00000000E+00
  0.00000000E+00  0.00000000E+00  0.00000000E+00  0.00000000E+00 -1.95994624E-01
 -8.40191515E-01  6.55380127E-01  7.10947036E-01 -5.51561565E-01  3.77439858E-02
 -1.34470961E-01  0.00000000E+00  0.00000000E+00  7.08876695E-01  1.33714788E-01
  0.00000000E+00  0.00000000E+00 -3.84720111E-01 -1.18861186E-01  1.53622605E-01
  1.21927871E-02  0.00000000E+00  0.00000000E+00  0.00000000E+00  7.10947036E-01
 -5.51561565E-01  0.00000000E+00  0.00000000E+00  0.00000000E+00  0.00000000E+00
 -9.59432228E-01  0.00000000E+00  0.00000000E+00  0.00000000E+00  1.03862468E+00
  0.00000000E+00  0.00000000E+00  0.00000000E+00  0.00000000E+00  0.00000000E+00
  0.00000000E+00 -1.64092682E-02  0.00000000E+00  0.00000000E+00  0.00000000E+00
  4.68933069E-01 -3.74384510E-01  1.05695901E-02 -8.36597936E-01  0.00000000E+00
  0.00000000E+00 -5.57108765E-01  1.41083773E+00  0.00000000E+00  0.00000000E+00
  8.26764662E-01 -3.27767057E-01 -1.56949085E-01 -2.76939224E-01  0.00000000E+00
  0.00000000E+00  0.00000000E+00  4.68933069E-01 -3.74384510E-01  1.95135099E-02
 -9.26673044E-01  0.00000000E+00  0.00000000E+00  0.00000000E+00 -9.89242400E-01
  0.00000000E+00  0.00000000E+00  0.00000000E+00  1.62795753E+00  0.00000000E+00
  0.00000000E+00  0.00000000E+00  0.00000000E+00  0.00000000E+00  0.00000000E+00
  1.59605355E-02 -1.95135099E-02  9.26673044E-01 -3.52410600E-01 -7.73031793E-01
 -8.19474741E-02 -1.45726663E+00  0.00000000E+00  0.00000000E+00  4.02536261E-01
  3.59648351E+00  0.00000000E+00  0.00000000E+00 -1.10595458E+00 -2.50260434E-01
 -6.57522702E-01 -3.93314197E-01  0.00000000E+00  0.00000000E+00  0.00000000E+00
 -3.52410600E-01 -7.73031793E-01  8.16891852E-02  4.22677564E-02  7.43240336E-03
  9.01026908E-02  0.00000000E+00  0.00000000E+00 -9.10679452E-03 -2.52368665E-01
  0.00000000E+00  0.00000000E+00  1.43563425E-01 -3.43566228E-01 -5.96218682E-01
  1.00688996E+00  0.00000000E+00  0.00000000E+00  0.00000000E+00  8.16891852E-02
  4.22677564E-02  0.00000000E+00  0.00000000E+00  0.00000000E+00  0.00000000E+00
  0.00000000E+00  0.00000000E+00  0.00000000E+00  0.00000000E+00  0.00000000E+00
  0.00000000E+00  0.00000000E+00  0.00000000E+00  0.00000000E+00  0.00000000E+00
  1.00000000E+00  0.00000000E+00  0.00000000E+00  0.00000000E+00  0.00000000E+00
  0.00000000E+00  0.00000000E+00  0.00000000E+00  0.00000000E+00  7.10776670E-03
  0.00000000E+00  0.00000000E+00  0.00000000E+00  3.50054820E-02  0.00000000E+00
  0.00000000E+00  0.00000000E+00  0.00000000E+00  0.00000000E+00  0.00000000E+00
  9.99236973E-01  0.00000000E+00  0.00000000E+00  0.00000000E+00 -8.12416038E-01
 -1.41474056E-01 -5.16457647E-02 -5.14927906E-01  0.00000000E+00  0.00000000E+00
  6.29660021E-02  1.53908344E+00  0.00000000E+00  0.00000000E+00 -7.39323801E-01
 -1.13128332E+00  7.35884193E-01  7.11192686E-02  0.00000000E+00  0.00000000E+00
  0.00000000E+00 -8.12416038E-01 -1.41474056E-01  9.23440161E-01 -5.02711153E-02
  0.00000000E+00  0.00000000E+00  0.00000000E+00  3.68835968E-02  0.00000000E+00
  0.00000000E+00  0.00000000E+00 -8.42155024E-01  0.00000000E+00  0.00000000E+00
  0.00000000E+00  0.00000000E+00  0.00000000E+00  0.00000000E+00  1.27212795E+00
 -9.23440161E-01  5.02711153E-02  1.15801309E-01 -5.54508604E-01 -4.67945801E-01
  2.86712703E-01  0.00000000E+00  0.00000000E+00  1.16630439E-01  3.68948518E+00
  0.00000000E+00  0.00000000E+00 -3.34046941E-01 -1.57874910E+00 -1.52610706E+00
 -1.54961171E+00  0.00000000E+00  0.00000000E+00  0.00000000E+00  1.15801309E-01
 -5.54508604E-01
Orthonormal basis                          R   N=         361
  1.15672797E-01  1.60492046E-01  3.17351915E-02  1.59011657E-01 -2.08554631E-18
 -4.50726277E-04 -2.64571108E-02  2.05150901E-01 -4.15079774E-18 -4.61457440E-04
 -5.29754124E-02  1.36167655E-01  1.53720097E-01  1.47024863E-01  2.05544740E-18
  1.61660193E-18  3.08227610E-04  1.17928456E-01  1.61898465E-01  2.64067615E-01
  1.68490799E-01 -2.61561380E-04 -5.53315088E-04  1.12474104E-17  2.67528083E-01
 -1.28303723E-04  4.69573568E-04  2.37792181E-17  3.85006158E-01 -1.54907330E-03
 -3.22846590E-05  9.12641446E-05 -3.93811774E-05 -1.14062473E-17 -8.98485298E-18
 -1.46714149E-01 -2.61904777E-01 -1.63353797E-01 -1.74227321E-01 -9.54029173E-02
  6.47030524E-02  1.82312538E-01  6.89777141E-17  2.74917461E-03  3.93763892E-01
  1.35318645E-01  5.68514697E-17  1.92489620E-03  4.73736688E-01  1.55325012E-01
  7.45463453E-02  1.05359089E-01 -1.22132470E-17 -9.60560202E-18 -1.07453212E-03
 -1.75234082E-01 -9.42397985E-02  1.51134659E-16 -1.14547141E-16  1.95918583E-16
  1.12782471E-16  5.77057836E-01 -7.71209281E-17  4.65146111E-17 -1.14122844E-16
  5.77057836E-01 -4.73819400E-17 -2.88039682E-16  1.77635326E-17 -8.96263225E-17
  2.68919359E-17 -8.51719018E-17  1.79886100E-16  6.95314091E-17 -1.02683156E-19
 -4.71671135E-17 -1.84215071E-01  2.24755371E-02  3.47061180E-03  2.51527222E-03
  2.14062084E-16  3.74245914E-01 -4.29472064E-03 -1.01242412E-04  1.01231826E-16
  2.61719043E-01 -1.08368070E-03  6.08669083E-04 -1.55990082E-04  3.06784073E-04
  5.96745506E-17  4.70066537E-17  7.69816307E-01  1.81513726E-01 -2.72782038E-02
 -6.36057048E-02 -8.07704033E-02  9.15301994E-01  2.13533061E-01 -1.37874727E-19
  4.98936674E-04 -1.92232225E-01  5.08057208E-03 -9.18529276E-17 -6.92593105E-04
 -8.52490108E-02 -1.75502474E-02 -1.20532497E-01 -8.12499828E-02 -1.29672925E-16
 -1.01986069E-16 -6.63504960E-03 -6.38636896E-02 -7.98541245E-02  2.70231750E-17
 -4.43191395E-17  1.67217529E-16 -1.33316419E-17  1.60562363E-16  6.16593282E-17
  1.22490865E-17  1.77679369E-16  8.05606026E-18 -8.89688438E-17 -1.87211641E-17
 -7.50569691E-17  1.14358576E-16 -1.91226257E-16  7.86025106E-01  6.18194575E-01
 -9.45181016E-17 -2.25671416E-18 -1.10534790E-16  4.30602802E-18  2.72376367E-17
  1.31420893E-17  2.31136123E-17  9.26902553E-17 -5.01652820E-17  1.69480883E-17
 -1.51154729E-16 -1.05033567E-16  7.18585209E-17  2.99580349E-17  2.07097735E-17
 -9.70579832E-17  1.35690241E-16 -6.18194575E-01  7.86025106E-01 -3.68298675E-18
  2.77065444E-17  8.01566828E-17 -2.71682714E-01 -1.96769278E-01 -2.83725168E-01
  2.84573185E-01  6.19169261E-18  1.76026465E-02 -5.92977490E-01  6.98940532E-02
  1.00110601E-16 -3.05005123E-03 -5.14067597E-02  6.27197999E-01 -2.68212088E-01
  7.33563303E-02  8.78498277E-17  6.90908091E-17 -1.48281200E-02 -2.63379255E-01
 -1.84556799E-01 -5.45074636E-03 -4.99149343E-01 -9.18045441E-02  2.54655298E-01
  2.59885187E-16  5.68700240E-01 -3.82473188E-01 -8.19463628E-03 -5.15017283E-17
 -2.07075333E-01  1.87611650E-01 -4.44510603E-01  5.35212854E-01  1.67434236E-01
 -7.49961673E-17 -1.68489013E-17 -2.36721115E-01  1.59405185E-01 -1.25174694E-01
 -1.64873870E-01 -2.84133218E-02  6.99524153E-02 -1.95627028E-01  4.55707201E-17
  7.91026492E-01  2.93258540E-01  4.46530973E-03  4.68568737E-16 -2.95961507E-01
 -1.41520997E-01  2.94649503E-01 -3.80511256E-01 -1.12375203E-01 -1.95957955E-17
 -1.82422895E-17 -3.17110916E-01  5.77334049E-02  4.95779098E-01  1.01972653E-03
  2.28344313E-03 -1.27102349E-04  3.65354948E-04  9.07826863E-17 -7.89924437E-03
 -5.41966245E-04 -4.90602511E-07 -4.36860348E-16  3.17301489E-03  2.54292167E-04
 -3.78262235E-01 -6.12289417E-01  9.90920213E-01  2.10316387E-16  1.57243654E-19
  2.81008713E-03 -8.66252321E-04 -3.09887240E-03 -2.25354802E-16  2.72895717E-16
  2.08889068E-16 -6.54871753E-16  1.00152416E+00  1.05957119E-16 -1.94760802E-16
  1.19872578E-16 -1.00152416E+00  1.92110789E-16  3.90134933E-16  3.15926402E-16
 -6.73861011E-17 -3.96521186E-16  1.02920146E-17  8.05260603E-18 -5.39485487E-17
 -1.97341413E-17  5.97621175E-16 -1.12065919E-01  3.97751508E-01  1.70301596E-01
 -7.80203759E-01 -2.66176608E-16  3.84599105E-04 -7.22985723E-01  2.24843945E-01
  8.09802086E-16 -2.53349615E-03  8.99316703E-01 -4.49053621E-02  3.09222336E-02
  2.00156216E-03  3.70954811E-18  2.81861522E-18  2.37149290E-03 -1.14023547E-01
  3.99525033E-01 -7.62344083E-01  6.69216329E-01 -2.67646513E-01  8.24796452E-01
 -2.09776630E-16 -8.44445034E-03 -1.04795054E-01  2.02189602E-03  7.40366559E-17
  1.32677670E-02 -1.25247090E-01 -8.21214973E-01 -5.18069025E-02 -3.45314269E-01
  4.19329760E-17  3.37155000E-17 -1.05895354E-02 -7.22960589E-01  6.43103204E-01
  1.32340511E+00 -6.47974852E-01 -4.93285311E-02  1.88133283E-01  2.83791661E-16
 -1.42414051E-02 -4.27544094E-02 -8.20324256E-03 -8.92612520E-17 -7.17339188E-01
  1.52815583E-01 -5.44494311E-02 -1.82418752E-01 -1.32554338E-01  4.33437272E-17
  4.65196480E-17  8.60600389E-01 -1.06159775E+00  6.84036521E-01  6.87539469E-01
  2.02195264E-01 -2.54159703E-01  9.44278313E-01 -1.64685353E-16  2.64569311E-02
 -1.81182565E-01 -6.18052071E-02  1.97108656E-16  8.92951866E-02  9.43466554E-01
 -2.16080795E-01 -1.11026465E+00 -7.69358186E-01  4.84913234E-17 -5.35418799E-17
 -1.51742555E-01  1.11391404E+00 -8.80410770E-02 -1.66423811E-01 -1.53081601E+00
 -8.50030101E-03  1.60601984E-02 -3.10583659E-16 -5.34960628E-01 -1.19931980E-05
  1.58475737E-02  1.10767475E-15  1.82294755E+00  2.18728628E-02 -1.69897078E-02
 -4.00095623E-02 -3.16340560E-02  1.21878166E-16 -2.28170072E-17 -3.52814695E-01
  2.22043787E-01  1.53303514E+00 -2.34957345E-01 -1.19261416E+00 -4.15889302E-01
 -9.79310879E-01 -3.18598185E-16  3.84862068E-03  2.17250981E-01  5.72863304E+00
 -2.91543144E-16 -2.92477855E-02 -1.03593437E+00 -1.57731030E+00 -1.23139333E+00
 -1.36333720E+00 -3.25840209E-16  1.93513728E-17  6.71176761E-03 -2.43803427E-01
 -1.25764920E+00
Total SCF Density                          R   N=         190
  1.91627051E-01  1.03167426E-01  6.78725723E-02 -3.16656663E-02  1.52236770E-02
  2.07484903E+00  7.81248174E-02 -3.42272089E-02 -1.75766749E-01  5.04553148E-01
  2.43856057E-16 -5.04217962E-17  9.83091503E-16  3.69930636E-16  8.30982011E-01
  2.44823017E-01  1.48192100E-01  1.13882978E-04 -8.51831193E-04  4.90875902E-16
  5.35527135E-01 -1.93262822E-01 -1.28889156E-01 -4.59084979E-02  7.57367793E-02
  3.80522470E-16  2.38424693E-03  6.41583139E-01  4.86318463E-03 -8.72542721E-02
 -2.36400044E-01  5.58488321E-01 -7.67496491E-15  3.92519326E-03  3.40721429E-01
  7.23500146E-01  1.73082094E-16 -6.26662355E-17  3.08087731E-16  3.57139825E-16
  6.52370622E-01  4.94131885E-16  5.56291273E-16 -5.84248954E-15  5.12149990E-01
  1.28274466E-01  7.74768097E-02 -3.83636670E-04  5.89281950E-04  3.05089319E-15
  2.79183003E-01 -7.21926864E-05  2.59302672E-03  2.45142383E-15  1.45550279E-01
 -1.24180287E-01 -8.70739732E-02 -4.01631369E-02  7.50252977E-02  2.25299721E-15
 -3.46827382E-04  4.26127765E-01  2.52159632E-01  1.94148984E-15 -9.94973512E-04
  2.84266703E-01 -2.98190271E-03 -1.06972310E-04 -1.07103314E-02 -1.07608277E-02
  9.04543381E-16 -6.73317323E-05  2.52111592E-03 -9.98455065E-03  7.13382773E-16
 -6.58767877E-05  1.13157729E-03  3.58692232E-04  4.70868098E-03 -3.58086400E-05
 -2.34432281E-02  1.75191364E-02  5.14847653E-16 -4.66029646E-04 -3.79841130E-03
  1.70639213E-02  4.07665958E-16 -1.90960735E-04 -1.61490117E-03 -2.90885673E-04
  8.27004967E-04  1.95356571E-02  1.23762687E-02 -1.28795774E-02 -3.90913546E-03
  4.68799331E-16 -3.03291807E-05 -6.19493862E-02 -2.90664731E-02  3.46928072E-16
  1.20373564E-04 -4.09671660E-02 -2.04499123E-04  6.30651608E-04  6.13455459E-03
  1.17123180E-16  1.44671536E-16  1.16611121E-16 -4.58126357E-16 -6.87252976E-04
  2.08592347E-16 -3.51453755E-16 -6.13174242E-16 -5.39534726E-04  1.06160019E-16
 -2.56555856E-16  7.48398894E-18 -1.31598736E-17  3.11460057E-17  5.68383728E-07
 -3.59684602E-17  2.63290415E-17 -2.73769902E-17 -2.51654451E-16 -4.56948099E-02
  1.54696327E-17 -3.62756108E-17  1.75093421E-16 -3.58731612E-02 -1.46143639E-16
 -1.45649672E-16 -4.43080554E-17 -3.61080459E-17 -2.54290690E-17  3.77913044E-05
  2.51270861E-03 -1.94519130E-02 -1.17673152E-02  2.07382388E-05  2.40008082E-05
 -1.80941961E-16 -4.27176135E-02 -4.53154732E-04 -4.66354593E-04 -1.50833901E-16
 -2.22691979E-02 -1.47644893E-04  4.57852047E-06  3.82050399E-05  2.76698984E-05
 -1.63666395E-17  6.57485914E-18  3.40758161E-03 -3.26889572E-02 -3.29754918E-02
 -3.28192218E-02  8.11531861E-02  3.47947089E-16 -2.46616151E-01 -1.95115374E-01
  3.75173115E-03  1.55343509E-16 -1.27919811E-01 -1.23529005E-01 -2.96614562E-03
  5.21669041E-03  1.95483994E-02 -7.67847168E-17 -8.16816051E-17  1.97487217E-02
  1.93985875E-01 -3.25584648E-02 -1.41110705E-02  1.55379641E-02 -3.48077500E-02
  8.81767855E-15 -1.45673659E-01 -1.26632150E-01 -8.90530166E-02  6.84093259E-15
 -7.57332232E-02 -8.45889068E-02 -2.41417251E-05  1.44468184E-04  1.20375398E-02
  2.19243040E-17 -4.84028940E-16  1.16721730E-02  1.00966802E-01  6.51856868E-02
Grdnt Energy                               R     -7.640895396637686E+01
Grdnt NVar                                 I                0
Grdnt IGetFC                               I                4
Quartic Cent Dist                          R   N=          10
  8.90028177E-03  2.05451582E-02 -2.74770276E-02 -4.33483949E-03  6.97612006E-03
 -2.59873572E-04 -2.52556186E-02  2.74839045E-02  4.33483949E-03 -4.58007767E-03
Sextic Cent Dist                           R   N=          14
  2.06847757E-05 -7.06355075E-05 -1.14412760E-04  1.65164723E-04 -1.03404190E-05
 -3.60795093E-05  4.30019501E-05  1.83224138E-05  2.67946240E-05 -5.84828176E-05
  1.41670109E-05 -3.49427322E-06  1.18118096E-06 -6.84614573E-06
Mulliken Charges                           R   N=           3
  3.85874405E-01 -7.74236261E-01  3.88361856E-01
APT Charges                                R   N=           3
  2.44247254E-01 -4.91158191E-01  2.46910937E-01
Optimization MaxStp                        I                2
Optimization MaxJob                        I                1
Optimization Job offset                    I                0
Optimization Num results per geometry      I                8
Optimization Num geometry variables        I                9
Optimization Reference Energy              R     -7.600000000000000E+01
Optimization Number of geometries          I   N=           1
           1
Opt point       1 Results for each geome   R   N=           8
 -4.08953966E-01  0.00000000E+00  5.13442826E-05  2.44184315E-05  2.34733573E-04
  1.24691318E-04  0.00000000E+00  0.00000000E+00
Opt point       1 Geometries               R   N=           9
  6.48097499E-33  1.43889416E+00 -1.01768490E+00 -1.40474245E-32  2.11527638E-17
  1.13966247E-01 -1.76213713E-16 -1.43889416E+00 -1.01768490E+00
Opt point       1 Gradient at each geome   R   N=           9
  2.46243645E-17 -5.13442826E-05 -3.95532203E-06  6.97127386E-16 -2.06555103E-16
  7.91064406E-06 -7.21751751E-16  5.13442826E-05 -3.95532203E-06
ONIOM Charges                              I   N=          16
           0           0           0           0           0           0
           0           0           0           0           0           0
           0           0           0           0
ONIOM Multiplicities                       I   N=          16
           1           0           0           0           0           0
           0           0           0           0           0           0
           0           0           0           0
Atom Layers                                I   N=           3
           1           1           1
Atom Modifiers                             I   N=           3
           0           0           0
Int Atom Modified Types                    I   N=           3
           0           0           0
Atom Modified Types                        C   N=           3
                                    
Link Atoms                                 I   N=           3
           0           0           0
Atom Modified MM Charges                   R   N=           3
  0.00000000E+00  0.00000000E+00  0.00000000E+00
Link Distances                             R   N=          12
  0.00000000E+00  0.00000000E+00  0.00000000E+00  0.00000000E+00  0.00000000E+00
  0.00000000E+00  0.00000000E+00  0.00000000E+00  0.00000000E+00  0.00000000E+00
  0.00000000E+00  0.00000000E+00
Cartesian Gradient                         R   N=           9
  2.46243645E-17 -5.13442826E-05 -3.95532203E-06  6.97127386E-16 -2.06555103E-16
  7.91064406E-06 -7.21751751E-16  5.13442826E-05 -3.95532203E-06
Cartesian Force Constants                  R   N=          45
  6.68898776E-08 -1.07386077E-17  3.55423810E-01  5.87553794E-18 -2.20837990E-01
  2.13409695E-01 -1.96793658E-05 -4.15984791E-17  4.46075925E-17  3.93576815E-05
  1.80253510E-17 -3.23965804E-01  2.54775359E-01 -5.65933079E-16  6.47931607E-01
 -6.72258412E-18  1.86900621E-01 -2.26474743E-01 -5.27525544E-16 -7.13433468E-10
  4.52949485E-01  1.96127862E-05  2.90996711E-17 -3.16006890E-17 -1.96791515E-05
  5.63698669E-16  4.81373034E-16  6.68898754E-08  3.12388635E-17 -3.14580064E-02
 -3.39373693E-02  5.37130355E-16 -3.23965803E-01 -1.86900621E-01 -5.60922743E-16
  3.55423810E-01  3.54851138E-17  3.39373693E-02  1.30650477E-02  3.82840366E-16
 -2.54775359E-01 -2.26474742E-01 -3.84332828E-16  2.20837990E-01  2.13409695E-01
Cartesian 3rd/4th derivatives              R   N=         270
  1.08082978E-02  1.86744235E-15 -1.71245438E-01 -2.84455714E-15  2.17302309E-02
  1.12279793E-01 -5.32653972E-02 -2.92908830E-15  4.74206912E-15  1.06530795E-01
  2.92163853E-16  2.37991440E-01 -2.06168166E-02 -1.57137793E-14 -4.75982881E-01
  1.55028967E-15 -2.28436452E-02 -1.08539668E-01 -1.74548270E-14 -5.51284262E-10
  2.17079335E-01  4.24570994E-02  1.06164595E-15 -1.89751199E-15 -5.32653973E-02
  1.54216154E-14  1.59045374E-14  1.08082978E-02 -2.15960620E-15 -6.67460023E-02
 -1.11341435E-03  1.86428676E-14  2.37991441E-01  2.28436457E-02 -1.64832614E-14
 -1.71245438E-01  1.29426747E-15  1.11341426E-03 -3.74012539E-03  1.27127579E-14
  2.06168171E-02 -1.08539667E-01 -1.40070254E-14 -2.17302314E-02  1.12279792E-01
 -1.95616594E-01 -8.60919179E-16  8.25113517E-01 -3.12410361E-16 -7.33141113E-01
  4.07071034E-01  1.81047606E-01  2.98596110E-15 -1.25331193E-15 -3.62095213E-01
 -4.13043268E-16 -7.87458695E-01  7.66136548E-01  2.54421644E-15  1.57491738E+00
 -1.78541579E-16  7.00145683E-01 -4.18408551E-01  5.72565007E-15 -1.90518100E-08
  8.36817084E-01  1.45689877E-02 -2.12504193E-15  1.56572229E-15  1.81047607E-01
 -2.13117317E-15 -5.54710849E-15 -1.95616595E-01  1.27396245E-15 -3.76548218E-02
 -3.29954343E-02 -5.53017754E-15 -7.87458683E-01 -7.00145664E-01  4.25621510E-15
  8.25113505E-01  4.90951940E-16  3.29954306E-02  1.13375178E-02 -4.47233814E-15
 -7.66136528E-01 -4.18408532E-01  3.98138620E-15  7.33141098E-01  4.07071014E-01
 -2.08585732E-01  1.15017474E-14  7.90082569E-01 -1.12542447E-14 -7.67032394E-01
  4.47311940E-01  2.08585732E-01 -1.68647331E-14  1.34371055E-14 -7.76469743E-10
 -6.21450480E-15 -7.90082570E-01  7.84346911E-01  4.47676502E-16  7.24563055E-09
  1.24586718E-14  7.84346914E-01 -4.47311950E-01 -2.49649652E-14 -1.56869381E+00
  5.10488841E-08  1.79794805E-11  5.36298576E-15 -2.18286080E-15 -2.08585732E-01
  5.76682830E-15  1.25062934E-14  2.08585732E-01 -5.28724257E-15  6.28924535E-10
 -1.73145169E-02  1.64170566E-14  7.90082563E-01  7.84346898E-01 -1.11298141E-14
 -7.90082563E-01 -1.20442708E-15 -1.73145201E-02  1.00955706E-08  1.15278597E-14
  7.84346901E-01  4.47311899E-01 -1.03234326E-14 -7.67032381E-01 -4.47311909E-01
  4.22660901E-03 -6.78887571E-13 -2.07671760E-01 -4.78589950E-14  3.74493485E-01
 -3.44970811E-01 -7.83026316E-03  1.76182163E-12 -8.66866896E-13  1.56664037E-02
 -1.98641314E-13  2.33250879E-01 -4.46237413E-01  5.73664017E-12 -4.66499527E-01
  2.40715095E-13 -3.02748097E-01  4.06547483E-01  5.59350157E-12  3.02202937E-06
 -8.13085536E-01  3.60191668E-03 -9.52791276E-13  8.08973448E-13 -7.83146358E-03
 -5.62643713E-12 -5.53808598E-12  4.22660904E-03  6.61763511E-13 -2.55795197E-02
  7.17460513E-02 -7.10417490E-12  2.33250505E-01  3.02745790E-01  6.40070688E-12
 -2.07672436E-01 -3.86849037E-13 -7.17466227E-02 -6.15725739E-02 -4.16614312E-12
  4.46237672E-01  4.06538625E-01  4.36261391E-12 -3.74493887E-01 -3.44970712E-01
 -6.90599067E-01 -9.08046147E-13  1.84893456E+00  2.09115310E-13 -1.95051074E+00
  9.07704932E-01  6.56150404E-01  1.95425912E-12 -8.68241928E-13 -1.31229493E+00
  2.86027851E-14 -1.82718554E+00  1.98742290E+00  5.01924494E-12  3.65437183E+00
 -2.00552530E-13  1.91360044E+00 -9.52603024E-01  5.50432150E-12  7.59251721E-07
  1.90521324E+00  3.44469253E-02 -9.16070190E-13  5.53374175E-13  6.56149209E-01
 -5.13628600E-12 -5.00763828E-12 -6.90599072E-01  6.63677989E-13 -2.17494222E-02
 -3.69100294E-02 -6.57921716E-12 -1.82718444E+00 -1.91360048E+00  5.87383467E-12
  1.84893241E+00 -2.02555717E-13  3.69090729E-02  4.49021902E-02 -4.07558801E-12
 -1.98742038E+00 -9.52609643E-01  4.08776548E-12  1.95050846E+00  9.07702792E-01
 -7.30287239E-01 -3.22579377E-14  1.79635318E+00 -5.92028891E-13 -2.07438166E+00
  1.01534867E+00  7.37936766E-01  9.97578078E-13 -1.75309500E-13 -1.47586765E+00
 -8.19304309E-13 -1.81511767E+00  2.07847746E+00  6.50078736E-12  3.63023469E+00
  7.37786477E-13  2.07028764E+00 -1.01243881E+00  4.85843957E-12 -1.18990462E-06
  2.02488169E+00 -7.65126446E-03 -8.35177357E-13  6.61585948E-13  7.37935561E-01
 -5.76992133E-12 -5.30009536E-12 -7.30287234E-01  6.35796873E-13  1.87640922E-02
 -4.09367721E-03 -7.10407854E-12 -1.81511516E+00 -2.07028574E+00  6.42657716E-12
  1.79634962E+00 -3.39750523E-13  4.09278481E-03 -2.90576060E-03 -4.12263851E-12
 -2.07847299E+00 -1.01244230E+00  4.27201079E-12  2.07437737E+00  1.01534341E+00
Dipole Moment                              R   N=           3
 -6.58898162E-17 -5.84656351E-17 -8.24496642E-01
Dipole Derivatives                         R   N=          27
  3.64288702E-01  9.93658503E-17  7.57368280E-17 -1.04295083E-17  2.04881508E-01
  9.17905813E-02  3.32575029E-18  1.25369551E-01  1.67543418E-01 -7.28577399E-01
  1.23949131E-15  7.90602846E-16  3.98417025E-17 -4.09763017E-01  1.45420010E-09
  2.91887254E-17 -2.97979230E-09 -3.35086830E-01  3.64288702E-01 -7.09729284E-16
 -5.69348793E-16  5.38450652E-18  2.04881507E-01 -9.17905833E-02 -5.17544678E-19
 -1.25369551E-01  1.67543412E-01
Polarizability                             R   N=           6
  2.83002614E+00  2.61423252E-16  7.39345012E+00  1.58938829E-16 -1.23528609E-08
  5.42430186E+00
Quadrupole Moment                          R   N=           6
 -1.08551071E+00  1.08272336E+00  2.78734641E-03  9.35388056E-17  6.45907947E-17
 -2.01430738E-16
NDeriv for static properties               I                3
ND12 for static properties                 I               -2
Dipole Moment num derivs                   R   N=          18
 -2.75560697E-17 -2.21505919E-10 -2.77679761E-01  3.33771899E-17 -9.41138780E-11
  3.94724553E-02 -1.98533033E-17 -1.38382746E-01  3.49477729E-09  1.57999153E-15
  6.57344085E-10  1.43246455E-01 -5.44912617E-15 -1.79619192E-08  2.31350054E-01
 -6.85346501E-15  3.60847826E-09  3.95838138E-02
Dipole Derivatives num derivs              R   N=         162
 -7.18567777E-02 -1.39931827E-14  1.38327455E-15  6.95010133E-15 -1.02333632E-01
  2.46495827E-02 -3.41161724E-15  1.26582845E-01 -1.35213586E-01  1.43713555E-01
  5.73489221E-14  3.64973296E-14 -2.44096583E-14  2.04667265E-01  9.10782686E-10
 -4.51728120E-15  2.16612053E-09  2.70427174E-01 -7.18567777E-02 -4.33557394E-14
 -3.78806041E-14  1.74595570E-14 -1.02333633E-01 -2.46495836E-02  7.92889844E-15
 -1.26582848E-01 -1.35213588E-01  1.21547776E-01  5.09437438E-15  4.45636955E-16
 -2.53109379E-15  1.89540643E-01 -7.37902269E-02  3.92700670E-15 -5.13703802E-02
  1.69957999E-01 -2.43095553E-01 -1.40677043E-14 -3.68883827E-15  1.07488086E-14
 -3.79081268E-01  5.40672642E-08  5.09105106E-15  2.00496994E-08 -3.39915948E-01
  1.21547777E-01  8.97332994E-15  3.24320131E-15 -8.21771481E-15  1.89540626E-01
  7.37901727E-02 -9.01805777E-15  5.13703600E-02  1.69957949E-01  1.02643797E-01
 -9.88579575E-16 -1.02507161E-14 -1.14858959E-14  6.10891302E-02  4.95728230E-04
  8.15465785E-15 -2.30395988E-01  4.77012514E-02 -4.17668858E-10  2.20858154E-14
  3.38242629E-14 -8.24949034E-15  6.53991467E-09 -9.91470236E-04 -2.09365058E-14
  4.60791976E-01 -1.08937822E-07 -1.02643797E-01 -2.10972358E-14 -2.35735468E-14
  1.97353863E-14 -6.10891367E-02  4.95742006E-04  1.27818479E-14 -2.30395988E-01
 -4.77011424E-02  1.35117220E-02  3.45902211E-12  2.04293800E-12 -1.75260268E-12
  1.12943485E-01 -2.51523077E-02  1.13450577E-12  1.94516860E-02  2.14311649E-02
 -2.70490360E-02 -1.09758991E-11 -7.62726555E-12  7.02173185E-12 -2.25881342E-01
 -5.35829086E-06  3.15779493E-12  1.27630572E-05 -4.28891725E-02  1.35132267E-02
  3.99340204E-12  3.92100922E-12 -5.46401054E-12  1.12949236E-01  2.51606937E-02
 -4.47150177E-12 -1.94457079E-02  2.14603545E-02 -9.40055123E-03  1.40913805E-12
  2.25208110E-12 -6.70540332E-13  7.19902360E-03  1.58743823E-02  1.19997769E-12
 -1.30685168E-02  1.13254349E-01  1.87755103E-02 -6.65514004E-12 -6.89012229E-12
  5.27396023E-12 -1.43907046E-02  4.24139466E-07  2.45721266E-12  1.47682297E-05
 -2.26530115E-01 -9.39904627E-03  1.72252701E-12  2.97472285E-12 -4.79830127E-12
  7.20306056E-03 -1.58717793E-02 -3.83639142E-12  1.30724896E-02  1.13278113E-01
  5.89623357E-02  6.11337276E-12 -8.84119693E-13 -2.39445991E-12  9.77555842E-02
 -3.50165886E-02  1.59597296E-12 -2.45378002E-01 -2.42004520E-02 -1.17950263E-01
 -1.26915665E-11 -4.80981155E-12  6.61177841E-12 -1.95502973E-01  3.62921476E-06
  1.56947002E-12  1.44005242E-05  4.83867770E-02  5.89638406E-02  3.05471875E-12
  4.03061291E-12 -4.41219987E-12  9.77587689E-02  3.50159871E-02 -3.34464405E-12
  2.45382343E-01 -2.41839780E-02
Polarizability num derivs                  R   N=          36
 -6.21303811E-02  4.30005316E-14 -9.16807683E-01 -7.08986140E-15  7.81434409E-09
  2.87513921E+00  3.39034480E-01 -1.54432616E-13 -7.94193956E+00 -5.09561460E-14
  1.70844831E-08 -3.70912990E+00  5.63440530E-10  4.26071487E-14  2.29688985E-08
  8.21895512E-14  4.85716596E+00 -1.04148441E-07 -5.58185226E-02 -3.99228719E-11
  1.73513486E+00 -2.05214805E-11  5.83551736E-05  2.13252813E+00 -9.94674033E-02
 -2.86539749E-11  6.87341249E+00 -2.38643424E-11  6.02034765E-05  1.33860334E+00
  6.65847780E-02 -3.52051706E-11  2.49056909E+00 -2.85918662E-11  5.07355951E-05
  1.80272110E+00
Quadrupole Moment num derivs               R   N=          36
  1.27125862E-01 -1.32241409E+00  1.19528823E+00  1.67927964E-14  1.12954388E-14
  1.17988917E-10  4.89360364E-01 -4.75052178E-01 -1.43081859E-02  9.37225334E-14
  3.11676381E-15 -1.40867432E-09  7.84835810E-10 -5.97280533E-10 -1.87625240E-10
 -1.81799391E-14 -3.02628842E-15  7.24369047E-01 -2.12732222E-01  2.48778082E-02
  1.87854414E-01  7.00711758E-12 -1.34680006E-13 -1.36462325E-10  4.11314634E-02
 -1.57815716E-01  1.16684253E-01  9.30241528E-12  3.76165977E-12  4.79219214E-10
 -1.29523046E-01  1.24924413E-01  4.59863249E-03  7.73041299E-12  5.33090818E-12
 -2.66997195E-10
QEq coupling tensors                       R   N=          18
  2.56904130E-01 -1.03739936E-18 -2.08454552E-01  2.13618334E-19  3.09754605E-01
 -4.84495783E-02  1.91839473E+00  5.51723984E-17 -1.60154186E+00  4.39776534E-17
 -5.84591229E-16 -3.16852863E-01  2.56904130E-01 -8.66215223E-17 -2.08454552E-01
 -6.82327387E-17 -3.09754605E-01 -4.84495783E-02
NDeriv for magnetic props                  I                3
ND12 for magnetic props                    I               -2
QEq coupling tensors num derivs            R   N=         108
 -2.54740940E-02 -9.73624642E-15  2.14344630E-01 -4.65696329E-16 -2.84243391E-02
 -1.88870536E-01  3.91067585E-01 -3.50913858E-13  8.06333469E-01 -4.15812237E-14
 -1.41939128E-10 -1.19740105E+00 -2.54740942E-02  2.36630639E-14  2.14344631E-01
  1.89837927E-14  2.84243394E-02 -1.88870536E-01  6.40057773E-01  2.35943167E-15
 -5.39110974E-01 -4.46443723E-15  8.49657157E-01 -1.00946799E-01 -9.92312452E-01
 -4.04724638E-14  3.74131631E-01  5.26463917E-14  1.69805652E-09  6.18180821E-01
  6.40057775E-01  4.65307839E-15 -5.39110976E-01  5.98892881E-15 -8.49657160E-01
 -1.00946799E-01  6.55744576E-01 -2.99158839E-14 -5.20016468E-01  2.15128165E-14
  8.76209890E-01 -1.35728108E-01 -1.68249015E-09  8.09476547E-15  5.01334940E-10
 -4.00499251E-14 -1.25551540E+00  1.17513383E-09 -6.55744574E-01  2.72883147E-14
  5.20016466E-01  1.71864331E-14  8.76209887E-01  1.35728108E-01 -2.44034746E-01
  3.41764383E-12  3.41004778E-02 -1.65267029E-12 -4.68252193E-01  2.09934268E-01
  1.39127363E-01  4.03159219E-11  4.12535835E-01  6.36792645E-12  2.40219617E-10
 -5.51663200E-01 -2.44034746E-01 -5.12364111E-12  3.41004773E-02 -4.10799001E-12
  4.68252193E-01  2.09934269E-01  1.59631952E+00  2.25290822E-12 -1.35196021E+00
 -2.28708980E-12  2.22458472E+00 -2.44359309E-01  2.23342494E-01  6.34804970E-13
  2.61454860E-01  7.24693347E-13 -3.95558459E-10 -4.84797356E-01  1.59631953E+00
 -2.05149330E-12 -1.35196022E+00 -2.15862863E-12 -2.22458473E+00 -2.44359311E-01
  1.68527266E+00  2.69173169E-12 -1.32638205E+00 -1.59034495E-12  2.33430452E+00
 -3.58890609E-01 -4.06659232E-02  7.23133239E-12 -1.59774976E-01  3.12325055E-12
  2.55134644E-10  2.00440896E-01  1.68527265E+00 -3.30885879E-12 -1.32638204E+00
 -2.72775987E-12 -2.33430451E+00 -3.58890607E-01
Number of Normal Modes                     I                3
Vib-LE2Fix                                 I               14
Vib-NDFDPol                                I                0
Vib-NumROA                                 I                0
Vib-NDim                                   I                3
Vib-NDim0                                  I                3
Vib-LFlags                                 I                8
Vib-IFlags                                 I   N=          24
           0           0           1           0           0           0
           0           0           0           0           2           0
           0           0           0           0           0           0
           3           0           0           0           0           0
Vib-AtMass                                 R   N=           3
  1.00782504E+00  1.79991594E+01  1.00782504E+00
Vib-E2                                     R   N=          42
  1.70617203E+03  3.71965303E+03  3.83388199E+03  1.07551905E+00  1.04127949E+00
  1.07339739E+00  1.84464988E+00  8.48833240E+00  9.29583098E+00  7.51691613E+01
  1.51893620E+00  1.86687456E+01  0.00000000E+00  0.00000000E+00  0.00000000E+00
  0.00000000E+00  0.00000000E+00  0.00000000E+00  0.00000000E+00  0.00000000E+00
  0.00000000E+00  0.00000000E+00  0.00000000E+00  0.00000000E+00  0.00000000E+00
  0.00000000E+00  0.00000000E+00  0.00000000E+00  0.00000000E+00  0.00000000E+00
  0.00000000E+00  0.00000000E+00  0.00000000E+00  0.00000000E+00  0.00000000E+00
  0.00000000E+00  0.00000000E+00  0.00000000E+00  0.00000000E+00  0.00000000E+00
  0.00000000E+00  0.00000000E+00
Vib-Modes                                  R   N=          27
  6.98848956E-17  4.24644324E-01  5.63635682E-01 -4.91426456E-18 -8.54933534E-12
 -6.31191869E-02  1.78809644E-17 -4.24644323E-01  5.63635683E-01  4.96048567E-18
  5.84820652E-01 -3.96232693E-01  3.45470017E-18  1.00353082E-10  4.43724311E-02
 -6.66593885E-17 -5.84820654E-01 -3.96232695E-01 -1.33830253E-27  5.54732645E-01
 -4.36282148E-01 -3.80388601E-18 -6.21221730E-02  8.25602261E-11  6.79351555E-17
  5.54732643E-01  4.36282146E-01
Anharmonic Number of Normal Modes          I                9
Anharmonic Vib-LE2Fix                      I               14
Anharmonic Vib-NDFDPol                     I                0
Anharmonic Vib-NumROA                      I                0
Anharmonic Vib-NDim                        I                3
Anharmonic Vib-NDim0                       I                3
Anharmonic Vib-LFlags                      I                8
Anharmonic Vib-IFlags                      I   N=          72
           1           0           2           0           0           0
           0           0           1           0           1           0
           0           0           0           0           1           0
           3           0           0           0           0           0
           2           0           2           0           0           0
           0           0           3           0           2           1
           0           0           0           0           2           0
           1           0           0           0           0           0
           3           0           3           2           0           0
           0           0           3           0           3           1
           0           0           0           0           2           0
           3           0           0           0           0           0
Anharmonic Vib-AtMass                      R   N=           3
  1.00782504E+00  1.79991594E+01  1.00782504E+00
Anharmonic Vib-E2                          R   N=         126
  1.65523619E+03  3.54920209E+03  3.64331900E+03  3.27242375E+03  5.19867237E+03
  7.01366939E+03  5.27854665E+03  7.02685471E+03  7.18891246E+03  0.00000000E+00
  0.00000000E+00  0.00000000E+00  0.00000000E+00  0.00000000E+00  0.00000000E+00
  0.00000000E+00  0.00000000E+00  0.00000000E+00  0.00000000E+00  0.00000000E+00
  0.00000000E+00  0.00000000E+00  0.00000000E+00  0.00000000E+00  0.00000000E+00
  0.00000000E+00  0.00000000E+00  7.32225191E+01  3.74492322E-01  1.38970905E+01
  5.89832701E-01  7.07310758E-01  1.11708851E+00  3.26001336E+00  4.52610612E+00
  1.24371235E-01  0.00000000E+00  0.00000000E+00  0.00000000E+00  0.00000000E+00
  0.00000000E+00  0.00000000E+00  0.00000000E+00  0.00000000E+00  0.00000000E+00
  0.00000000E+00  0.00000000E+00  0.00000000E+00  0.00000000E+00  0.00000000E+00
  0.00000000E+00  0.00000000E+00  0.00000000E+00  0.00000000E+00  0.00000000E+00
  0.00000000E+00  0.00000000E+00  0.00000000E+00  0.00000000E+00  0.00000000E+00
  0.00000000E+00  0.00000000E+00  0.00000000E+00  1.76478619E+02  4.20939415E-01
  1.52171769E+01  7.19062622E-01  5.42781727E-01  6.35403642E-01  2.46383953E+00
  2.56963336E+00  6.90182838E-02  0.00000000E+00  0.00000000E+00  0.00000000E+00
  0.00000000E+00  0.00000000E+00  0.00000000E+00  0.00000000E+00  0.00000000E+00
  0.00000000E+00  0.00000000E+00  0.00000000E+00  0.00000000E+00  0.00000000E+00
  0.00000000E+00  0.00000000E+00  0.00000000E+00  0.00000000E+00  0.00000000E+00
  0.00000000E+00  0.00000000E+00  0.00000000E+00  0.00000000E+00  0.00000000E+00
  0.00000000E+00  0.00000000E+00  0.00000000E+00  0.00000000E+00  0.00000000E+00
  0.00000000E+00  0.00000000E+00  0.00000000E+00  0.00000000E+00  0.00000000E+00
  0.00000000E+00  0.00000000E+00  0.00000000E+00  0.00000000E+00  0.00000000E+00
  0.00000000E+00  0.00000000E+00  0.00000000E+00  0.00000000E+00  0.00000000E+00
  0.00000000E+00  0.00000000E+00  0.00000000E+00  0.00000000E+00  0.00000000E+00
  0.00000000E+00  0.00000000E+00  0.00000000E+00  0.00000000E+00  0.00000000E+00
  0.00000000E+00
Anharmonic Vib-Modes                       R   N=          81
  1.41728039E-16 -4.06111207E-01 -5.45759292E-01 -4.06742305E-17  8.81914063E-12
  6.11172852E-02  5.84689673E-16  4.06111207E-01 -5.45759292E-01 -5.71052740E-16
 -5.72881963E-01  3.88603865E-01  2.89617848E-17 -9.83484388E-11 -4.35181107E-02
  5.38123845E-17  5.72881965E-01  3.88603866E-01 -5.72255862E-16 -5.35430931E-01
  4.21101875E-01  3.27007350E-17  5.99606555E-02 -7.96875896E-11 -1.17599341E-17
 -5.35430930E-01 -4.21101874E-01  1.55490800E-16 -9.62767865E-01 -1.02260564E+00
 -7.62125322E-17 -5.03065821E-12  1.14517300E-01  1.20561997E-15  9.62767866E-01
 -1.02260564E+00 -4.36180455E-16 -9.71946339E-01 -1.41079235E-01 -1.05143227E-17
 -9.03140986E-11  1.57988695E-02  6.23960044E-16  9.71946341E-01 -1.41079234E-01
 -1.14252924E-15 -1.14451010E+00  7.78871945E-01  5.80475999E-17 -1.96722121E-10
 -8.72225899E-02  1.05833417E-16  1.14451011E+00  7.78871948E-01 -4.01668229E-16
 -9.14767155E-01 -1.46080538E-01 -9.64421672E-18  5.65867152E-02  6.08628578E-02
  5.73908238E-16 -9.58381271E-02 -9.40894124E-01 -1.24217816E-15 -1.20112214E+00
  8.82212718E-01  6.72940134E-17  7.03282787E-02 -4.34840080E-02  4.03468656E-17
 -5.48993448E-02 -1.05614041E-01 -1.21185761E-15 -1.13221533E+00  8.93120348E-01
  6.91961711E-17  1.19921311E-01 -5.70193554E-03 -2.39450968E-17 -1.00950839E+00
 -7.91287149E-01
Anharmonic number of displacements         I                3
Anharmonic displacement N1                 I                0
Anharmonic displacement flags              I   N=           3
           1           2           3
Anharmonic displacements                   R   N=          27
 -6.73867120E-17 -4.09464513E-01 -5.43487332E-01  4.73859377E-18  8.24373255E-12
  6.08628579E-02 -1.72417715E-17  4.09464513E-01 -5.43487332E-01 -4.86116701E-18
 -5.73111395E-01  3.88299337E-01 -3.38553029E-18 -9.83438246E-11 -4.34840079E-02
  6.53247367E-17  5.73111397E-01  3.88299339E-01  1.29173508E-27 -5.35430931E-01
  4.21101875E-01  3.67153123E-18  5.99606555E-02 -7.96875630E-11 -6.55713774E-17
 -5.35430930E-01 -4.21101874E-01
ClPar MaxAn                                I              200
ClPar NIntPar                              I               12
ClPar NRealPar                             I               16
ClPar NBits                                I               30
ClPar LenBitVec                            I                1
ClPar Read BitMap                          I   N=         200
           0           0           0           0           0           0
           0           0           0           0           0           0
           0           0           0           0           0           0
           0           0           0           0           0           0
           0           0           0           0           0           0
           0           0           0           0           0           0
           0           0           0           0           0           0
           0           0           0           0           0           0
           0           0           0           0           0           0
           0           0           0           0           0           0
           0           0           0           0           0           0
           0           0           0           0           0           0
           0           0           0           0           0           0
           0           0           0           0           0           0
           0           0           0           0           0           0
           0           0           0           0           0           0
           0           0           0           0           0           0
           0           0           0           0           0           0
           0           0           0           0           0           0
           0           0           0           0           0           0
           0           0           0           0           0           0
           0           0           0           0           0           0
           0           0           0           0           0           0
           0           0           0           0           0           0
           0           0           0           0           0           0
           0           0           0           0           0           0
           0           0           0           0           0           0
           0           0           0           0           0           0
           0           0           0           0           0           0
           0           0           0           0           0           0
           0           0           0           0           0           0
           0           0           0           0           0           0
           0           0           0           0           0           0
           0           0
ClPar Default BitMap                       I   N=         200
      516096      516096      516096      516096      516096      516096
      516096      516096      516096      516096      516096      516096
      516096      516096      516096      516096      516096      516096
      516096      516096      516096      516096      516096      516096
      516096      516096      516096      516096      516096      516096
      516096      516096      516096      516096      516096      516096
      516096      516096      516096      516096      516096      516096
      516096      516096      516096      516096      516096      516096
      516096      516096      516096      516096      516096      516096
      516096      516096      516096      516096      516096      516096
      516096      516096      516096      516096      516096      516096
      516096      516096      516096      516096      516096      516096
      516096      516096      516096      516096      516096      516096
      516096      516096      516096      516096      516096      516096
      516096      516096      122880      122880      122880      122880
      122880      122880      122880      122880      122880      122880
      122880      122880      122880      122880      122880      122880
      122880      122880      122880      122880      122880      122880
      122880      122880      122880      122880      122880      122880
      122880      122880      122880      122880      122880      122880
      122880      122880      122880      122880      122880      122880
      122880      122880      122880      122880      122880      122880
      122880      122880      122880      122880      122880      122880
      122880      122880      122880      122880      122880      122880
      122880      122880      122880      122880      122880      122880
      122880      122880      122880      122880      122880      122880
      122880      122880      122880      122880      122880      122880
      122880      122880      122880      122880      122880      122880
      122880      122880      122880      122880      122880      122880
      122880      122880      122880      122880      122880      122880
      122880      122880      122880      122880      122880      122880
      122880      122880      122880      122880      122880      122880
      122880      122880      122880      122880      122880      122880
      122880      122880
ClPar Int Params                           I   N=        2400
           0           0           0           0           0           0
           0           0           0           0           0           0
           0           0           0           0           0           0
           0           0           0           0           0           0
           0           0           0           0           0           0
           0           0           0           0           0           0
           0           0           0           0           0           0
           0           0           0           0           0           0
           0           0           0           0           0           0
           0           0           0           0           0           0
           0           0           0           0           0           0
           0           0           0           0           0           0
           0           0           0           0           0           0
           0           0           0           0           0           0
           0           0           0           0           0           0
           0           0           0           0           0           0
           0           0           0           0           0           0
           0           0           0           0           0           0
           0           0           0           0           0           0
           0           0           0           0           0           0
           0           0           0           0           0           0
           0           0           0           0           0           0
           0           0           0           0           0           0
           0           0           0           0           0           0
           0           0           0           0           0           0
           0           0           0           0           0           0
           0           0           0           0           0           0
           0           0           0           0           0           0
           0           0           0           0           0           0
           0           0           0           0           0           0
           0           0           0           0           0           0
           0           0           0           0           0           0
           0           0           0           0           0           0
           0           0           0           0           0           0
           0           0           0           0           0           0
           0           0           0           0           0           0
           0           0           0           0           0           0
           0           0           0           0           0           0
           0           0           0           0           0           0
           0           0           0           0           0           0
           0           0           0           0           0           0
           0           0           0           0           0           0
           0           0           0           0           0           0
           0           0           0           0           0           0
           0           0           0           0           0           0
           0           0           0           0           0           0
           0           0           0           0           0           0
           0           0           0           0           0           0
           0           0           0           0           0           0
           0           0           0           0           0           0
           0           0           0           0           0           0
           0           0           0           0           0           0
           0           0           0           0           0           0
           0           0           0           0           0           0
           0           0           0           0           0           0
           0           0           0           0           0           0
           0           0           0           0           0           0
           0           0           0           0           0           0
           0           0           0           0           0           0
           0           0           0           0           0           0
           0           0           0           0           0           0
           0           0           0           0           0           0
           0           0           0           0           0           0
           0           0           0           0           0           0
           0           0           0           0           0           0
           0           0           0           0           0           0
           0           0           0           0           0           0
           0           0           0           0           0           0
           0           0           0           0           0           0
           0           0           0           0           0           0
           0           0           0           0           0           0
           0           0           0           0           0           0
           0           0           0           0           0           0
           0           0           0           0           0           0
           0           0           0           0           0           0
           0           0           0           0           0           0
           0           0           0           0           0           0
           0           0           0           0           0           0
           0           0           0           0           0           0
           0           0           0           0           0           0
           0           0           0           0           0           0
           0           0           0           0           0           0
           0           0           0           0           0           0
           0           0           0           0           0           0
           0           0           0           0           0           0
           0           0           0           0           0           0
           0           0           0           0           0           0
           0           0           0           0           0           0
           0           0           0           0           0           0
           0           0           0           0           0           0
           0           0           0           0           0           0
           0           0           0           0           0           0
           0           0           0           0           0           0
           0           0           0           0           0           0
           0           0           0           0           0           0
           0           0           0           0           0           0
           0           0           0           0           0           0
           0           0           0           0           0           0
           0           0           0           0           0           0
           0           0           0           0           0           0
           0           0           0           0           0           0
           0           0           0           0           0           0
           0           0           0           0           0           0
           0           0           0           0           0           0
           0           0           0           0           0           0
           0           0           0           0           0           0
           0           0           0           0           0           0
           0           0           0           0           0           0
           0           0           0           0           0           0
           0           0           0           0           0           0
           0           0           0           0           0           0
           0           0           0           0           0           0
           0           0           0           0           0           0
           0           0           0           0           0           0
           0           0           0           0           0           0
           0           0           0           0           0           0
           0           0           0           0           0           0
           0           0           0           0           0           0
           0           0           0           0           0           0
           0           0           0           0           0           0
           0           0           0           0           0           0
           0           0           0           0           0           0
           0           0           0           0           0           0
           0           0           0           0           0           0
           0           0           0           0           0           0
           0           0           0           0           0           0
           0           0           0           0           0           0
           0           0           0           0           0           0
           0           0           0           0           0           0
           0           0           0           0           0           0
           0           0           0           0           0           0
           0           0           0           0           0           0
           0           0           0           0           0           0
           0           0           0           0           0           0
           0           0           0           0           0           0
           0           0           0           0           0           0
           0           0           0           0           0           0
           0           0           0           0           0           0
           0           0           0           0           0           0
           0           0           0           0           0           0
           0           0           0           0           0           0
           0           0           0           0           0           0
           0           0           0           0           0           0
           0           0           0           0           0           0
           0           0           0           0           0           0
           0           0           0           0           0           0
           0           0           0           0           0           0
           0           0           0           0           0           0
           0           0           0           0           0           0
           0           0           0           0           0           0
           0           0           0           0           0           0
           0           0           0           0           0           0
           0           0           0           0           0           0
           0           0           0           0           0           0
           0           0           0           0           0           0
           0           0           0           0           0           0
           0           0           0           0           0           0
           0           0           0           0           0           0
           0           0           0           0           0           0
           0           0           0           0           0           0
           0           0           0           0           0           0
           0           0           0           0           0           0
           0           0           0           0           0           0
           0           0           0           0           0           0
           0           0           0           0           0           0
           0           0           0           0           0           0
           0           0           0           0           0           0
           0           0           0           0           0           0
           0           0           0           0           0           0
           0           0           0           0           0           0
           0           0           0           0           0           0
           0           0           0           0           0           0
           0           0           0           0           0           0
           0           0           0           0           0           0
           0           0           0           0           0           0
           0           0           0           0           0           0
           0           0           0           0           0           0
           0           0           0           0           0           0
           0           0           0           0           0           0
           0           0           0           0           0           0
           0           0           0           0           0           0
           0           0           0           0           0           0
           0           0           0           0           0           0
           0           0           0           0           0           0
           0           0           0           0           0           0
           0           0           0           0           0           0
           0           0           0           0           0           0
           0           0           0           0           0           0
           0           0           0           0           0           0
           0           0           0           0           0           0
           0           0           0           0           0           0
           0           0           0           0           0           0
           0           0           0           0           0           0
           0           0           0           0           0           0
           0           0           0           0           0           0
           0           0           0           0           0           0
           0           0           0           0           0           0
           0           0           0           0           0           0
           0           0           0           0           0           0
           0           0           0           0           0           0
           0           0           0           0           0           0
           0           0           0           0           0           0
           0           0           0           0           0           0
           0           0           0           0           0           0
           0           0           0           0           0           0
           0           0           0           0           0           0
           0           0           0           0           0           0
           0           0           0           0           0           0
           0           0           0           0           0           0
           0           0           0           0           0           0
           0           0           0           0           0           0
           0           0           0           0           0           0
           0           0           0           0           0           0
           0           0           0           0           0           0
           0           0           0           0           0           0
           0           0           0           0           0           0
           0           0           0           0           0           0
           0           0           0           0           0           0
           0           0           0           0           0           0
           0           0           0           0           0           0
           0           0           0           0           0           0
           0           0           0           0           0           0
           0           0           0           0           0           0
           0           0           0           0           0           0
           0           0           0           0           0           0
           0           0           0           0           0           0
           0           0           0           0           0           0
           0           0           0           0           0           0
           0           0           0           0           0           0
           0           0           0           0           0           0
           0           0           0           0           0           0
           0           0           0           0           0           0
           0           0           0           0           0           0
           0           0           0           0           0           0
           0           0           0           0           0           0
           0           0           0           0           0           0
           0           0           0           0           0           0
           0           0           0           0           0           0
           0           0           0           0           0           0
           0           0           0           0           0           0
           0           0           0           0           0           0
           0           0           0           0           0           0
           0           0           0           0           0           0
           0           0           0           0           0           0
           0           0           0           0           0           0
           0           0           0           0           0           0
           0           0           0           0           0           0
           0           0           0           0           0           0
           0           0           0           0           0           0
           0           0           0           0           0           0
           0           0           0           0           0           0
           0           0           0           0           0           0
           0           0           0           0           0           0
           0           0           0           0           0           0
           0           0           0           0           0           0
           0           0           0           0           0           0
           0           0           0           0           0           0
           0           0           0           0           0           0
           0           0           0           0           0           0
           0           0           0           0           0           0
           0           0           0           0           0           0
           0           0           0           0           0           0
           0           0           0           0           0           0
           0           0           0           0           0           0
           0           0           0           0           0           0
           0           0           0           0           0           0
           0           0           0           0           0           0
           0           0           0           0           0           0
           0           0           0           0           0           0
           0           0           0           0           0           0
           0           0           0           0           0           0
           0           0           0           0           0           0
           0           0           0           0           0           0
           0           0           0           0           0           0
           0           0           0           0           0           0
           0           0           0           0           0           0
           0           0           0           0           0           0
           0           0           0           0           0           0
           0           0           0           0           0           0
           0           0           0           0           0           0
           0           0           0           0           0           0
           0           0           0           0           0           0
           0           0           0           0           0           0
           0           0           0           0           0           0
           0           0           0           0           0           0
           0           0           0           0           0           0
           0           0           0           0           0           0
           0           0           0           0           0           0
           0           0           0           0           0           0
           0           0           0           0           0           0
           0           0           0           0           0           0
           0           0           0           0           0           0
           0           0           0           0           0           0
           0           0           0           0           0           0
           0           0           0           0           0           0
           0           0           0           0           0           0
           0           0           0           0           0           0
           0           0           0           0           0           0
           0           0           0           0           0           0
           0           0           0           0           0           0
           0           0           0           0           0           0
           0           0           0           0           0           0
           0           0           0           0           0           0
           0           0           0           0           0           0
           0           0           0           0           0           0
           0           0           0           0           0           0
           0           0           0           0           0           0
           0           0           0           0           0           0
           0           0           0           0           0           0
           0           0           0           0           0           0
           0           0           0           0           0           0
           0           0           0           0           0           0
           0           0           0           0           0           0
           0           0           0           0           0           0
           0           0           0           0           0           0
           0           0           0           0           0           0
           0           0           0           0           0           0
           0           0           0           0           0           0
           0           0           0           0           0           0
           0           0           0           0           0           0
           0           0           0           0           0           0
           0           0           0           0           0           0
           0           0           0           0           0           0
           0           0           0           0           0           0
           0           0           0           0           0           0
           0           0           0           0           0           0
           0           0           0           0           0           0
           0           0           0           0           0           0
           0           0           0           0           0           0
           0           0           0           0           0           0
           0           0           0           0           0           0
           0           0           0           0           0           0
           0           0           0           0           0           0
           0           0           0           0           0           0
           0           0           0           0           0           0
           0           0           0           0           0           0
           0           0           0           0           0           0
           0           0           0           0           0           0
           0           0           0           0           0           0
           0           0           0           0           0           0
           0           0           0           0           0           0
           0           0           0           0           0           0
           0           0           0           0           0           0
           0           0           0           0           0           0
           0           0           0           0           0           0
           0           0           0           0           0           0
           0           0           0           0           0           0
           0           0           0           0           0           0
           0           0           0           0           0           0
           0           0           0           0           0           0
           0           0           0           0           0           0
           0           0           0           0           0           0
           0           0           0           0           0           0
           0           0           0           0           0           0
           0           0           0           0           0           0
           0           0           0           0           0           0
           0           0           0           0           0           0
           0           0           0           0           0           0
           0           0           0           0           0           0
           0           0           0           0           0           0
           0           0           0           0           0           0
           0           0           0           0           0           0
           0           0           0           0           0           0
           0           0           0           0           0           0
           0           0           0           0           0           0
           0           0           0           0           0           0
           0           0           0           0           0           0
           0           0           0           0           0           0
           0           0           0           0           0           0
           0           0           0           0           0           0
           0           0           0           0           0           0
           0           0           0           0           0           0
           0           0           0           0           0           0
           0           0           0           0           0           0
           0           0           0           0           0           0
           0           0           0           0           0           0
           0           0           0           0           0           0
           0           0           0           0           0           0
           0           0           0           0           0           0
           0           0           0           0           0           0
           0           0           0           0           0           0
           0           0           0           0           0           0
           0           0           0           0           0           0
           0           0           0           0           0           0
           0           0           0           0           0           0
           0           0           0           0           0           0
           0           0           0           0           0           0
           0           0           0           0           0           0
           0           0           0           0           0           0
           0           0           0           0           0           0
           0           0           0           0           0           0
           0           0           0           0           0           0
           0           0           0           0           0           0
           0           0           0           0           0           0
           0           0           0           0           0           0
           0           0           0           0           0           0
           0           0           0           0           0           0
           0           0           0           0           0           0
           0           0           0           0           0           0
           0           0           0           0           0           0
ClPar Real Params                          R   N=        3200
  0.00000000E+00  0.00000000E+00  0.00000000E+00  0.00000000E+00  0.00000000E+00
  0.00000000E+00  0.00000000E+00  0.00000000E+00  0.00000000E+00  0.00000000E+00
  0.00000000E+00  0.00000000E+00  0.00000000E+00  0.00000000E+00  0.00000000E+00
  0.00000000E+00  0.00000000E+00  0.00000000E+00  0.00000000E+00  0.00000000E+00
  0.00000000E+00  0.00000000E+00  0.00000000E+00  0.00000000E+00  0.00000000E+00
  0.00000000E+00  0.00000000E+00  0.00000000E+00  0.00000000E+00  0.00000000E+00
  0.00000000E+00  0.00000000E+00  0.00000000E+00  0.00000000E+00  0.00000000E+00
  0.00000000E+00  0.00000000E+00  0.00000000E+00  0.00000000E+00  0.00000000E+00
  0.00000000E+00  0.00000000E+00  0.00000000E+00  0.00000000E+00  0.00000000E+00
  0.00000000E+00  0.00000000E+00  0.00000000E+00  0.00000000E+00  0.00000000E+00
  0.00000000E+00  0.00000000E+00  0.00000000E+00  0.00000000E+00  0.00000000E+00
  0.00000000E+00  0.00000000E+00  0.00000000E+00  0.00000000E+00  0.00000000E+00
  0.00000000E+00  0.00000000E+00  0.00000000E+00  0.00000000E+00  0.00000000E+00
  0.00000000E+00  0.00000000E+00  0.00000000E+00  0.00000000E+00  0.00000000E+00
  0.00000000E+00  0.00000000E+00  0.00000000E+00  0.00000000E+00  0.00000000E+00
  0.00000000E+00  0.00000000E+00  0.00000000E+00  0.00000000E+00  0.00000000E+00
  0.00000000E+00  0.00000000E+00  0.00000000E+00  0.00000000E+00  0.00000000E+00
  0.00000000E+00  0.00000000E+00  0.00000000E+00  0.00000000E+00  0.00000000E+00
  0.00000000E+00  0.00000000E+00  0.00000000E+00  0.00000000E+00  0.00000000E+00
  0.00000000E+00  0.00000000E+00  0.00000000E+00  0.00000000E+00  0.00000000E+00
  0.00000000E+00  0.00000000E+00  0.00000000E+00  0.00000000E+00  0.00000000E+00
  0.00000000E+00  0.00000000E+00  0.00000000E+00  0.00000000E+00  0.00000000E+00
  0.00000000E+00  0.00000000E+00  0.00000000E+00  0.00000000E+00  0.00000000E+00
  0.00000000E+00  0.00000000E+00  0.00000000E+00  0.00000000E+00  0.00000000E+00
  0.00000000E+00  0.00000000E+00  0.00000000E+00  0.00000000E+00  0.00000000E+00
  0.00000000E+00  0.00000000E+00  0.00000000E+00  0.00000000E+00  0.00000000E+00
  0.00000000E+00  0.00000000E+00  0.00000000E+00  0.00000000E+00  0.00000000E+00
  0.00000000E+00  0.00000000E+00  0.00000000E+00  0.00000000E+00  0.00000000E+00
  0.00000000E+00  0.00000000E+00  0.00000000E+00  0.00000000E+00  0.00000000E+00
  0.00000000E+00  0.00000000E+00  0.00000000E+00  0.00000000E+00  0.00000000E+00
  0.00000000E+00  0.00000000E+00  0.00000000E+00  0.00000000E+00  0.00000000E+00
  0.00000000E+00  0.00000000E+00  0.00000000E+00  0.00000000E+00  0.00000000E+00
  0.00000000E+00  0.00000000E+00  0.00000000E+00  0.00000000E+00  0.00000000E+00
  0.00000000E+00  0.00000000E+00  0.00000000E+00  0.00000000E+00  0.00000000E+00
  0.00000000E+00  0.00000000E+00  0.00000000E+00  0.00000000E+00  0.00000000E+00
  0.00000000E+00  0.00000000E+00  0.00000000E+00  0.00000000E+00  0.00000000E+00
  0.00000000E+00  0.00000000E+00  0.00000000E+00  0.00000000E+00  0.00000000E+00
  0.00000000E+00  0.00000000E+00  0.00000000E+00  0.00000000E+00  0.00000000E+00
  0.00000000E+00  0.00000000E+00  0.00000000E+00  0.00000000E+00  0.00000000E+00
  0.00000000E+00  0.00000000E+00  0.00000000E+00  0.00000000E+00  0.00000000E+00
  2.26000000E-01  4.43000000E-01  1.01000000E-01  1.47000000E-01  1.92000000E-01
  2.40000000E-01  2.75000000E-01  3.03000000E-01  3.25000000E-01  4.13000000E-01
  9.60000000E-02  1.35000000E-01  1.73000000E-01  2.11000000E-01  2.48000000E-01
  2.86000000E-01  3.23000000E-01  3.60000000E-01  8.20000000E-02  1.04000000E-01
  1.17000000E-01  1.23000000E-01  1.29000000E-01  1.34000000E-01  1.40000000E-01
  1.44000000E-01  1.48000000E-01  1.52000000E-01  1.55000000E-01  1.76000000E-01
  1.98000000E-01  2.19000000E-01  2.39000000E-01  2.60000000E-01  2.80000000E-01
  3.00000000E-01  7.90000000E-02  9.90000000E-02  1.19000000E-01  1.26000000E-01
  1.33000000E-01  1.40000000E-01  1.47000000E-01  1.53000000E-01  1.58000000E-01
  1.63000000E-01  1.57000000E-01  1.70000000E-01  1.87000000E-01  2.03000000E-01
  2.19000000E-01  2.34000000E-01  2.50000000E-01  2.65000000E-01  7.40000000E-02
  9.20000000E-02  1.05000000E-01  1.06000000E-01  1.07000000E-01  1.08000000E-01
  1.09000000E-01  1.10000000E-01  1.11000000E-01  1.12000000E-01  1.13000000E-01
  1.14000000E-01  1.15000000E-01  1.16000000E-01  1.17000000E-01  1.17000000E-01
  1.26000000E-01  1.36000000E-01  1.46000000E-01  1.55000000E-01  1.65000000E-01
  1.73000000E-01  1.82000000E-01  1.90000000E-01  1.62000000E-01  1.78000000E-01
  1.10000000E-01  1.35000000E-01  1.59000000E-01  1.83000000E-01  2.07000000E-01
  2.31000000E-01  6.90000000E-02  9.40000000E-02  1.02000000E-01  1.03000000E-01
  1.05000000E-01  1.07000000E-01  1.09000000E-01  1.11000000E-01  1.13000000E-01
  1.15000000E-01  1.17000000E-01  1.19000000E-01  1.20000000E-01  1.22000000E-01
  1.24000000E-01  1.26000000E-01  1.28000000E-01  1.28000000E-01  1.28000000E-01
  1.28000000E-01  1.28000000E-01  1.28000000E-01  1.28000000E-01  1.28000000E-01
  1.28000000E-01  1.28000000E-01  1.28000000E-01  1.28000000E-01  1.28000000E-01
  1.28000000E-01  1.28000000E-01  1.28000000E-01  1.28000000E-01  1.28000000E-01
  1.28000000E-01  1.28000000E-01  1.28000000E-01  1.28000000E-01  1.28000000E-01
  1.28000000E-01  1.28000000E-01  1.28000000E-01  1.28000000E-01  1.28000000E-01
  1.28000000E-01  1.28000000E-01  1.28000000E-01  1.28000000E-01  1.28000000E-01
  1.28000000E-01  1.28000000E-01  1.28000000E-01  1.28000000E-01  1.28000000E-01
  1.28000000E-01  1.28000000E-01  1.28000000E-01  1.28000000E-01  1.28000000E-01
  1.28000000E-01  1.28000000E-01  1.28000000E-01  1.28000000E-01  1.28000000E-01
  1.28000000E-01  1.28000000E-01  1.28000000E-01  1.28000000E-01  1.28000000E-01
  1.28000000E-01  1.28000000E-01  1.28000000E-01  1.28000000E-01  1.28000000E-01
  1.28000000E-01  1.28000000E-01  1.28000000E-01  1.28000000E-01  1.28000000E-01
  1.28000000E-01  1.28000000E-01  1.28000000E-01  1.28000000E-01  1.28000000E-01
  1.28000000E-01  1.28000000E-01  1.28000000E-01  1.28000000E-01  1.28000000E-01
  1.28000000E-01  1.28000000E-01  1.28000000E-01  1.28000000E-01  1.28000000E-01
  1.28000000E-01  1.28000000E-01  1.28000000E-01  1.28000000E-01  1.28000000E-01
  1.28000000E-01  1.28000000E-01  1.28000000E-01  1.28000000E-01  1.28000000E-01
  1.28000000E-01  1.28000000E-01  1.28000000E-01  1.28000000E-01  1.28000000E-01
  1.28000000E-01  1.28000000E-01  1.28000000E-01  1.28000000E-01  1.28000000E-01
  5.47000000E-01  5.92000000E-01  5.99000000E-01  6.68000000E-01  6.98000000E-01
  7.18000000E-01  7.26000000E-01  7.36000000E-01  7.43000000E-01  7.45000000E-01
  6.07000000E-01  6.66000000E-01  6.93000000E-01  7.09000000E-01  7.20000000E-01
  7.29000000E-01  7.35000000E-01  7.40000000E-01  6.08000000E-01  7.34000000E-01
  7.46000000E-01  7.55000000E-01  7.61000000E-01  7.65000000E-01  7.67000000E-01
  7.60000000E-01  7.49000000E-01  7.33000000E-01  7.08000000E-01  6.48000000E-01
  6.88000000E-01  7.09000000E-01  7.22000000E-01  7.31000000E-01  7.38000000E-01
  7.44000000E-01  6.09000000E-01  7.30000000E-01  7.41000000E-01  7.52000000E-01
  7.58000000E-01  7.63000000E-01  7.66000000E-01  7.58000000E-01  7.48000000E-01
  7.33000000E-01  7.01000000E-01  6.45000000E-01  6.86000000E-01  7.08000000E-01
  7.22000000E-01  7.31000000E-01  7.38000000E-01  7.44000000E-01  6.08000000E-01
  7.28000000E-01  7.32000000E-01  7.32000000E-01  7.32000000E-01  7.32000000E-01
  7.32000000E-01  7.32000000E-01  7.32000000E-01  7.32000000E-01  7.32000000E-01
  7.31000000E-01  7.31000000E-01  7.31000000E-01  7.31000000E-01  7.46000000E-01
  7.37000000E-01  7.46000000E-01  7.51000000E-01  7.55000000E-01  7.58000000E-01
  7.47000000E-01  7.32000000E-01  7.11000000E-01  7.41000000E-01  7.07000000E-01
  7.47000000E-01  7.43000000E-01  7.42000000E-01  7.42000000E-01  7.43000000E-01
  7.44000000E-01  6.05000000E-01  7.24000000E-01  7.26000000E-01  7.26000000E-01
  7.27000000E-01  7.27000000E-01  7.27000000E-01  7.28000000E-01  7.28000000E-01
  7.28000000E-01  7.28000000E-01  7.28000000E-01  7.29000000E-01  7.29000000E-01
  7.29000000E-01  7.29000000E-01  7.29000000E-01  7.29000000E-01  7.29000000E-01
  7.29000000E-01  7.29000000E-01  7.29000000E-01  7.29000000E-01  7.29000000E-01
  7.29000000E-01  7.29000000E-01  7.29000000E-01  7.29000000E-01  7.29000000E-01
  7.29000000E-01  7.29000000E-01  7.29000000E-01  7.29000000E-01  7.29000000E-01
  7.29000000E-01  7.29000000E-01  7.29000000E-01  7.29000000E-01  7.29000000E-01
  7.29000000E-01  7.29000000E-01  7.29000000E-01  7.29000000E-01  7.29000000E-01
  7.29000000E-01  7.29000000E-01  7.29000000E-01  7.29000000E-01  7.29000000E-01
  7.29000000E-01  7.29000000E-01  7.29000000E-01  7.29000000E-01  7.29000000E-01
  7.29000000E-01  7.29000000E-01  7.29000000E-01  7.29000000E-01  7.29000000E-01
  7.29000000E-01  7.29000000E-01  7.29000000E-01  7.29000000E-01  7.29000000E-01
  7.29000000E-01  7.29000000E-01  7.29000000E-01  7.29000000E-01  7.29000000E-01
  7.29000000E-01  7.29000000E-01  7.29000000E-01  7.29000000E-01  7.29000000E-01
  7.29000000E-01  7.29000000E-01  7.29000000E-01  7.29000000E-01  7.29000000E-01
  7.29000000E-01  7.29000000E-01  7.29000000E-01  7.29000000E-01  7.29000000E-01
  7.29000000E-01  7.29000000E-01  7.29000000E-01  7.29000000E-01  7.29000000E-01
  7.29000000E-01  7.29000000E-01  7.29000000E-01  7.29000000E-01  7.29000000E-01
  7.29000000E-01  7.29000000E-01  7.29000000E-01  7.29000000E-01  7.29000000E-01
  7.29000000E-01  7.29000000E-01  7.29000000E-01  7.29000000E-01  7.29000000E-01
  7.29000000E-01  7.29000000E-01  7.29000000E-01  7.29000000E-01  7.29000000E-01
  7.29000000E-01  7.29000000E-01  7.29000000E-01  7.29000000E-01  7.29000000E-01
  1.00000000E+00  1.70400000E+00  3.23000000E-01  3.89000000E-01  4.67000000E-01
  5.67000000E-01  6.36000000E-01  6.64000000E-01  6.96000000E-01  8.79000000E-01
  3.07000000E-01  3.48000000E-01  4.00000000E-01  4.54000000E-01  5.09000000E-01
  5.65000000E-01  6.21000000E-01  6.77000000E-01  2.56000000E-01  3.50000000E-01
  3.64000000E-01  3.62000000E-01  3.62000000E-01  3.62000000E-01  3.62000000E-01
  3.65000000E-01  3.69000000E-01  3.75000000E-01  3.86000000E-01  4.46000000E-01
  4.55000000E-01  4.74000000E-01  4.96000000E-01  5.20000000E-01  5.45000000E-01
  5.70000000E-01  2.45000000E-01  3.22000000E-01  3.55000000E-01  3.59000000E-01
  3.64000000E-01  3.70000000E-01  3.76000000E-01  3.85000000E-01  3.95000000E-01
  4.08000000E-01  3.76000000E-01  4.23000000E-01  4.22000000E-01  4.32000000E-01
  4.45000000E-01  4.59000000E-01  4.75000000E-01  4.91000000E-01  2.28000000E-01
  2.92000000E-01  2.89000000E-01  2.92000000E-01  2.95000000E-01  2.98000000E-01
  3.00000000E-01  3.03000000E-01  3.06000000E-01  3.09000000E-01  3.12000000E-01
  3.15000000E-01  3.18000000E-01  3.21000000E-01  3.24000000E-01  3.61000000E-01
  3.69000000E-01  3.70000000E-01  3.72000000E-01  3.75000000E-01  3.78000000E-01
  3.85000000E-01  3.94000000E-01  4.07000000E-01  5.26000000E-01  6.21000000E-01
  3.36000000E-01  3.54000000E-01  3.71000000E-01  3.86000000E-01  4.02000000E-01
  4.17000000E-01  2.09000000E-01  2.94000000E-01  2.65000000E-01  2.72000000E-01
  2.78000000E-01  2.84000000E-01  2.91000000E-01  2.97000000E-01  3.03000000E-01
  3.10000000E-01  3.16000000E-01  3.22000000E-01  3.29000000E-01  3.35000000E-01
  3.41000000E-01  3.48000000E-01  3.54000000E-01  3.54000000E-01  3.54000000E-01
  3.54000000E-01  3.54000000E-01  3.54000000E-01  3.54000000E-01  3.54000000E-01
  3.54000000E-01  3.54000000E-01  3.54000000E-01  3.54000000E-01  3.54000000E-01
  3.54000000E-01  3.54000000E-01  3.54000000E-01  3.54000000E-01  3.54000000E-01
  3.54000000E-01  3.54000000E-01  3.54000000E-01  3.54000000E-01  3.54000000E-01
  3.54000000E-01  3.54000000E-01  3.54000000E-01  3.54000000E-01  3.54000000E-01
  3.54000000E-01  3.54000000E-01  3.54000000E-01  3.54000000E-01  3.54000000E-01
  3.54000000E-01  3.54000000E-01  3.54000000E-01  3.54000000E-01  3.54000000E-01
  3.54000000E-01  3.54000000E-01  3.54000000E-01  3.54000000E-01  3.54000000E-01
  3.54000000E-01  3.54000000E-01  3.54000000E-01  3.54000000E-01  3.54000000E-01
  3.54000000E-01  3.54000000E-01  3.54000000E-01  3.54000000E-01  3.54000000E-01
  3.54000000E-01  3.54000000E-01  3.54000000E-01  3.54000000E-01  3.54000000E-01
  3.54000000E-01  3.54000000E-01  3.54000000E-01  3.54000000E-01  3.54000000E-01
  3.54000000E-01  3.54000000E-01  3.54000000E-01  3.54000000E-01  3.54000000E-01
  3.54000000E-01  3.54000000E-01  3.54000000E-01  3.54000000E-01  3.54000000E-01
  3.54000000E-01  3.54000000E-01  3.54000000E-01  3.54000000E-01  3.54000000E-01
  3.54000000E-01  3.54000000E-01  3.54000000E-01  3.54000000E-01  3.54000000E-01
  3.54000000E-01  3.54000000E-01  3.54000000E-01  3.54000000E-01  3.54000000E-01
  3.54000000E-01  3.54000000E-01  3.54000000E-01  3.54000000E-01  3.54000000E-01
  3.54000000E-01  3.54000000E-01  3.54000000E-01  3.54000000E-01  3.54000000E-01
  2.74000000E-01  2.96000000E-01  5.80000000E-02  4.40000000E-02  3.90000000E-02
  3.90000000E-02  3.60000000E-02  3.20000000E-02  2.90000000E-02  3.30000000E-02
  5.50000000E-02  3.90000000E-02  3.30000000E-02  3.00000000E-02  2.80000000E-02
  2.60000000E-02  2.50000000E-02  2.50000000E-02  4.50000000E-02  4.40000000E-02
  3.30000000E-02  2.50000000E-02  2.10000000E-02  1.80000000E-02  1.50000000E-02
  1.80000000E-02  2.10000000E-02  2.50000000E-02  3.30000000E-02  5.00000000E-02
  3.80000000E-02  3.10000000E-02  2.70000000E-02  2.40000000E-02  2.20000000E-02
  2.10000000E-02  4.30000000E-02  4.00000000E-02  3.20000000E-02  2.50000000E-02
  2.10000000E-02  1.80000000E-02  1.60000000E-02  1.90000000E-02  2.20000000E-02
  2.80000000E-02  3.10000000E-02  4.70000000E-02  3.40000000E-02  2.80000000E-02
  2.40000000E-02  2.10000000E-02  1.90000000E-02  1.80000000E-02  3.90000000E-02
  3.60000000E-02  2.50000000E-02  2.50000000E-02  2.50000000E-02  2.60000000E-02
  2.60000000E-02  2.60000000E-02  2.70000000E-02  2.70000000E-02  2.70000000E-02
  2.70000000E-02  2.80000000E-02  2.80000000E-02  2.80000000E-02  3.30000000E-02
  3.30000000E-02  2.60000000E-02  2.10000000E-02  1.80000000E-02  1.60000000E-02
  1.80000000E-02  2.20000000E-02  2.60000000E-02  4.90000000E-02  8.20000000E-02
  3.00000000E-02  2.40000000E-02  2.10000000E-02  1.80000000E-02  1.60000000E-02
  1.50000000E-02  3.50000000E-02  3.60000000E-02  2.20000000E-02  2.30000000E-02
  2.40000000E-02  2.40000000E-02  2.50000000E-02  2.50000000E-02  2.60000000E-02
  2.70000000E-02  2.70000000E-02  2.80000000E-02  2.80000000E-02  2.90000000E-02
  3.00000000E-02  3.00000000E-02  3.10000000E-02  3.10000000E-02  3.10000000E-02
  3.10000000E-02  3.10000000E-02  3.10000000E-02  3.10000000E-02  3.10000000E-02
  3.10000000E-02  3.10000000E-02  3.10000000E-02  3.10000000E-02  3.10000000E-02
  3.10000000E-02  3.10000000E-02  3.10000000E-02  3.10000000E-02  3.10000000E-02
  3.10000000E-02  3.10000000E-02  3.10000000E-02  3.10000000E-02  3.10000000E-02
  3.10000000E-02  3.10000000E-02  3.10000000E-02  3.10000000E-02  3.10000000E-02
  3.10000000E-02  3.10000000E-02  3.10000000E-02  3.10000000E-02  3.10000000E-02
  3.10000000E-02  3.10000000E-02  3.10000000E-02  3.10000000E-02  3.10000000E-02
  3.10000000E-02  3.10000000E-02  3.10000000E-02  3.10000000E-02  3.10000000E-02
  3.10000000E-02  3.10000000E-02  3.10000000E-02  3.10000000E-02  3.10000000E-02
  3.10000000E-02  3.10000000E-02  3.10000000E-02  3.10000000E-02  3.10000000E-02
  3.10000000E-02  3.10000000E-02  3.10000000E-02  3.10000000E-02  3.10000000E-02
  3.10000000E-02  3.10000000E-02  3.10000000E-02  3.10000000E-02  3.10000000E-02
  3.10000000E-02  3.10000000E-02  3.10000000E-02  3.10000000E-02  3.10000000E-02
  3.10000000E-02  3.10000000E-02  3.10000000E-02  3.10000000E-02  3.10000000E-02
  3.10000000E-02  3.10000000E-02  3.10000000E-02  3.10000000E-02  3.10000000E-02
  3.10000000E-02  3.10000000E-02  3.10000000E-02  3.10000000E-02  3.10000000E-02
  3.10000000E-02  3.10000000E-02  3.10000000E-02  3.10000000E-02  3.10000000E-02
  3.10000000E-02  3.10000000E-02  3.10000000E-02  3.10000000E-02  3.10000000E-02
  3.10000000E-02  3.10000000E-02  3.10000000E-02  3.10000000E-02  3.10000000E-02
 -5.92770000E-01 -9.17860000E-01 -2.48668000E+00 -8.36430000E-01 -3.18470000E-01
 -4.55790000E-01 -5.70730000E-01 -6.77940000E-01 -7.69860000E-01 -8.51140000E-01
 -1.51908000E+00 -3.18830000E-01 -2.17900000E-01 -3.01260000E-01 -3.72750000E-01
 -4.15890000E-01 -4.45930000E-01 -5.91320000E-01 -9.56370000E-01 -2.88450000E-01
 -4.87320000E-01 -6.34280000E-01 -7.17490000E-01 -7.91980000E-01 -8.68490000E-01
 -9.17520000E-01 -9.54890000E-01 -9.88460000E-01 -1.50055000E+00 -2.92560000E-01
 -2.14960000E-01 -2.91180000E-01 -3.42080000E-01 -3.84480000E-01 -4.34940000E-01
 -5.24310000E-01 -8.10070000E-01 -2.58460000E-01 -4.35550000E-01 -5.32740000E-01
 -6.08450000E-01 -6.10260000E-01 -7.58920000E-01 -8.90130000E-01 -8.45780000E-01
 -8.69340000E-01 -1.38234000E+00 -2.64850000E-01 -1.97280000E-01 -2.65040000E-01
 -2.94470000E-01 -3.16570000E-01 -3.63590000E-01 -4.57840000E-01 -8.61830000E-01
 -1.33004000E+00 -6.82880000E-01 -6.25540000E-01 -6.35430000E-01 -8.79690000E-01
 -9.02690000E-01 -9.59650000E-01 -1.01869000E+00 -6.81170000E-01 -7.96500000E-01
 -9.04950000E-01 -8.34790000E-01 -9.01560000E-01 -9.74130000E-01 -1.03326000E+00
 -7.15490000E-01 -7.83960000E-01 -8.28380000E-01 -5.61040000E-01 -1.03841000E+00
 -8.62500000E-01 -9.59300000E-01 -1.01755000E+00 -7.64900000E-01 -1.29467000E+00
 -1.92740000E-01 -2.56010000E-01 -3.19820000E-01 -1.94660000E-01 -2.60090000E-01
 -4.27990000E-01  0.00000000E+00  0.00000000E+00  0.00000000E+00  0.00000000E+00
  0.00000000E+00  0.00000000E+00  0.00000000E+00  0.00000000E+00  0.00000000E+00
  0.00000000E+00  0.00000000E+00  0.00000000E+00  0.00000000E+00  0.00000000E+00
  0.00000000E+00  0.00000000E+00  0.00000000E+00  0.00000000E+00  0.00000000E+00
  0.00000000E+00  0.00000000E+00  0.00000000E+00  0.00000000E+00  0.00000000E+00
  0.00000000E+00  0.00000000E+00  0.00000000E+00  0.00000000E+00  0.00000000E+00
  0.00000000E+00  0.00000000E+00  0.00000000E+00  0.00000000E+00  0.00000000E+00
  0.00000000E+00  0.00000000E+00  0.00000000E+00  0.00000000E+00  0.00000000E+00
  0.00000000E+00  0.00000000E+00  0.00000000E+00  0.00000000E+00  0.00000000E+00
  0.00000000E+00  0.00000000E+00  0.00000000E+00  0.00000000E+00  0.00000000E+00
  0.00000000E+00  0.00000000E+00  0.00000000E+00  0.00000000E+00  0.00000000E+00
  0.00000000E+00  0.00000000E+00  0.00000000E+00  0.00000000E+00  0.00000000E+00
  0.00000000E+00  0.00000000E+00  0.00000000E+00  0.00000000E+00  0.00000000E+00
  0.00000000E+00  0.00000000E+00  0.00000000E+00  0.00000000E+00  0.00000000E+00
  0.00000000E+00  0.00000000E+00  0.00000000E+00  0.00000000E+00  0.00000000E+00
  0.00000000E+00  0.00000000E+00  0.00000000E+00  0.00000000E+00  0.00000000E+00
  0.00000000E+00  0.00000000E+00  0.00000000E+00  0.00000000E+00  0.00000000E+00
  0.00000000E+00  0.00000000E+00  0.00000000E+00  0.00000000E+00  0.00000000E+00
  0.00000000E+00  0.00000000E+00  0.00000000E+00  0.00000000E+00  0.00000000E+00
  0.00000000E+00  0.00000000E+00  0.00000000E+00  0.00000000E+00  0.00000000E+00
  0.00000000E+00  0.00000000E+00  0.00000000E+00  0.00000000E+00  0.00000000E+00
  0.00000000E+00  0.00000000E+00  0.00000000E+00  0.00000000E+00  0.00000000E+00
  0.00000000E+00  0.00000000E+00  0.00000000E+00  0.00000000E+00  0.00000000E+00
  1.90440000E+00  1.36430000E+00  4.84000000E-01  7.31600000E+00  9.24030000E+00
  8.78200000E+00  5.61290000E+00  4.83340000E+00  3.24870000E+00  2.71090000E+00
  2.01130000E+00  1.50282000E+01  1.46788000E+01  2.13546000E+01  2.38290000E+01
  1.98022000E+01  1.50468000E+01  1.09745000E+01  1.27219000E+01  1.51949000E+01
  1.57342000E+01  2.79222000E+01  1.61366000E+01  2.21252000E+01  2.45676000E+01
  1.96016000E+01  1.79818000E+01  1.72396000E+01  5.01500000E+00  1.92898000E+01
  2.34477000E+01  2.23993000E+01  2.96586000E+01  2.60081000E+01  2.15580000E+01
  1.69594000E+01  1.56479000E+01  1.86897000E+01  1.93530000E+01  3.43444000E+01
  1.98480000E+01  2.72140000E+01  3.02182000E+01  2.41099000E+01  2.21176000E+01
  2.12047000E+01  7.56690000E+00  2.37264000E+01  2.93879000E+01  3.01278000E+01
  4.19382000E+01  3.85203000E+01  3.39511000E+01  2.75774000E+01  1.56460000E+01
  1.04460000E+01  2.01830000E+01  4.99540000E+01  4.76430000E+01  1.18690000E+01
  1.08670000E+01  9.96100000E+00  9.18700000E+00  3.67980000E+01  1.34070000E+01
  9.38200000E+00  9.81700000E+00  8.90800000E+00  8.40700000E+00  8.05800000E+00
  1.29600000E+01  2.67920000E+01  2.49300000E+01  3.45630000E+01  1.11860000E+01
  1.09440000E+01  1.01270000E+01  9.40400000E+00  1.36660000E+01  7.81000000E+00
  6.93600000E+01  5.86630000E+01  4.79690000E+01  4.52740000E+01  3.92290000E+01
  3.30660000E+01  0.00000000E+00  0.00000000E+00  0.00000000E+00  0.00000000E+00
  0.00000000E+00  0.00000000E+00  0.00000000E+00  0.00000000E+00  0.00000000E+00
  0.00000000E+00  0.00000000E+00  0.00000000E+00  0.00000000E+00  0.00000000E+00
  0.00000000E+00  0.00000000E+00  0.00000000E+00  0.00000000E+00  0.00000000E+00
  0.00000000E+00  0.00000000E+00  0.00000000E+00  0.00000000E+00  0.00000000E+00
  0.00000000E+00  0.00000000E+00  0.00000000E+00  0.00000000E+00  0.00000000E+00
  0.00000000E+00  0.00000000E+00  0.00000000E+00  0.00000000E+00  0.00000000E+00
  0.00000000E+00  0.00000000E+00  0.00000000E+00  0.00000000E+00  0.00000000E+00
  0.00000000E+00  0.00000000E+00  0.00000000E+00  0.00000000E+00  0.00000000E+00
  0.00000000E+00  0.00000000E+00  0.00000000E+00  0.00000000E+00  0.00000000E+00
  0.00000000E+00  0.00000000E+00  0.00000000E+00  0.00000000E+00  0.00000000E+00
  0.00000000E+00  0.00000000E+00  0.00000000E+00  0.00000000E+00  0.00000000E+00
  0.00000000E+00  0.00000000E+00  0.00000000E+00  0.00000000E+00  0.00000000E+00
  0.00000000E+00  0.00000000E+00  0.00000000E+00  0.00000000E+00  0.00000000E+00
  0.00000000E+00  0.00000000E+00  0.00000000E+00  0.00000000E+00  0.00000000E+00
  0.00000000E+00  0.00000000E+00  0.00000000E+00  0.00000000E+00  0.00000000E+00
  0.00000000E+00  0.00000000E+00  0.00000000E+00  0.00000000E+00  0.00000000E+00
  0.00000000E+00  0.00000000E+00  0.00000000E+00  0.00000000E+00  0.00000000E+00
  0.00000000E+00  0.00000000E+00  0.00000000E+00  0.00000000E+00  0.00000000E+00
  0.00000000E+00  0.00000000E+00  0.00000000E+00  0.00000000E+00  0.00000000E+00
  0.00000000E+00  0.00000000E+00  0.00000000E+00  0.00000000E+00  0.00000000E+00
  0.00000000E+00  0.00000000E+00  0.00000000E+00  0.00000000E+00  0.00000000E+00
  0.00000000E+00  0.00000000E+00  0.00000000E+00  0.00000000E+00  0.00000000E+00
  0.00000000E+00  0.00000000E+00  0.00000000E+00  0.00000000E+00  0.00000000E+00
  0.00000000E+00  0.00000000E+00  0.00000000E+00  0.00000000E+00  0.00000000E+00
  0.00000000E+00  0.00000000E+00  0.00000000E+00  0.00000000E+00  0.00000000E+00
  0.00000000E+00  0.00000000E+00  0.00000000E+00  0.00000000E+00  0.00000000E+00
  0.00000000E+00  0.00000000E+00  0.00000000E+00  0.00000000E+00  0.00000000E+00
  0.00000000E+00  0.00000000E+00  0.00000000E+00  0.00000000E+00  0.00000000E+00
  0.00000000E+00  0.00000000E+00  0.00000000E+00  0.00000000E+00  0.00000000E+00
  0.00000000E+00  0.00000000E+00  0.00000000E+00  0.00000000E+00  0.00000000E+00
  0.00000000E+00  0.00000000E+00  0.00000000E+00  0.00000000E+00  0.00000000E+00
  0.00000000E+00  0.00000000E+00  0.00000000E+00  0.00000000E+00  0.00000000E+00
  0.00000000E+00  0.00000000E+00  0.00000000E+00  0.00000000E+00  0.00000000E+00
  0.00000000E+00  0.00000000E+00  0.00000000E+00  0.00000000E+00  0.00000000E+00
  0.00000000E+00  0.00000000E+00  0.00000000E+00  0.00000000E+00  0.00000000E+00
  0.00000000E+00  0.00000000E+00  0.00000000E+00  0.00000000E+00  0.00000000E+00
  0.00000000E+00  0.00000000E+00  0.00000000E+00  0.00000000E+00  0.00000000E+00
  0.00000000E+00  0.00000000E+00  0.00000000E+00  0.00000000E+00  0.00000000E+00
  0.00000000E+00  0.00000000E+00  0.00000000E+00  0.00000000E+00  0.00000000E+00
  0.00000000E+00  0.00000000E+00  0.00000000E+00  0.00000000E+00  0.00000000E+00
  0.00000000E+00  0.00000000E+00  0.00000000E+00  0.00000000E+00  0.00000000E+00
  0.00000000E+00  0.00000000E+00  0.00000000E+00  0.00000000E+00  0.00000000E+00
  0.00000000E+00  0.00000000E+00  0.00000000E+00  0.00000000E+00  0.00000000E+00
  0.00000000E+00  0.00000000E+00  0.00000000E+00  0.00000000E+00  0.00000000E+00
  0.00000000E+00  0.00000000E+00  0.00000000E+00  0.00000000E+00  0.00000000E+00
  0.00000000E+00  0.00000000E+00  0.00000000E+00  0.00000000E+00  0.00000000E+00
  0.00000000E+00  0.00000000E+00  0.00000000E+00  0.00000000E+00  0.00000000E+00
  0.00000000E+00  0.00000000E+00  0.00000000E+00  0.00000000E+00  0.00000000E+00
  0.00000000E+00  0.00000000E+00  0.00000000E+00  0.00000000E+00  0.00000000E+00
  0.00000000E+00  0.00000000E+00  0.00000000E+00  0.00000000E+00  0.00000000E+00
  0.00000000E+00  0.00000000E+00  0.00000000E+00  0.00000000E+00  0.00000000E+00
  0.00000000E+00  0.00000000E+00  0.00000000E+00  0.00000000E+00  0.00000000E+00
  0.00000000E+00  0.00000000E+00  0.00000000E+00  0.00000000E+00  0.00000000E+00
  0.00000000E+00  0.00000000E+00  0.00000000E+00  0.00000000E+00  0.00000000E+00
  0.00000000E+00  0.00000000E+00  0.00000000E+00  0.00000000E+00  0.00000000E+00
  0.00000000E+00  0.00000000E+00  0.00000000E+00  0.00000000E+00  0.00000000E+00
  0.00000000E+00  0.00000000E+00  0.00000000E+00  0.00000000E+00  0.00000000E+00
  0.00000000E+00  0.00000000E+00  0.00000000E+00  0.00000000E+00  0.00000000E+00
  0.00000000E+00  0.00000000E+00  0.00000000E+00  0.00000000E+00  0.00000000E+00
  0.00000000E+00  0.00000000E+00  0.00000000E+00  0.00000000E+00  0.00000000E+00
  0.00000000E+00  0.00000000E+00  0.00000000E+00  0.00000000E+00  0.00000000E+00
  0.00000000E+00  0.00000000E+00  0.00000000E+00  0.00000000E+00  0.00000000E+00
  0.00000000E+00  0.00000000E+00  0.00000000E+00  0.00000000E+00  0.00000000E+00
  0.00000000E+00  0.00000000E+00  0.00000000E+00  0.00000000E+00  0.00000000E+00
  0.00000000E+00  0.00000000E+00  0.00000000E+00  0.00000000E+00  0.00000000E+00
  0.00000000E+00  0.00000000E+00  0.00000000E+00  0.00000000E+00  0.00000000E+00
  0.00000000E+00  0.00000000E+00  0.00000000E+00  0.00000000E+00  0.00000000E+00
  0.00000000E+00  0.00000000E+00  0.00000000E+00  0.00000000E+00  0.00000000E+00
  0.00000000E+00  0.00000000E+00  0.00000000E+00  0.00000000E+00  0.00000000E+00
  0.00000000E+00  0.00000000E+00  0.00000000E+00  0.00000000E+00  0.00000000E+00
  0.00000000E+00  0.00000000E+00  0.00000000E+00  0.00000000E+00  0.00000000E+00
  0.00000000E+00  0.00000000E+00  0.00000000E+00  0.00000000E+00  0.00000000E+00
  0.00000000E+00  0.00000000E+00  0.00000000E+00  0.00000000E+00  0.00000000E+00
  0.00000000E+00  0.00000000E+00  0.00000000E+00  0.00000000E+00  0.00000000E+00
  0.00000000E+00  0.00000000E+00  0.00000000E+00  0.00000000E+00  0.00000000E+00
  0.00000000E+00  0.00000000E+00  0.00000000E+00  0.00000000E+00  0.00000000E+00
  0.00000000E+00  0.00000000E+00  0.00000000E+00  0.00000000E+00  0.00000000E+00
  0.00000000E+00  0.00000000E+00  0.00000000E+00  0.00000000E+00  0.00000000E+00
  0.00000000E+00  0.00000000E+00  0.00000000E+00  0.00000000E+00  0.00000000E+00
  0.00000000E+00  0.00000000E+00  0.00000000E+00  0.00000000E+00  0.00000000E+00
  0.00000000E+00  0.00000000E+00  0.00000000E+00  0.00000000E+00  0.00000000E+00
  0.00000000E+00  0.00000000E+00  0.00000000E+00  0.00000000E+00  0.00000000E+00
  0.00000000E+00  0.00000000E+00  0.00000000E+00  0.00000000E+00  0.00000000E+00
  0.00000000E+00  0.00000000E+00  0.00000000E+00  0.00000000E+00  0.00000000E+00
  0.00000000E+00  0.00000000E+00  0.00000000E+00  0.00000000E+00  0.00000000E+00
  0.00000000E+00  0.00000000E+00  0.00000000E+00  0.00000000E+00  0.00000000E+00
  0.00000000E+00  0.00000000E+00  0.00000000E+00  0.00000000E+00  0.00000000E+00
  0.00000000E+00  0.00000000E+00  0.00000000E+00  0.00000000E+00  0.00000000E+00
  0.00000000E+00  0.00000000E+00  0.00000000E+00  0.00000000E+00  0.00000000E+00
  0.00000000E+00  0.00000000E+00  0.00000000E+00  0.00000000E+00  0.00000000E+00
  0.00000000E+00  0.00000000E+00  0.00000000E+00  0.00000000E+00  0.00000000E+00
  0.00000000E+00  0.00000000E+00  0.00000000E+00  0.00000000E+00  0.00000000E+00
  0.00000000E+00  0.00000000E+00  0.00000000E+00  0.00000000E+00  0.00000000E+00
  0.00000000E+00  0.00000000E+00  0.00000000E+00  0.00000000E+00  0.00000000E+00
  0.00000000E+00  0.00000000E+00  0.00000000E+00  0.00000000E+00  0.00000000E+00
  0.00000000E+00  0.00000000E+00  0.00000000E+00  0.00000000E+00  0.00000000E+00
  0.00000000E+00  0.00000000E+00  0.00000000E+00  0.00000000E+00  0.00000000E+00
  0.00000000E+00  0.00000000E+00  0.00000000E+00  0.00000000E+00  0.00000000E+00
  0.00000000E+00  0.00000000E+00  0.00000000E+00  0.00000000E+00  0.00000000E+00
  0.00000000E+00  0.00000000E+00  0.00000000E+00  0.00000000E+00  0.00000000E+00
  0.00000000E+00  0.00000000E+00  0.00000000E+00  0.00000000E+00  0.00000000E+00
  0.00000000E+00  0.00000000E+00  0.00000000E+00  0.00000000E+00  0.00000000E+00
  0.00000000E+00  0.00000000E+00  0.00000000E+00  0.00000000E+00  0.00000000E+00
  0.00000000E+00  0.00000000E+00  0.00000000E+00  0.00000000E+00  0.00000000E+00
  0.00000000E+00  0.00000000E+00  0.00000000E+00  0.00000000E+00  0.00000000E+00
  0.00000000E+00  0.00000000E+00  0.00000000E+00  0.00000000E+00  0.00000000E+00
  0.00000000E+00  0.00000000E+00  0.00000000E+00  0.00000000E+00  0.00000000E+00
  0.00000000E+00  0.00000000E+00  0.00000000E+00  0.00000000E+00  0.00000000E+00
  0.00000000E+00  0.00000000E+00  0.00000000E+00  0.00000000E+00  0.00000000E+00
  0.00000000E+00  0.00000000E+00  0.00000000E+00  0.00000000E+00  0.00000000E+00
  0.00000000E+00  0.00000000E+00  0.00000000E+00  0.00000000E+00  0.00000000E+00
  0.00000000E+00  0.00000000E+00  0.00000000E+00  0.00000000E+00  0.00000000E+00
  0.00000000E+00  0.00000000E+00  0.00000000E+00  0.00000000E+00  0.00000000E+00
  0.00000000E+00  0.00000000E+00  0.00000000E+00  0.00000000E+00  0.00000000E+00
  0.00000000E+00  0.00000000E+00  0.00000000E+00  0.00000000E+00  0.00000000E+00
  0.00000000E+00  0.00000000E+00  0.00000000E+00  0.00000000E+00  0.00000000E+00
  0.00000000E+00  0.00000000E+00  0.00000000E+00  0.00000000E+00  0.00000000E+00
  0.00000000E+00  0.00000000E+00  0.00000000E+00  0.00000000E+00  0.00000000E+00
  0.00000000E+00  0.00000000E+00  0.00000000E+00  0.00000000E+00  0.00000000E+00
  0.00000000E+00  0.00000000E+00  0.00000000E+00  0.00000000E+00  0.00000000E+00
  0.00000000E+00  0.00000000E+00  0.00000000E+00  0.00000000E+00  0.00000000E+00
  0.00000000E+00  0.00000000E+00  0.00000000E+00  0.00000000E+00  0.00000000E+00
  0.00000000E+00  0.00000000E+00  0.00000000E+00  0.00000000E+00  0.00000000E+00
  0.00000000E+00  0.00000000E+00  0.00000000E+00  0.00000000E+00  0.00000000E+00
  0.00000000E+00  0.00000000E+00  0.00000000E+00  0.00000000E+00  0.00000000E+00
  0.00000000E+00  0.00000000E+00  0.00000000E+00  0.00000000E+00  0.00000000E+00
  0.00000000E+00  0.00000000E+00  0.00000000E+00  0.00000000E+00  0.00000000E+00
  0.00000000E+00  0.00000000E+00  0.00000000E+00  0.00000000E+00  0.00000000E+00
  0.00000000E+00  0.00000000E+00  0.00000000E+00  0.00000000E+00  0.00000000E+00
  0.00000000E+00  0.00000000E+00  0.00000000E+00  0.00000000E+00  0.00000000E+00
  0.00000000E+00  0.00000000E+00  0.00000000E+00  0.00000000E+00  0.00000000E+00
  0.00000000E+00  0.00000000E+00  0.00000000E+00  0.00000000E+00  0.00000000E+00
  0.00000000E+00  0.00000000E+00  0.00000000E+00  0.00000000E+00  0.00000000E+00
  0.00000000E+00  0.00000000E+00  0.00000000E+00  0.00000000E+00  0.00000000E+00
  0.00000000E+00  0.00000000E+00  0.00000000E+00  0.00000000E+00  0.00000000E+00
  0.00000000E+00  0.00000000E+00  0.00000000E+00  0.00000000E+00  0.00000000E+00
  0.00000000E+00  0.00000000E+00  0.00000000E+00  0.00000000E+00  0.00000000E+00
  0.00000000E+00  0.00000000E+00  0.00000000E+00  0.00000000E+00  0.00000000E+00
  0.00000000E+00  0.00000000E+00  0.00000000E+00  0.00000000E+00  0.00000000E+00
  0.00000000E+00  0.00000000E+00  0.00000000E+00  0.00000000E+00  0.00000000E+00
  0.00000000E+00  0.00000000E+00  0.00000000E+00  0.00000000E+00  0.00000000E+00
  0.00000000E+00  0.00000000E+00  0.00000000E+00  0.00000000E+00  0.00000000E+00
  0.00000000E+00  0.00000000E+00  0.00000000E+00  0.00000000E+00  0.00000000E+00
  0.00000000E+00  0.00000000E+00  0.00000000E+00  0.00000000E+00  0.00000000E+00
  0.00000000E+00  0.00000000E+00  0.00000000E+00  0.00000000E+00  0.00000000E+00
  0.00000000E+00  0.00000000E+00  0.00000000E+00  0.00000000E+00  0.00000000E+00
  0.00000000E+00  0.00000000E+00  0.00000000E+00  0.00000000E+00  0.00000000E+00
  0.00000000E+00  0.00000000E+00  0.00000000E+00  0.00000000E+00  0.00000000E+00
  0.00000000E+00  0.00000000E+00  0.00000000E+00  0.00000000E+00  0.00000000E+00
  0.00000000E+00  0.00000000E+00  0.00000000E+00  0.00000000E+00  0.00000000E+00
  0.00000000E+00  0.00000000E+00  0.00000000E+00  0.00000000E+00  0.00000000E+00
  0.00000000E+00  0.00000000E+00  0.00000000E+00  0.00000000E+00  0.00000000E+00
  0.00000000E+00  0.00000000E+00  0.00000000E+00  0.00000000E+00  0.00000000E+00
  0.00000000E+00  0.00000000E+00  0.00000000E+00  0.00000000E+00  0.00000000E+00
  0.00000000E+00  0.00000000E+00  0.00000000E+00  0.00000000E+00  0.00000000E+00
  0.00000000E+00  0.00000000E+00  0.00000000E+00  0.00000000E+00  0.00000000E+00
  0.00000000E+00  0.00000000E+00  0.00000000E+00  0.00000000E+00  0.00000000E+00
  0.00000000E+00  0.00000000E+00  0.00000000E+00  0.00000000E+00  0.00000000E+00
  0.00000000E+00  0.00000000E+00  0.00000000E+00  0.00000000E+00  0.00000000E+00
  0.00000000E+00  0.00000000E+00  0.00000000E+00  0.00000000E+00  0.00000000E+00
  0.00000000E+00  0.00000000E+00  0.00000000E+00  0.00000000E+00  0.00000000E+00
  0.00000000E+00  0.00000000E+00  0.00000000E+00  0.00000000E+00  0.00000000E+00
  0.00000000E+00  0.00000000E+00  0.00000000E+00  0.00000000E+00  0.00000000E+00
  0.00000000E+00  0.00000000E+00  0.00000000E+00  0.00000000E+00  0.00000000E+00
  0.00000000E+00  0.00000000E+00  0.00000000E+00  0.00000000E+00  0.00000000E+00
  0.00000000E+00  0.00000000E+00  0.00000000E+00  0.00000000E+00  0.00000000E+00
  0.00000000E+00  0.00000000E+00  0.00000000E+00  0.00000000E+00  0.00000000E+00
  0.00000000E+00  0.00000000E+00  0.00000000E+00  0.00000000E+00  0.00000000E+00
  0.00000000E+00  0.00000000E+00  0.00000000E+00  0.00000000E+00  0.00000000E+00
  0.00000000E+00  0.00000000E+00  0.00000000E+00  0.00000000E+00  0.00000000E+00
  0.00000000E+00  0.00000000E+00  0.00000000E+00  0.00000000E+00  0.00000000E+00
  0.00000000E+00  0.00000000E+00  0.00000000E+00  0.00000000E+00  0.00000000E+00
  0.00000000E+00  0.00000000E+00  0.00000000E+00  0.00000000E+00  0.00000000E+00
  0.00000000E+00  0.00000000E+00  0.00000000E+00  0.00000000E+00  0.00000000E+00
  0.00000000E+00  0.00000000E+00  0.00000000E+00  0.00000000E+00  0.00000000E+00
  0.00000000E+00  0.00000000E+00  0.00000000E+00  0.00000000E+00  0.00000000E+00
  0.00000000E+00  0.00000000E+00  0.00000000E+00  0.00000000E+00  0.00000000E+00
  0.00000000E+00  0.00000000E+00  0.00000000E+00  0.00000000E+00  0.00000000E+00
  0.00000000E+00  0.00000000E+00  0.00000000E+00  0.00000000E+00  0.00000000E+00
  0.00000000E+00  0.00000000E+00  0.00000000E+00  0.00000000E+00  0.00000000E+00
  0.00000000E+00  0.00000000E+00  0.00000000E+00  0.00000000E+00  0.00000000E+00
  0.00000000E+00  0.00000000E+00  0.00000000E+00  0.00000000E+00  0.00000000E+00
  0.00000000E+00  0.00000000E+00  0.00000000E+00  0.00000000E+00  0.00000000E+00
  0.00000000E+00  0.00000000E+00  0.00000000E+00  0.00000000E+00  0.00000000E+00
  0.00000000E+00  0.00000000E+00  0.00000000E+00  0.00000000E+00  0.00000000E+00
  0.00000000E+00  0.00000000E+00  0.00000000E+00  0.00000000E+00  0.00000000E+00
  0.00000000E+00  0.00000000E+00  0.00000000E+00  0.00000000E+00  0.00000000E+00
  0.00000000E+00  0.00000000E+00  0.00000000E+00  0.00000000E+00  0.00000000E+00
  0.00000000E+00  0.00000000E+00  0.00000000E+00  0.00000000E+00  0.00000000E+00
  0.00000000E+00  0.00000000E+00  0.00000000E+00  0.00000000E+00  0.00000000E+00
  0.00000000E+00  0.00000000E+00  0.00000000E+00  0.00000000E+00  0.00000000E+00
  0.00000000E+00  0.00000000E+00  0.00000000E+00  0.00000000E+00  0.00000000E+00
  0.00000000E+00  0.00000000E+00  0.00000000E+00  0.00000000E+00  0.00000000E+00
  0.00000000E+00  0.00000000E+00  0.00000000E+00  0.00000000E+00  0.00000000E+00
  0.00000000E+00  0.00000000E+00  0.00000000E+00  0.00000000E+00  0.00000000E+00
  0.00000000E+00  0.00000000E+00  0.00000000E+00  0.00000000E+00  0.00000000E+00
  0.00000000E+00  0.00000000E+00  0.00000000E+00  0.00000000E+00  0.00000000E+00
  0.00000000E+00  0.00000000E+00  0.00000000E+00  0.00000000E+00  0.00000000E+00
  0.00000000E+00  0.00000000E+00  0.00000000E+00  0.00000000E+00  0.00000000E+00
  0.00000000E+00  0.00000000E+00  0.00000000E+00  0.00000000E+00  0.00000000E+00
  0.00000000E+00  0.00000000E+00  0.00000000E+00  0.00000000E+00  0.00000000E+00
  0.00000000E+00  0.00000000E+00  0.00000000E+00  0.00000000E+00  0.00000000E+00
  0.00000000E+00  0.00000000E+00  0.00000000E+00  0.00000000E+00  0.00000000E+00
  0.00000000E+00  0.00000000E+00  0.00000000E+00  0.00000000E+00  0.00000000E+00
  0.00000000E+00  0.00000000E+00  0.00000000E+00  0.00000000E+00  0.00000000E+00
  0.00000000E+00  0.00000000E+00  0.00000000E+00  0.00000000E+00  0.00000000E+00
  0.00000000E+00  0.00000000E+00  0.00000000E+00  0.00000000E+00  0.00000000E+00
  0.00000000E+00  0.00000000E+00  0.00000000E+00  0.00000000E+00  0.00000000E+00
  0.00000000E+00  0.00000000E+00  0.00000000E+00  0.00000000E+00  0.00000000E+00
  0.00000000E+00  0.00000000E+00  0.00000000E+00  0.00000000E+00  0.00000000E+00
  0.00000000E+00  0.00000000E+00  0.00000000E+00  0.00000000E+00  0.00000000E+00
  0.00000000E+00  0.00000000E+00  0.00000000E+00  0.00000000E+00  0.00000000E+00
  0.00000000E+00  0.00000000E+00  0.00000000E+00  0.00000000E+00  0.00000000E+00
  0.00000000E+00  0.00000000E+00  0.00000000E+00  0.00000000E+00  0.00000000E+00
  0.00000000E+00  0.00000000E+00  0.00000000E+00  0.00000000E+00  0.00000000E+00
  0.00000000E+00  0.00000000E+00  0.00000000E+00  0.00000000E+00  0.00000000E+00
  0.00000000E+00  0.00000000E+00  0.00000000E+00  0.00000000E+00  0.00000000E+00
  0.00000000E+00  0.00000000E+00  0.00000000E+00  0.00000000E+00  0.00000000E+00
  0.00000000E+00  0.00000000E+00  0.00000000E+00  0.00000000E+00  0.00000000E+00
  0.00000000E+00  0.00000000E+00  0.00000000E+00  0.00000000E+00  0.00000000E+00
  0.00000000E+00  0.00000000E+00  0.00000000E+00  0.00000000E+00  0.00000000E+00
  0.00000000E+00  0.00000000E+00  0.00000000E+00  0.00000000E+00  0.00000000E+00
  0.00000000E+00  0.00000000E+00  0.00000000E+00  0.00000000E+00  0.00000000E+00
  0.00000000E+00  0.00000000E+00  0.00000000E+00  0.00000000E+00  0.00000000E+00
  0.00000000E+00  0.00000000E+00  0.00000000E+00  0.00000000E+00  0.00000000E+00
  0.00000000E+00  0.00000000E+00  0.00000000E+00  0.00000000E+00  0.00000000E+00
  0.00000000E+00  0.00000000E+00  0.00000000E+00  0.00000000E+00  0.00000000E+00
  0.00000000E+00  0.00000000E+00  0.00000000E+00  0.00000000E+00  0.00000000E+00
  0.00000000E+00  0.00000000E+00  0.00000000E+00  0.00000000E+00  0.00000000E+00
  0.00000000E+00  0.00000000E+00  0.00000000E+00  0.00000000E+00  0.00000000E+00
  0.00000000E+00  0.00000000E+00  0.00000000E+00  0.00000000E+00  0.00000000E+00
  0.00000000E+00  0.00000000E+00  0.00000000E+00  0.00000000E+00  0.00000000E+00
  0.00000000E+00  0.00000000E+00  0.00000000E+00  0.00000000E+00  0.00000000E+00
  0.00000000E+00  0.00000000E+00  0.00000000E+00  0.00000000E+00  0.00000000E+00
  0.00000000E+00  0.00000000E+00  0.00000000E+00  0.00000000E+00  0.00000000E+00
  0.00000000E+00  0.00000000E+00  0.00000000E+00  0.00000000E+00  0.00000000E+00
  0.00000000E+00  0.00000000E+00  0.00000000E+00  0.00000000E+00  0.00000000E+00
  0.00000000E+00  0.00000000E+00  0.00000000E+00  0.00000000E+00  0.00000000E+00
  0.00000000E+00  0.00000000E+00  0.00000000E+00  0.00000000E+00  0.00000000E+00
  0.00000000E+00  0.00000000E+00  0.00000000E+00  0.00000000E+00  0.00000000E+00
  0.00000000E+00  0.00000000E+00  0.00000000E+00  0.00000000E+00  0.00000000E+00
  0.00000000E+00  0.00000000E+00  0.00000000E+00  0.00000000E+00  0.00000000E+00
  0.00000000E+00  0.00000000E+00  0.00000000E+00  0.00000000E+00  0.00000000E+00
  0.00000000E+00  0.00000000E+00  0.00000000E+00  0.00000000E+00  0.00000000E+00
  0.00000000E+00  0.00000000E+00  0.00000000E+00  0.00000000E+00  0.00000000E+00
  0.00000000E+00  0.00000000E+00  0.00000000E+00  0.00000000E+00  0.00000000E+00
  0.00000000E+00  0.00000000E+00  0.00000000E+00  0.00000000E+00  0.00000000E+00
  0.00000000E+00  0.00000000E+00  0.00000000E+00  0.00000000E+00  0.00000000E+00
  0.00000000E+00  0.00000000E+00  0.00000000E+00  0.00000000E+00  0.00000000E+00
  0.00000000E+00  0.00000000E+00  0.00000000E+00  0.00000000E+00  0.00000000E+00
  0.00000000E+00  0.00000000E+00  0.00000000E+00  0.00000000E+00  0.00000000E+00
  0.00000000E+00  0.00000000E+00  0.00000000E+00  0.00000000E+00  0.00000000E+00
  0.00000000E+00  0.00000000E+00  0.00000000E+00  0.00000000E+00  0.00000000E+00
  0.00000000E+00  0.00000000E+00  0.00000000E+00  0.00000000E+00  0.00000000E+00
  0.00000000E+00  0.00000000E+00  0.00000000E+00  0.00000000E+00  0.00000000E+00
  0.00000000E+00  0.00000000E+00  0.00000000E+00  0.00000000E+00  0.00000000E+00
  0.00000000E+00  0.00000000E+00  0.00000000E+00  0.00000000E+00  0.00000000E+00
  0.00000000E+00  0.00000000E+00  0.00000000E+00  0.00000000E+00  0.00000000E+00
  0.00000000E+00  0.00000000E+00  0.00000000E+00  0.00000000E+00  0.00000000E+00
  0.00000000E+00  0.00000000E+00  0.00000000E+00  0.00000000E+00  0.00000000E+00
  0.00000000E+00  0.00000000E+00  0.00000000E+00  0.00000000E+00  0.00000000E+00
  0.00000000E+00  0.00000000E+00  0.00000000E+00  0.00000000E+00  0.00000000E+00
  0.00000000E+00  0.00000000E+00  0.00000000E+00  0.00000000E+00  0.00000000E+00
  0.00000000E+00  0.00000000E+00  0.00000000E+00  0.00000000E+00  0.00000000E+00
  0.00000000E+00  0.00000000E+00  0.00000000E+00  0.00000000E+00  0.00000000E+00
  0.00000000E+00  0.00000000E+00  0.00000000E+00  0.00000000E+00  0.00000000E+00
  0.00000000E+00  0.00000000E+00  0.00000000E+00  0.00000000E+00  0.00000000E+00
  0.00000000E+00  0.00000000E+00  0.00000000E+00  0.00000000E+00  0.00000000E+00
  0.00000000E+00  0.00000000E+00  0.00000000E+00  0.00000000E+00  0.00000000E+00
  0.00000000E+00  0.00000000E+00  0.00000000E+00  0.00000000E+00  0.00000000E+00
  0.00000000E+00  0.00000000E+00  0.00000000E+00  0.00000000E+00  0.00000000E+00
  0.00000000E+00  0.00000000E+00  0.00000000E+00  0.00000000E+00  0.00000000E+00
  0.00000000E+00  0.00000000E+00  0.00000000E+00  0.00000000E+00  0.00000000E+00
  0.00000000E+00  0.00000000E+00  0.00000000E+00  0.00000000E+00  0.00000000E+00
  0.00000000E+00  0.00000000E+00  0.00000000E+00  0.00000000E+00  0.00000000E+00
  0.00000000E+00  0.00000000E+00  0.00000000E+00  0.00000000E+00  0.00000000E+00
  0.00000000E+00  0.00000000E+00  0.00000000E+00  0.00000000E+00  0.00000000E+00
  0.00000000E+00  0.00000000E+00  0.00000000E+00  0.00000000E+00  0.00000000E+00
  0.00000000E+00  0.00000000E+00  0.00000000E+00  0.00000000E+00  0.00000000E+00
  0.00000000E+00  0.00000000E+00  0.00000000E+00  0.00000000E+00  0.00000000E+00
  0.00000000E+00  0.00000000E+00  0.00000000E+00  0.00000000E+00  0.00000000E+00
  0.00000000E+00  0.00000000E+00  0.00000000E+00  0.00000000E+00  0.00000000E+00
  0.00000000E+00  0.00000000E+00  0.00000000E+00  0.00000000E+00  0.00000000E+00
  0.00000000E+00  0.00000000E+00  0.00000000E+00  0.00000000E+00  0.00000000E+00
  0.00000000E+00  0.00000000E+00  0.00000000E+00  0.00000000E+00  0.00000000E+00
  0.00000000E+00  0.00000000E+00  0.00000000E+00  0.00000000E+00  0.00000000E+00
  0.00000000E+00  0.00000000E+00  0.00000000E+00  0.00000000E+00  0.00000000E+00
  0.00000000E+00  0.00000000E+00  0.00000000E+00  0.00000000E+00  0.00000000E+00
  0.00000000E+00  0.00000000E+00  0.00000000E+00  0.00000000E+00  0.00000000E+00
  0.00000000E+00  0.00000000E+00  0.00000000E+00  0.00000000E+00  0.00000000E+00
  0.00000000E+00  0.00000000E+00  0.00000000E+00  0.00000000E+00  0.00000000E+00
  0.00000000E+00  0.00000000E+00  0.00000000E+00  0.00000000E+00  0.00000000E+00
  0.00000000E+00  0.00000000E+00  0.00000000E+00  0.00000000E+00  0.00000000E+00
  0.00000000E+00  0.00000000E+00  0.00000000E+00  0.00000000E+00  0.00000000E+00
  0.00000000E+00  0.00000000E+00  0.00000000E+00  0.00000000E+00  0.00000000E+00
  0.00000000E+00  0.00000000E+00  0.00000000E+00  0.00000000E+00  0.00000000E+00
  0.00000000E+00  0.00000000E+00  0.00000000E+00  0.00000000E+00  0.00000000E+00
  0.00000000E+00  0.00000000E+00  0.00000000E+00  0.00000000E+00  0.00000000E+00
  0.00000000E+00  0.00000000E+00  0.00000000E+00  0.00000000E+00  0.00000000E+00
  0.00000000E+00  0.00000000E+00  0.00000000E+00  0.00000000E+00  0.00000000E+00
  0.00000000E+00  0.00000000E+00  0.00000000E+00  0.00000000E+00  0.00000000E+00
  0.00000000E+00  0.00000000E+00  0.00000000E+00  0.00000000E+00  0.00000000E+00
  0.00000000E+00  0.00000000E+00  0.00000000E+00  0.00000000E+00  0.00000000E+00
  0.00000000E+00  0.00000000E+00  0.00000000E+00  0.00000000E+00  0.00000000E+00
  0.00000000E+00  0.00000000E+00  0.00000000E+00  0.00000000E+00  0.00000000E+00
  0.00000000E+00  0.00000000E+00  0.00000000E+00  0.00000000E+00  0.00000000E+00
  0.00000000E+00  0.00000000E+00  0.00000000E+00  0.00000000E+00  0.00000000E+00
  0.00000000E+00  0.00000000E+00  0.00000000E+00  0.00000000E+00  0.00000000E+00
  0.00000000E+00  0.00000000E+00  0.00000000E+00  0.00000000E+00  0.00000000E+00
  0.00000000E+00  0.00000000E+00  0.00000000E+00  0.00000000E+00  0.00000000E+00
  0.00000000E+00  0.00000000E+00  0.00000000E+00  0.00000000E+00  0.00000000E+00
  0.00000000E+00  0.00000000E+00  0.00000000E+00  0.00000000E+00  0.00000000E+00
  0.00000000E+00  0.00000000E+00  0.00000000E+00  0.00000000E+00  0.00000000E+00
  0.00000000E+00  0.00000000E+00  0.00000000E+00  0.00000000E+00  0.00000000E+00
  0.00000000E+00  0.00000000E+00  0.00000000E+00  0.00000000E+00  0.00000000E+00
  0.00000000E+00  0.00000000E+00  0.00000000E+00  0.00000000E+00  0.00000000E+00
  0.00000000E+00  0.00000000E+00  0.00000000E+00  0.00000000E+00  0.00000000E+00
  0.00000000E+00  0.00000000E+00  0.00000000E+00  0.00000000E+00  0.00000000E+00
  0.00000000E+00  0.00000000E+00  0.00000000E+00  0.00000000E+00  0.00000000E+00
  0.00000000E+00  0.00000000E+00  0.00000000E+00  0.00000000E+00  0.00000000E+00
  0.00000000E+00  0.00000000E+00  0.00000000E+00  0.00000000E+00  0.00000000E+00
  0.00000000E+00  0.00000000E+00  0.00000000E+00  0.00000000E+00  0.00000000E+00
  0.00000000E+00  0.00000000E+00  0.00000000E+00  0.00000000E+00  0.00000000E+00
  0.00000000E+00  0.00000000E+00  0.00000000E+00  0.00000000E+00  0.00000000E+00
  0.00000000E+00  0.00000000E+00  0.00000000E+00  0.00000000E+00  0.00000000E+00
  0.00000000E+00  0.00000000E+00  0.00000000E+00  0.00000000E+00  0.00000000E+00
  0.00000000E+00  0.00000000E+00  0.00000000E+00  0.00000000E+00  0.00000000E+00
  0.00000000E+00  0.00000000E+00  0.00000000E+00  0.00000000E+00  0.00000000E+00
  0.00000000E+00  0.00000000E+00  0.00000000E+00  0.00000000E+00  0.00000000E+00
  0.00000000E+00  0.00000000E+00  0.00000000E+00  0.00000000E+00  0.00000000E+00
  0.00000000E+00  0.00000000E+00  0.00000000E+00  0.00000000E+00  0.00000000E+00
  0.00000000E+00  0.00000000E+00  0.00000000E+00  0.00000000E+00  0.00000000E+00
  0.00000000E+00  0.00000000E+00  0.00000000E+00  0.00000000E+00  0.00000000E+00
  0.00000000E+00  0.00000000E+00  0.00000000E+00  0.00000000E+00  0.00000000E+00
  0.00000000E+00  0.00000000E+00  0.00000000E+00  0.00000000E+00  0.00000000E+00
  0.00000000E+00  0.00000000E+00  0.00000000E+00  0.00000000E+00  0.00000000E+00
  0.00000000E+00  0.00000000E+00  0.00000000E+00  0.00000000E+00  0.00000000E+00
  0.00000000E+00  0.00000000E+00  0.00000000E+00  0.00000000E+00  0.00000000E+00
  0.00000000E+00  0.00000000E+00  0.00000000E+00  0.00000000E+00  0.00000000E+00
  0.00000000E+00  0.00000000E+00  0.00000000E+00  0.00000000E+00  0.00000000E+00
  0.00000000E+00  0.00000000E+00  0.00000000E+00  0.00000000E+00  0.00000000E+00
  0.00000000E+00  0.00000000E+00  0.00000000E+00  0.00000000E+00  0.00000000E+00
  0.00000000E+00  0.00000000E+00  0.00000000E+00  0.00000000E+00  0.00000000E+00
  0.00000000E+00  0.00000000E+00  0.00000000E+00  0.00000000E+00  0.00000000E+00
  0.00000000E+00  0.00000000E+00  0.00000000E+00  0.00000000E+00  0.00000000E+00
  0.00000000E+00  0.00000000E+00  0.00000000E+00  0.00000000E+00  0.00000000E+00
  0.00000000E+00  0.00000000E+00  0.00000000E+00  0.00000000E+00  0.00000000E+00
  0.00000000E+00  0.00000000E+00  0.00000000E+00  0.00000000E+00  0.00000000E+00
  0.00000000E+00  0.00000000E+00  0.00000000E+00  0.00000000E+00  0.00000000E+00
  0.00000000E+00  0.00000000E+00  0.00000000E+00  0.00000000E+00  0.00000000E+00
  0.00000000E+00  0.00000000E+00  0.00000000E+00  0.00000000E+00  0.00000000E+00
  0.00000000E+00  0.00000000E+00  0.00000000E+00  0.00000000E+00  0.00000000E+00
  0.00000000E+00  0.00000000E+00  0.00000000E+00  0.00000000E+00  0.00000000E+00
  0.00000000E+00  0.00000000E+00  0.00000000E+00  0.00000000E+00  0.00000000E+00
  0.00000000E+00  0.00000000E+00  0.00000000E+00  0.00000000E+00  0.00000000E+00
  0.00000000E+00  0.00000000E+00  0.00000000E+00  0.00000000E+00  0.00000000E+00
  0.00000000E+00  0.00000000E+00  0.00000000E+00  0.00000000E+00  0.00000000E+00
  0.00000000E+00  0.00000000E+00  0.00000000E+00  0.00000000E+00  0.00000000E+00
  0.00000000E+00  0.00000000E+00  0.00000000E+00  0.00000000E+00  0.00000000E+00
  0.00000000E+00  0.00000000E+00  0.00000000E+00  0.00000000E+00  0.00000000E+00
  0.00000000E+00  0.00000000E+00  0.00000000E+00  0.00000000E+00  0.00000000E+00
  0.00000000E+00  0.00000000E+00  0.00000000E+00  0.00000000E+00  0.00000000E+00
  0.00000000E+00  0.00000000E+00  0.00000000E+00  0.00000000E+00  0.00000000E+00
  0.00000000E+00  0.00000000E+00  0.00000000E+00  0.00000000E+00  0.00000000E+00
  0.00000000E+00  0.00000000E+00  0.00000000E+00  0.00000000E+00  0.00000000E+00
  0.00000000E+00  0.00000000E+00  0.00000000E+00  0.00000000E+00  0.00000000E+00
  0.00000000E+00  0.00000000E+00  0.00000000E+00  0.00000000E+00  0.00000000E+00
  0.00000000E+00  0.00000000E+00  0.00000000E+00  0.00000000E+00  0.00000000E+00
  0.00000000E+00  0.00000000E+00  0.00000000E+00  0.00000000E+00  0.00000000E+00
  0.00000000E+00  0.00000000E+00  0.00000000E+00  0.00000000E+00  0.00000000E+00
  0.00000000E+00  0.00000000E+00  0.00000000E+00  0.00000000E+00  0.00000000E+00
  0.00000000E+00  0.00000000E+00  0.00000000E+00  0.00000000E+00  0.00000000E+00
  0.00000000E+00  0.00000000E+00  0.00000000E+00  0.00000000E+00  0.00000000E+00
  0.00000000E+00  0.00000000E+00  0.00000000E+00  0.00000000E+00  0.00000000E+00
  0.00000000E+00  0.00000000E+00  0.00000000E+00  0.00000000E+00  0.00000000E+00
  0.00000000E+00  0.00000000E+00  0.00000000E+00  0.00000000E+00  0.00000000E+00
  0.00000000E+00  0.00000000E+00  0.00000000E+00  0.00000000E+00  0.00000000E+00
  0.00000000E+00  0.00000000E+00  0.00000000E+00  0.00000000E+00  0.00000000E+00
  0.00000000E+00  0.00000000E+00  0.00000000E+00  0.00000000E+00  0.00000000E+00
  0.00000000E+00  0.00000000E+00  0.00000000E+00  0.00000000E+00  0.00000000E+00
  0.00000000E+00  0.00000000E+00  0.00000000E+00  0.00000000E+00  0.00000000E+00
  0.00000000E+00  0.00000000E+00  0.00000000E+00  0.00000000E+00  0.00000000E+00
Gaussian Version                           C   N=           2
AppleM1-GDVRevJ.32+     
