H2O DPCS3                                                               
Freq      RrevDSDPBEP86D4-FC                                          Gen                 
Number of atoms                            I                3
Info1-9                                    I   N=           9
         769         710           0           0           0         100
           6           2       -1701
Full Title                                 C   N=           1
H2O DPCS3   
Route                                      C   N=           4
#revdsdpbep86d4 gen freq=anharm output=pickett  
Point Group                                C   N=           2
C02V                    
Point Group NOp                            I                4
Point Group Abelian NOp                    I                4
Point Group NClass                         I                4
Point Group NIrrep                         I                4
Point Group NGen                           I                2
Point Group NOp symm assign                I                2
Point Group Irrep Names                    H   N=           4
A1      A2      B1      B2      
Point Group Class Names                    H   N=           4
E       C2      Sgm     Sgm'    
Point Group Generators                     I   N=           2
           2           3
Point Group Class of Operators             I   N=           4
           1           2           3           4
Point Group Rotations                      R   N=          48
  1.00000000E+00 -4.93038066E-32  0.00000000E+00 -4.93038066E-32  1.00000000E+00
  1.12481984E-32  0.00000000E+00  1.12481984E-32  1.00000000E+00  0.00000000E+00
  0.00000000E+00  0.00000000E+00 -1.00000000E+00 -1.22464680E-16  1.23259516E-32
  1.22464680E-16 -1.00000000E+00 -3.74939946E-33  0.00000000E+00  1.12481984E-32
  1.00000000E+00  0.00000000E+00  0.00000000E+00  0.00000000E+00 -1.00000000E+00
  2.46519033E-32  0.00000000E+00  2.46519033E-32  1.00000000E+00  1.12481984E-32
  0.00000000E+00  1.12481984E-32  1.00000000E+00  0.00000000E+00  0.00000000E+00
  0.00000000E+00  1.00000000E+00 -1.22464680E-16 -1.23259516E-32 -1.22464680E-16
 -1.00000000E+00 -1.87469973E-32 -1.23259516E-32  1.12481984E-32  1.00000000E+00
  0.00000000E+00  0.00000000E+00  0.00000000E+00
Point Group Cell Trans                     I   N=          12
           0           0           0           0           0           0
           0           0           0           0           0           0
Point Group Char Table                     R   N=          16
  1.00000000E+00  1.00000000E+00  1.00000000E+00  1.00000000E+00  1.00000000E+00
  1.00000000E+00 -1.00000000E+00 -1.00000000E+00  1.00000000E+00 -1.00000000E+00
 -1.00000000E+00  1.00000000E+00  1.00000000E+00 -1.00000000E+00  1.00000000E+00
 -1.00000000E+00
Point Group Atom Permutations              I   N=          12
           1           2           3           3           2           1
           1           2           3           3           2           1
Charge                                     I                0
Multiplicity                               I                1
Number of electrons                        I               10
Number of alpha electrons                  I                5
Number of beta electrons                   I                5
Number of basis functions                  I               72
Number of independent functions            I               72
Number of point charges in /Mol/           I                0
Number of translation vectors              I                0
Atomic numbers                             I   N=           3
           1           8           1
Nuclear charges                            R   N=           3
  1.00000000E+00  8.00000000E+00  1.00000000E+00
Current cartesian coordinates              R   N=           9
 -4.93038066E-32  1.43587816E+00 -8.87574125E-01 -1.54074396E-33  2.49590246E-33
  2.21893531E-01 -1.75844359E-16 -1.43587816E+00 -8.87574125E-01
Number of symbols in /Mol/                 I                0
Int Atom Types                             I   N=           3
           0           0           0
Force Field                                I                0
Atom Types                                 C   N=           3
                                    
MM charges                                 R   N=           3
  0.00000000E+00  0.00000000E+00  0.00000000E+00
Integer atomic weights                     I   N=           3
           1          16           1
Real atomic weights                        R   N=           3
  1.00782504E+00  1.59949146E+01  1.00782504E+00
Atom fragment info                         I   N=           3
           0           0           0
Atom residue num                           I   N=           3
           0           0           0
Nuclear spins                              I   N=           3
           1           0           1
Nuclear ZEff                               R   N=           3
 -1.00000000E+00 -5.60000000E+00 -1.00000000E+00
Nuclear ZNuc                               R   N=           3
  1.00000000E+00  8.00000000E+00  1.00000000E+00
Nuclear QMom                               R   N=           3
  0.00000000E+00  0.00000000E+00  0.00000000E+00
Nuclear GFac                               R   N=           3
  2.79284600E+00  0.00000000E+00  2.79284600E+00
MicOpt                                     I   N=           3
          -1          -1          -1
Number of residues                         I                0
Number of secondary structures             I                0
SymInf integers                            I   N=          26
           2           4           1           1           1          -1
          -1           1          -1           1           1           1
          -1           1           0           0           0           0
           0           0           0           0           0           0
           0           0
RotTr to input orientation                 R   N=          12
  1.83697020E-16  6.12323400E-17  1.00000000E+00 -1.00000000E+00  1.23391571E-15
  1.83697020E-16 -1.23391571E-15 -1.00000000E+00  6.12323400E-17  0.00000000E+00
  9.77271865E-02 -1.75844359E-17
Number of contracted shells                I               30
Number of primitive shells                 I               48
Pure/Cartesian d shells                    I                0
Pure/Cartesian f shells                    I                0
Highest angular momentum                   I                3
Largest degree of contraction              I                8
Shell types                                I   N=          30
           0           0           0           0           1           1
           1           0           0           0           0           0
           0           1           1           1           1           1
           1          -2          -2          -2          -3           0
           0           0           0           1           1           1
Number of primitives per shell             I   N=          30
           3           1           1           1           1           1
           1           8           7           1           1           1
           1           2           1           1           1           1
           1           1           1           1           1           3
           1           1           1           1           1           1
Shell to atom map                          I   N=          30
           1           1           1           1           1           1
           1           2           2           2           2           2
           2           2           2           2           2           2
           2           2           2           2           2           3
           3           3           3           3           3           3
Primitive exponents                        R   N=          48
  8.26400000E+01  1.24100000E+01  2.82400000E+00  7.97700000E-01  2.58100000E-01
  8.98900000E-02  1.55130000E+00  5.58000000E-01  2.00700000E-01  6.14200000E+04
  9.19900000E+03  2.09100000E+03  5.90900000E+02  1.92300000E+02  6.93200000E+01
  2.69700000E+01  1.11000000E+01  9.19900000E+03  5.90900000E+02  1.92300000E+02
  6.93200000E+01  2.69700000E+01  1.11000000E+01  4.68200000E+00  1.42800000E+00
  5.54700000E-01  2.06700000E-01  6.95900000E-02  6.34200000E+01  1.46600000E+01
  4.45900000E+00  1.53100000E+00  5.30200000E-01  1.75000000E-01  5.34800000E-02
  3.34220000E+00  1.14910000E+00  3.95100000E-01  1.42800000E+00  8.26400000E+01
  1.24100000E+01  2.82400000E+00  7.97700000E-01  2.58100000E-01  8.98900000E-02
  1.55130000E+00  5.58000000E-01  2.00700000E-01
Contraction coefficients                   R   N=          48
  2.29507578E-02  1.75540118E-01  8.64703551E-01  1.00000000E+00  1.00000000E+00
  1.00000000E+00  1.00000000E+00  1.00000000E+00  1.00000000E+00  1.55518410E-04
  1.18440583E-03  6.24876910E-03  2.55912766E-02  8.77566935E-02  2.30729100E-01
  4.42804305E-01  3.33680462E-01 -7.85827887E-06 -4.74592902E-04 -2.15916299E-03
 -2.37542047E-02 -1.01921529E-01 -4.53228587E-01 -4.84793012E-01  1.00000000E+00
  1.00000000E+00  1.00000000E+00  1.00000000E+00  1.33292131E-01  9.21819622E-01
  1.00000000E+00  1.00000000E+00  1.00000000E+00  1.00000000E+00  1.00000000E+00
  1.00000000E+00  1.00000000E+00  1.00000000E+00  1.00000000E+00  2.29507578E-02
  1.75540118E-01  8.64703551E-01  1.00000000E+00  1.00000000E+00  1.00000000E+00
  1.00000000E+00  1.00000000E+00  1.00000000E+00
Coordinates of each shell                  R   N=          90
 -1.76985648E-32  1.43587816E+00 -8.87574125E-01 -1.76985648E-32  1.43587816E+00
 -8.87574125E-01 -1.76985648E-32  1.43587816E+00 -8.87574125E-01 -1.76985648E-32
  1.43587816E+00 -8.87574125E-01 -1.76985648E-32  1.43587816E+00 -8.87574125E-01
 -1.76985648E-32  1.43587816E+00 -8.87574125E-01 -1.76985648E-32  1.43587816E+00
 -8.87574125E-01  0.00000000E+00 -3.44321939E-50  2.21893531E-01  0.00000000E+00
 -3.44321939E-50  2.21893531E-01  0.00000000E+00 -3.44321939E-50  2.21893531E-01
  0.00000000E+00 -3.44321939E-50  2.21893531E-01  0.00000000E+00 -3.44321939E-50
  2.21893531E-01  0.00000000E+00 -3.44321939E-50  2.21893531E-01  0.00000000E+00
 -3.44321939E-50  2.21893531E-01  0.00000000E+00 -3.44321939E-50  2.21893531E-01
  0.00000000E+00 -3.44321939E-50  2.21893531E-01  0.00000000E+00 -3.44321939E-50
  2.21893531E-01  0.00000000E+00 -3.44321939E-50  2.21893531E-01  0.00000000E+00
 -3.44321939E-50  2.21893531E-01  0.00000000E+00 -3.44321939E-50  2.21893531E-01
  0.00000000E+00 -3.44321939E-50  2.21893531E-01  0.00000000E+00 -3.44321939E-50
  2.21893531E-01  0.00000000E+00 -3.44321939E-50  2.21893531E-01 -1.75844359E-16
 -1.43587816E+00 -8.87574125E-01 -1.75844359E-16 -1.43587816E+00 -8.87574125E-01
 -1.75844359E-16 -1.43587816E+00 -8.87574125E-01 -1.75844359E-16 -1.43587816E+00
 -8.87574125E-01 -1.75844359E-16 -1.43587816E+00 -8.87574125E-01 -1.75844359E-16
 -1.43587816E+00 -8.87574125E-01 -1.75844359E-16 -1.43587816E+00 -8.87574125E-01
Constraint Structure                       R   N=           9
 -1.91833862E-16  1.43587816E+00 -8.87574125E-01  3.99737579E-18 -2.73797914E-16
  2.21893531E-01  3.35699215E-16 -1.43587816E+00 -8.87574125E-01
Constraint Force Constants                 R   N=           9
  0.00000000E+00  0.00000000E+00  0.00000000E+00  0.00000000E+00  0.00000000E+00
  0.00000000E+00  0.00000000E+00  0.00000000E+00  0.00000000E+00
Num ILSW                                   I              100
ILSW                                       I   N=         100
           0           0           0           1           2           0
           0           0           0           0       10004          -1
           5           0           0           0           2          -1
           0           0           0           0           1           0
           1           0           0           0           0           0
           0           0      100000           0          -1           0
           0           0           0           0           0           0
           0           0           0           1           1           0
           0 -2000000000           1           0           0           0
           0           0        1161          68           0           0
           0           0         117           0           0           0
           0           0           0           0           4           1
           0           0           0           0           0           0
           0           0           0           0           0           0
           0           0           0           0           0           0
           0           0           1           0           0           0
           0           0           0           0
Num RLSW                                   I               68
RLSW                                       R   N=          68
  3.10000000E-01  3.10000000E-01  4.21000000E-01  4.21000000E-01  6.90000000E-01
  0.00000000E+00  0.00000000E+00  1.00000000E+00  0.00000000E+00  0.00000000E+00
  0.00000000E+00  0.00000000E+00  1.00000000E+00  0.00000000E+00  0.00000000E+00
  0.00000000E+00  0.00000000E+00  1.00000000E+00  0.00000000E+00  0.00000000E+00
  0.00000000E+00  0.00000000E+00  1.00000000E+00  0.00000000E+00  0.00000000E+00
  0.00000000E+00  0.00000000E+00  1.00000000E+00  0.00000000E+00  0.00000000E+00
  0.00000000E+00  0.00000000E+00  1.00000000E+00  0.00000000E+00  0.00000000E+00
  0.00000000E+00  0.00000000E+00  0.00000000E+00  6.36000000E-02  5.92200000E-01
  0.00000000E+00  1.00000000E+00  0.00000000E+00  0.00000000E+00  0.00000000E+00
  0.00000000E+00  0.00000000E+00  0.00000000E+00  0.00000000E+00  0.00000000E+00
  0.00000000E+00  0.00000000E+00  6.36000000E-02  5.92200000E-01  6.36000000E-02
  5.92200000E-01  1.00000000E+00  1.00000000E+00  0.00000000E+00  0.00000000E+00
  0.00000000E+00  0.00000000E+00  0.00000000E+00  0.00000000E+00  0.00000000E+00
  0.00000000E+00  2.00000000E-10  1.00000000E-02
MxBond                                     I                2
NBond                                      I   N=           3
           1           2           1
IBond                                      I   N=           6
           2           0           1           3           2           0
RBond                                      R   N=           6
  1.00000000E+00  0.00000000E+00  1.00000000E+00  1.00000000E+00  1.00000000E+00
  0.00000000E+00
Virial Ratio                               R      2.002267874555377E+00
SCF Energy                                 R     -7.621234287099543E+01
MP2 Energy                                 R     -7.635062210747377E+01
Total Energy                               R     -7.635062210747377E+01
Post-SCF wavefunction norm                 R      1.470313358582910E+00
RMS Force                                  R      1.347818868204747E-05
RMS Density                                R      5.125204740774417E-09
NImag                                      I                0
Zero-point Energy                          R      2.142019709100938E-02
Job Status                                 I                1
Nuclear derivative order                   I                3
Energy with zero-point                     R     -7.632920191038276E+01
Thermal Energy                             R     -7.632636665639971E+01
Thermal Enthalpy                           R     -7.632542247158607E+01
Thermal Free Energy                        R     -7.634684074286625E+01
External E-field                           R   N=         105
  0.00000000E+00  0.00000000E+00  0.00000000E+00  0.00000000E+00  0.00000000E+00
  0.00000000E+00  0.00000000E+00  0.00000000E+00  0.00000000E+00  0.00000000E+00
  0.00000000E+00  0.00000000E+00  0.00000000E+00  0.00000000E+00  0.00000000E+00
  0.00000000E+00  0.00000000E+00  0.00000000E+00  0.00000000E+00  0.00000000E+00
  0.00000000E+00  0.00000000E+00  0.00000000E+00  0.00000000E+00  0.00000000E+00
  0.00000000E+00  0.00000000E+00  0.00000000E+00  0.00000000E+00  0.00000000E+00
  0.00000000E+00  0.00000000E+00  0.00000000E+00  0.00000000E+00  0.00000000E+00
  0.00000000E+00  0.00000000E+00  0.00000000E+00  0.00000000E+00  0.00000000E+00
  0.00000000E+00  0.00000000E+00  0.00000000E+00  0.00000000E+00  0.00000000E+00
  0.00000000E+00  0.00000000E+00  0.00000000E+00  0.00000000E+00  0.00000000E+00
  0.00000000E+00  0.00000000E+00  0.00000000E+00  0.00000000E+00  0.00000000E+00
  0.00000000E+00  0.00000000E+00  0.00000000E+00  0.00000000E+00  0.00000000E+00
  0.00000000E+00  0.00000000E+00  0.00000000E+00  0.00000000E+00  0.00000000E+00
  0.00000000E+00  0.00000000E+00  0.00000000E+00  0.00000000E+00  0.00000000E+00
  0.00000000E+00  0.00000000E+00  0.00000000E+00  0.00000000E+00  0.00000000E+00
  0.00000000E+00  0.00000000E+00  0.00000000E+00  0.00000000E+00  0.00000000E+00
  0.00000000E+00  0.00000000E+00  0.00000000E+00  0.00000000E+00  0.00000000E+00
  0.00000000E+00  0.00000000E+00  0.00000000E+00  0.00000000E+00  0.00000000E+00
  0.00000000E+00  0.00000000E+00  0.00000000E+00  0.00000000E+00  0.00000000E+00
  0.00000000E+00  0.00000000E+00  0.00000000E+00  0.00000000E+00  0.00000000E+00
  0.00000000E+00  0.00000000E+00  0.00000000E+00  0.00000000E+00  0.00000000E+00
IOpCl                                      I                0
IROHF                                      I                0
Alpha Orbital Energies                     R   N=          72
 -2.00088469E+01 -1.22579103E+00 -6.49587311E-01 -5.13864437E-01 -4.38239709E-01
  7.16320592E-02  1.03546722E-01  1.22075460E-01  1.26540380E-01  1.95909564E-01
  2.28732539E-01  4.03366905E-01  4.43126369E-01  4.67965703E-01  4.69934514E-01
  5.27138158E-01  5.40220046E-01  5.99375608E-01  6.65883499E-01  6.95965139E-01
  7.68016682E-01  8.94218324E-01  9.55049074E-01  1.25588246E+00  1.25908546E+00
  1.26205129E+00  1.46663282E+00  1.54868575E+00  1.61593825E+00  1.66257478E+00
  1.69677955E+00  1.77837021E+00  1.82251297E+00  1.88334931E+00  2.20362422E+00
  2.22552677E+00  2.70783279E+00  3.13681823E+00  3.29433522E+00  3.64563998E+00
  3.67517943E+00  3.69374258E+00  3.72337701E+00  4.08653993E+00  4.45844649E+00
  4.90921953E+00  4.95422098E+00  4.96540653E+00  5.19757657E+00  5.35057148E+00
  5.36347186E+00  5.48750706E+00  5.60424748E+00  5.88562559E+00  6.05893451E+00
  6.07254079E+00  7.31796165E+00  7.67228405E+00  7.87176244E+00  7.93563183E+00
  9.24634098E+00  9.72449292E+00  9.94947904E+00  1.09795527E+01  1.09958215E+01
  1.10719173E+01  1.14400028E+01  1.18624138E+01  3.67441295E+01  3.70819510E+01
  3.72657630E+01  4.08550476E+01
Alpha MO coefficients                      R   N=        5184
 -3.25834742E-05  9.79373052E-04 -8.01757973E-04 -1.40395602E-03  0.00000000E+00
 -3.19571146E-05  2.95217671E-05  0.00000000E+00 -7.23715314E-04  4.66607868E-04
  0.00000000E+00  7.68887081E-04 -4.87540154E-04  5.86376261E-01 -4.45660165E-01
  2.36014504E-02 -8.78000200E-03  5.89127337E-03  1.07001118E-03  0.00000000E+00
  0.00000000E+00 -5.93742559E-04  0.00000000E+00  0.00000000E+00 -8.59484077E-04
  0.00000000E+00  0.00000000E+00 -1.90332999E-04  0.00000000E+00  0.00000000E+00
  1.05751412E-03  0.00000000E+00  0.00000000E+00 -1.08047699E-03  0.00000000E+00
  0.00000000E+00 -2.46642146E-04  2.95018060E-05  0.00000000E+00  0.00000000E+00
 -1.59352310E-04  0.00000000E+00 -6.44168826E-05  0.00000000E+00  0.00000000E+00
  3.84132194E-04  0.00000000E+00 -7.48799801E-06  0.00000000E+00  0.00000000E+00
  1.01988368E-04  0.00000000E+00 -3.48804430E-05  0.00000000E+00  0.00000000E+00
 -9.61670065E-05  0.00000000E+00  0.00000000E+00  0.00000000E+00 -3.25834742E-05
  9.79373052E-04 -8.01757973E-04 -1.40395602E-03  0.00000000E+00  3.19571146E-05
  2.95217671E-05  0.00000000E+00  7.23715314E-04  4.66607868E-04  0.00000000E+00
 -7.68887081E-04 -4.87540154E-04  3.56768203E-02  7.97992645E-02  3.27480724E-02
  3.70086459E-03  0.00000000E+00 -9.40790979E-03  6.23856690E-03  0.00000000E+00
 -5.01388604E-04  2.96011517E-04  0.00000000E+00 -1.64223455E-03  5.10225488E-04
 -1.20405937E-01  2.10156344E-01  2.44111898E-01  5.09665045E-01  2.27189369E-01
  2.27732190E-03  0.00000000E+00  0.00000000E+00 -6.27812418E-03  0.00000000E+00
  0.00000000E+00 -1.98631169E-02  0.00000000E+00  0.00000000E+00 -5.05480332E-02
  0.00000000E+00  0.00000000E+00 -6.77093204E-02  0.00000000E+00  0.00000000E+00
 -1.68980093E-02  0.00000000E+00  0.00000000E+00  1.16993739E-03  3.60741544E-04
  0.00000000E+00  0.00000000E+00 -9.96452610E-04  0.00000000E+00  2.53882325E-03
  0.00000000E+00  0.00000000E+00 -9.68833664E-03  0.00000000E+00  3.65734213E-03
  0.00000000E+00  0.00000000E+00 -5.63041175E-03  0.00000000E+00  1.24534816E-03
  0.00000000E+00  0.00000000E+00  3.99860568E-03  0.00000000E+00  0.00000000E+00
  0.00000000E+00  3.56768203E-02  7.97992645E-02  3.27480724E-02  3.70086459E-03
  0.00000000E+00  9.40790979E-03  6.23856690E-03  0.00000000E+00  5.01388604E-04
  2.96011517E-04  0.00000000E+00  1.64223455E-03  5.10225488E-04  5.53457790E-02
  1.39036706E-01  1.53558045E-01  5.30758439E-02  0.00000000E+00 -7.71830922E-03
  1.02975164E-02  0.00000000E+00  2.63482508E-03  4.42642727E-03  0.00000000E+00
 -8.19201031E-03  8.57475196E-03  0.00000000E+00  0.00000000E+00  0.00000000E+00
  0.00000000E+00  0.00000000E+00  0.00000000E+00  0.00000000E+00  3.48315820E-02
  0.00000000E+00  0.00000000E+00  1.17958253E-01  0.00000000E+00  0.00000000E+00
  2.66434185E-01  0.00000000E+00  0.00000000E+00  3.22843822E-01  0.00000000E+00
  0.00000000E+00  1.17281139E-01  0.00000000E+00  0.00000000E+00 -2.99277155E-03
  0.00000000E+00  0.00000000E+00  0.00000000E+00 -5.28178515E-03  0.00000000E+00
  0.00000000E+00  0.00000000E+00  0.00000000E+00 -2.39252090E-02  0.00000000E+00
  0.00000000E+00  0.00000000E+00  0.00000000E+00 -1.79138518E-02  0.00000000E+00
  0.00000000E+00  0.00000000E+00  0.00000000E+00  5.90803396E-04  0.00000000E+00
  0.00000000E+00  0.00000000E+00 -4.78915705E-03 -5.53457790E-02 -1.39036706E-01
 -1.53558045E-01 -5.30758439E-02  0.00000000E+00 -7.71830922E-03 -1.02975164E-02
  0.00000000E+00  2.63482508E-03 -4.42642727E-03  0.00000000E+00 -8.19201031E-03
 -8.57475196E-03 -3.27946873E-02 -8.37015030E-02 -1.29382403E-01 -6.31074827E-02
  0.00000000E+00  8.16693763E-03  1.68383494E-03  0.00000000E+00  4.50029970E-03
  5.40294176E-03  0.00000000E+00  2.08656473E-02  4.42436947E-03 -4.10067440E-02
  7.39291215E-02  9.65660830E-02  1.83820490E-01  2.72464778E-01  8.37405649E-02
  0.00000000E+00  0.00000000E+00  3.78136877E-02  0.00000000E+00  0.00000000E+00
  1.30519708E-01  0.00000000E+00  0.00000000E+00  2.86276887E-01  0.00000000E+00
  0.00000000E+00  3.58000622E-01  0.00000000E+00  0.00000000E+00  1.70419191E-01
  0.00000000E+00  0.00000000E+00  1.03412797E-02 -2.08015818E-03  0.00000000E+00
  0.00000000E+00  1.54818521E-03  0.00000000E+00 -1.24349596E-02  0.00000000E+00
  0.00000000E+00  4.11385784E-03  0.00000000E+00 -2.06418025E-02  0.00000000E+00
  0.00000000E+00 -1.66466667E-03  0.00000000E+00  1.36676282E-03  0.00000000E+00
  0.00000000E+00 -3.80803230E-03  0.00000000E+00  0.00000000E+00  0.00000000E+00
 -3.27946873E-02 -8.37015030E-02 -1.29382403E-01 -6.31074827E-02  0.00000000E+00
 -8.16693763E-03  1.68383494E-03  0.00000000E+00 -4.50029970E-03  5.40294176E-03
  0.00000000E+00 -2.08656473E-02  4.42436947E-03  0.00000000E+00  0.00000000E+00
  0.00000000E+00  0.00000000E+00  9.15732400E-03  0.00000000E+00  0.00000000E+00
  1.33089452E-02  0.00000000E+00  0.00000000E+00  2.40132018E-02  0.00000000E+00
  0.00000000E+00  0.00000000E+00  0.00000000E+00  0.00000000E+00  0.00000000E+00
  0.00000000E+00  0.00000000E+00  4.27296392E-02  0.00000000E+00  0.00000000E+00
  1.49248126E-01  0.00000000E+00  0.00000000E+00  3.23250796E-01  0.00000000E+00
  0.00000000E+00  4.19884135E-01  0.00000000E+00  0.00000000E+00  2.61960882E-01
  0.00000000E+00  0.00000000E+00  3.56341669E-02  0.00000000E+00  0.00000000E+00
  0.00000000E+00 -2.00155234E-03  0.00000000E+00  0.00000000E+00  0.00000000E+00
  0.00000000E+00 -1.19496481E-02  0.00000000E+00  0.00000000E+00  0.00000000E+00
  0.00000000E+00 -1.93567076E-02  0.00000000E+00  0.00000000E+00  0.00000000E+00
  0.00000000E+00  2.28376154E-03  0.00000000E+00  0.00000000E+00  0.00000000E+00
 -5.69523470E-03  0.00000000E+00  0.00000000E+00  0.00000000E+00  0.00000000E+00
  0.00000000E+00  9.15732400E-03  0.00000000E+00  0.00000000E+00  1.33089452E-02
  0.00000000E+00  0.00000000E+00  2.40132018E-02  0.00000000E+00  0.00000000E+00
  1.88652225E-03  3.52651569E-02  1.71261645E-01 -6.58404047E-01  0.00000000E+00
  1.36305236E-02 -6.90006965E-03  0.00000000E+00 -4.07226567E-02  1.69148699E-02
  0.00000000E+00  7.03506606E-02 -3.55597876E-02  2.88219890E-02 -5.87084367E-02
 -1.06117325E-01 -6.90548265E-03 -8.19713870E-01  2.26424316E+00  0.00000000E+00
  0.00000000E+00  1.07210703E-02  0.00000000E+00  0.00000000E+00  3.93440434E-02
  0.00000000E+00  0.00000000E+00  7.87747279E-02  0.00000000E+00  0.00000000E+00
  1.65599096E-01  0.00000000E+00  0.00000000E+00  1.42613882E-01  0.00000000E+00
  0.00000000E+00 -8.97660863E-01  3.05537792E-05  0.00000000E+00  0.00000000E+00
 -8.98809719E-04  0.00000000E+00 -5.98834038E-03  0.00000000E+00  0.00000000E+00
  5.88528724E-03  0.00000000E+00 -6.89587541E-03  0.00000000E+00  0.00000000E+00
  1.46525131E-02  0.00000000E+00 -1.42677560E-04  0.00000000E+00  0.00000000E+00
 -2.78895218E-03  0.00000000E+00  0.00000000E+00  0.00000000E+00  1.88652225E-03
  3.52651569E-02  1.71261645E-01 -6.58404047E-01  0.00000000E+00 -1.36305236E-02
 -6.90006965E-03  0.00000000E+00  4.07226567E-02  1.69148699E-02  0.00000000E+00
 -7.03506606E-02 -3.55597876E-02 -2.52344269E-03 -6.60427199E-03  5.17738984E-01
 -6.08314768E-01  0.00000000E+00  5.73757804E-03 -9.73638614E-03  0.00000000E+00
 -3.69261104E-02  5.05882499E-02  0.00000000E+00 -5.57711716E-02  3.03244989E-02
  0.00000000E+00  0.00000000E+00  0.00000000E+00  0.00000000E+00  0.00000000E+00
  0.00000000E+00  0.00000000E+00 -1.00463787E-02  0.00000000E+00  0.00000000E+00
 -3.65825796E-02  0.00000000E+00  0.00000000E+00 -7.30368600E-02  0.00000000E+00
  0.00000000E+00 -1.73268856E-01  0.00000000E+00  0.00000000E+00 -6.76762096E-01
  0.00000000E+00  0.00000000E+00  1.56486841E+00  0.00000000E+00  0.00000000E+00
  0.00000000E+00  3.16162856E-03  0.00000000E+00  0.00000000E+00  0.00000000E+00
  0.00000000E+00 -6.54093041E-03  0.00000000E+00  0.00000000E+00  0.00000000E+00
  0.00000000E+00  1.32820940E-01  0.00000000E+00  0.00000000E+00  0.00000000E+00
  0.00000000E+00 -6.30134718E-04  0.00000000E+00  0.00000000E+00  0.00000000E+00
  3.34524522E-03  2.52344269E-03  6.60427199E-03 -5.17738984E-01  6.08314768E-01
  0.00000000E+00  5.73757804E-03  9.73638614E-03  0.00000000E+00 -3.69261104E-02
 -5.05882499E-02  0.00000000E+00 -5.57711716E-02 -3.03244989E-02 -3.92179822E-03
 -6.85846462E-02  4.76939315E-01 -1.67772456E+00  0.00000000E+00  3.35090478E-03
 -5.49511016E-04  0.00000000E+00 -5.31239372E-02  1.72269109E-02  0.00000000E+00
 -4.67778832E-02 -9.03734898E-03 -2.40597901E-02  4.84530016E-02  8.80565270E-02
  2.61958335E-02  5.59250067E-02  1.83557391E+00  0.00000000E+00  0.00000000E+00
  3.38052375E-03  0.00000000E+00  0.00000000E+00  1.12575589E-02  0.00000000E+00
  0.00000000E+00  2.71729704E-02  0.00000000E+00  0.00000000E+00  5.14317509E-02
  0.00000000E+00  0.00000000E+00  4.12052920E-01  0.00000000E+00  0.00000000E+00
 -1.69103463E+00 -9.78765499E-04  0.00000000E+00  0.00000000E+00  2.31025136E-03
  0.00000000E+00  3.85431252E-03  0.00000000E+00  0.00000000E+00 -5.25320688E-03
  0.00000000E+00 -3.21978611E-02  0.00000000E+00  0.00000000E+00  5.16965735E-02
  0.00000000E+00  1.50097343E-03  0.00000000E+00  0.00000000E+00  8.74809763E-04
  0.00000000E+00  0.00000000E+00  0.00000000E+00 -3.92179822E-03 -6.85846462E-02
  4.76939315E-01 -1.67772456E+00  0.00000000E+00 -3.35090478E-03 -5.49511016E-04
  0.00000000E+00  5.31239372E-02  1.72269109E-02  0.00000000E+00  4.67778832E-02
 -9.03734898E-03  0.00000000E+00  0.00000000E+00  0.00000000E+00  0.00000000E+00
 -5.52330850E-03  0.00000000E+00  0.00000000E+00  2.00650201E-02  0.00000000E+00
  0.00000000E+00  1.06286151E-02  0.00000000E+00  0.00000000E+00  0.00000000E+00
  0.00000000E+00  0.00000000E+00  0.00000000E+00  0.00000000E+00  0.00000000E+00
 -1.20594942E-02  0.00000000E+00  0.00000000E+00 -3.41491202E-02  0.00000000E+00
  0.00000000E+00 -1.10187890E-01  0.00000000E+00  0.00000000E+00 -3.41104472E-02
  0.00000000E+00  0.00000000E+00 -4.56342263E-01  0.00000000E+00  0.00000000E+00
  1.21312041E+00  0.00000000E+00  0.00000000E+00  0.00000000E+00  3.71218842E-04
  0.00000000E+00  0.00000000E+00  0.00000000E+00  0.00000000E+00  2.89445391E-03
  0.00000000E+00  0.00000000E+00  0.00000000E+00  0.00000000E+00  1.20748915E-02
  0.00000000E+00  0.00000000E+00  0.00000000E+00  0.00000000E+00 -8.54505323E-04
  0.00000000E+00  0.00000000E+00  0.00000000E+00  2.34803648E-03  0.00000000E+00
  0.00000000E+00  0.00000000E+00  0.00000000E+00  0.00000000E+00 -5.52330850E-03
  0.00000000E+00  0.00000000E+00  2.00650201E-02  0.00000000E+00  0.00000000E+00
  1.06286151E-02  0.00000000E+00  0.00000000E+00  1.11873947E-02  7.43241747E-02
  3.83385827E-01  4.51107710E+00  0.00000000E+00 -6.77690684E-03 -3.17214317E-03
  0.00000000E+00  5.89898670E-02 -3.50936993E-02  0.00000000E+00 -4.93439935E-01
  2.90122027E-01  0.00000000E+00  0.00000000E+00  0.00000000E+00  0.00000000E+00
  0.00000000E+00  0.00000000E+00  0.00000000E+00 -1.39199583E-02  0.00000000E+00
  0.00000000E+00 -4.73681061E-02  0.00000000E+00  0.00000000E+00 -1.08097341E-01
  0.00000000E+00  0.00000000E+00 -1.07157540E-01  0.00000000E+00  0.00000000E+00
 -1.34093283E+00  0.00000000E+00  0.00000000E+00 -2.09597767E+00  0.00000000E+00
  0.00000000E+00  0.00000000E+00  1.36402131E-03  0.00000000E+00  0.00000000E+00
  0.00000000E+00  0.00000000E+00 -2.58360097E-02  0.00000000E+00  0.00000000E+00
  0.00000000E+00  0.00000000E+00  8.34350745E-02  0.00000000E+00  0.00000000E+00
  0.00000000E+00  0.00000000E+00 -7.36172921E-04  0.00000000E+00  0.00000000E+00
  0.00000000E+00  3.77208302E-03 -1.11873947E-02 -7.43241747E-02 -3.83385827E-01
 -4.51107710E+00  0.00000000E+00 -6.77690684E-03  3.17214317E-03  0.00000000E+00
  5.89898670E-02  3.50936993E-02  0.00000000E+00 -4.93439935E-01 -2.90122027E-01
 -1.08330321E-02 -5.17862152E-02 -7.13969469E-01 -5.75925365E+00  0.00000000E+00
 -7.60942782E-03 -2.92705650E-03  0.00000000E+00 -7.62488528E-03  2.52020636E-02
  0.00000000E+00  4.95757634E-01 -3.46230424E-01 -6.44129890E-03  1.53420621E-02
  4.57221230E-02 -1.74905173E-01  2.44074234E+00  9.46992434E+00  0.00000000E+00
  0.00000000E+00 -1.24463513E-02  0.00000000E+00  0.00000000E+00 -3.91420604E-02
  0.00000000E+00  0.00000000E+00 -1.05656056E-01  0.00000000E+00  0.00000000E+00
 -7.73390955E-02  0.00000000E+00  0.00000000E+00 -1.62947159E+00  0.00000000E+00
  0.00000000E+00 -1.91127748E+00  2.10690722E-03  0.00000000E+00  0.00000000E+00
 -2.15241413E-03  0.00000000E+00 -5.29781582E-03  0.00000000E+00  0.00000000E+00
  2.99347438E-02  0.00000000E+00  4.88555011E-02  0.00000000E+00  0.00000000E+00
 -9.07169918E-02  0.00000000E+00  2.51700468E-04  0.00000000E+00  0.00000000E+00
  2.65001217E-03  0.00000000E+00  0.00000000E+00  0.00000000E+00 -1.08330321E-02
 -5.17862152E-02 -7.13969469E-01 -5.75925365E+00  0.00000000E+00  7.60942782E-03
 -2.92705650E-03  0.00000000E+00  7.62488528E-03  2.52020636E-02  0.00000000E+00
 -4.95757634E-01 -3.46230424E-01  1.00838812E-02  5.59856272E-02 -1.73653981E-01
 -1.56882768E+00  0.00000000E+00  2.61268791E-02  3.66242762E-02  0.00000000E+00
 -9.66632254E-02 -9.91471136E-02  0.00000000E+00  7.65485737E-01  6.43129111E-01
  4.26765237E-03 -3.89902918E-03  1.97830417E-02 -1.43496377E-01  8.33565283E-01
  2.37637215E+00  0.00000000E+00  0.00000000E+00 -6.11575572E-03  0.00000000E+00
  0.00000000E+00 -2.08436477E-02  0.00000000E+00  0.00000000E+00 -5.15221902E-02
  0.00000000E+00  0.00000000E+00 -3.03626118E-02  0.00000000E+00  0.00000000E+00
 -1.10416039E+00  0.00000000E+00  0.00000000E+00 -8.26267771E-01  3.70895119E-03
  0.00000000E+00  0.00000000E+00 -2.58290595E-04  0.00000000E+00 -5.48251459E-02
  0.00000000E+00  0.00000000E+00 -2.43839651E-02  0.00000000E+00  9.63719734E-02
  0.00000000E+00  0.00000000E+00  2.70674751E-02  0.00000000E+00  3.92028483E-03
  0.00000000E+00  0.00000000E+00  4.88476260E-04  0.00000000E+00  0.00000000E+00
  0.00000000E+00  1.00838812E-02  5.59856272E-02 -1.73653981E-01 -1.56882768E+00
  0.00000000E+00 -2.61268791E-02  3.66242762E-02  0.00000000E+00  9.66632254E-02
 -9.91471136E-02  0.00000000E+00 -7.65485737E-01  6.43129111E-01  0.00000000E+00
  0.00000000E+00  0.00000000E+00  0.00000000E+00  5.27444569E-02  0.00000000E+00
  0.00000000E+00 -1.80677810E-01  0.00000000E+00  0.00000000E+00  1.10037778E+00
  0.00000000E+00  0.00000000E+00  0.00000000E+00  0.00000000E+00  0.00000000E+00
  0.00000000E+00  0.00000000E+00  0.00000000E+00  0.00000000E+00  0.00000000E+00
  0.00000000E+00  0.00000000E+00  0.00000000E+00  0.00000000E+00  0.00000000E+00
  0.00000000E+00  0.00000000E+00  0.00000000E+00  0.00000000E+00  0.00000000E+00
  0.00000000E+00  0.00000000E+00  0.00000000E+00  0.00000000E+00  0.00000000E+00
  0.00000000E+00  0.00000000E+00  0.00000000E+00  0.00000000E+00  0.00000000E+00
 -1.58716968E-03  0.00000000E+00  0.00000000E+00  0.00000000E+00  0.00000000E+00
  5.28492530E-02  0.00000000E+00  0.00000000E+00  0.00000000E+00  0.00000000E+00
 -5.77660216E-02  0.00000000E+00  0.00000000E+00  0.00000000E+00  0.00000000E+00
 -8.01861252E-03  0.00000000E+00  0.00000000E+00  0.00000000E+00  0.00000000E+00
  0.00000000E+00  0.00000000E+00 -5.27444569E-02  0.00000000E+00  0.00000000E+00
  1.80677810E-01  0.00000000E+00  0.00000000E+00 -1.10037778E+00  0.00000000E+00
  0.00000000E+00 -4.52789182E-02 -9.99700178E-02 -3.37910917E-01  5.41273777E+00
  0.00000000E+00 -2.36832735E-02  3.35205190E-02  0.00000000E+00  1.27227595E-01
 -1.33281269E-01  0.00000000E+00 -1.06170890E+00  1.15129787E+00  0.00000000E+00
  0.00000000E+00  0.00000000E+00  0.00000000E+00  0.00000000E+00  0.00000000E+00
  0.00000000E+00  1.63918349E-02  0.00000000E+00  0.00000000E+00  5.94118202E-02
  0.00000000E+00  0.00000000E+00  1.28998448E-01  0.00000000E+00  0.00000000E+00
  2.85910646E-01  0.00000000E+00  0.00000000E+00 -1.33745716E+00  0.00000000E+00
  0.00000000E+00 -1.95424035E+00  0.00000000E+00  0.00000000E+00  0.00000000E+00
  8.09531714E-03  0.00000000E+00  0.00000000E+00  0.00000000E+00  0.00000000E+00
  3.78021976E-03  0.00000000E+00  0.00000000E+00  0.00000000E+00  0.00000000E+00
  7.13153418E-02  0.00000000E+00  0.00000000E+00  0.00000000E+00  0.00000000E+00
 -9.16667013E-03  0.00000000E+00  0.00000000E+00  0.00000000E+00  1.15428950E-03
  4.52789182E-02  9.99700178E-02  3.37910917E-01 -5.41273777E+00  0.00000000E+00
 -2.36832735E-02 -3.35205190E-02  0.00000000E+00  1.27227595E-01  1.33281269E-01
  0.00000000E+00 -1.06170890E+00 -1.15129787E+00  0.00000000E+00  0.00000000E+00
  0.00000000E+00  0.00000000E+00  5.38347978E-02  0.00000000E+00  0.00000000E+00
 -2.12658262E-01  0.00000000E+00  0.00000000E+00  1.29811246E+00  0.00000000E+00
  0.00000000E+00  0.00000000E+00  0.00000000E+00  0.00000000E+00  0.00000000E+00
  0.00000000E+00  0.00000000E+00 -1.04414092E-02  0.00000000E+00  0.00000000E+00
 -3.69186063E-02  0.00000000E+00  0.00000000E+00 -8.38498311E-02  0.00000000E+00
  0.00000000E+00 -8.14249301E-02  0.00000000E+00  0.00000000E+00 -1.21881862E+00
  0.00000000E+00  0.00000000E+00 -4.19270299E-01  0.00000000E+00  0.00000000E+00
  0.00000000E+00  1.35371887E-03  0.00000000E+00  0.00000000E+00  0.00000000E+00
  0.00000000E+00 -4.28450604E-02  0.00000000E+00  0.00000000E+00  0.00000000E+00
  0.00000000E+00  4.72928112E-02  0.00000000E+00  0.00000000E+00  0.00000000E+00
  0.00000000E+00  3.86695926E-03  0.00000000E+00  0.00000000E+00  0.00000000E+00
 -4.56611504E-03  0.00000000E+00  0.00000000E+00  0.00000000E+00  0.00000000E+00
  0.00000000E+00  5.38347978E-02  0.00000000E+00  0.00000000E+00 -2.12658262E-01
  0.00000000E+00  0.00000000E+00  1.29811246E+00  0.00000000E+00  0.00000000E+00
  5.21669100E-02  1.03681777E-02  4.07089730E-01 -6.03183712E+00  0.00000000E+00
  1.81670570E-02 -2.10048225E-02  0.00000000E+00 -4.81743511E-02  7.34824002E-02
  0.00000000E+00  1.10057476E+00 -1.08899806E+00  3.98644841E-02 -5.51163876E-02
  5.02735521E-02 -9.54719713E-01  4.48540362E+00  7.63849974E+00  0.00000000E+00
  0.00000000E+00  1.50005204E-02  0.00000000E+00  0.00000000E+00  5.12827675E-02
  0.00000000E+00  0.00000000E+00  1.26604429E-01  0.00000000E+00  0.00000000E+00
  1.77974115E-01  0.00000000E+00  0.00000000E+00 -9.46516125E-01  0.00000000E+00
  0.00000000E+00 -1.62114192E+00 -1.09212038E-03  0.00000000E+00  0.00000000E+00
 -6.84461162E-03  0.00000000E+00  6.57317787E-03  0.00000000E+00  0.00000000E+00
  4.27780837E-03  0.00000000E+00 -2.24624472E-02  0.00000000E+00  0.00000000E+00
 -1.41660799E-01  0.00000000E+00  5.66533447E-03  0.00000000E+00  0.00000000E+00
  1.25048655E-02  0.00000000E+00  0.00000000E+00  0.00000000E+00  5.21669100E-02
  1.03681777E-02  4.07089730E-01 -6.03183712E+00  0.00000000E+00 -1.81670570E-02
 -2.10048225E-02  0.00000000E+00  4.81743511E-02  7.34824002E-02  0.00000000E+00
 -1.10057476E+00 -1.08899806E+00 -6.94795783E-03 -4.17149099E-02 -2.52683412E+00
 -2.23975422E+00  0.00000000E+00  2.83787716E-02  2.39072578E-02  0.00000000E+00
  5.12666935E-02 -2.18972005E-01  0.00000000E+00  1.65417414E+00 -3.66264772E-01
  0.00000000E+00  0.00000000E+00  0.00000000E+00  0.00000000E+00  0.00000000E+00
  0.00000000E+00  0.00000000E+00 -2.10611076E-02  0.00000000E+00  0.00000000E+00
 -6.80080875E-02  0.00000000E+00  0.00000000E+00 -1.89312477E-01  0.00000000E+00
  0.00000000E+00  1.93420693E-02  0.00000000E+00  0.00000000E+00  3.34115444E+00
  0.00000000E+00  0.00000000E+00 -2.40057098E-01  0.00000000E+00  0.00000000E+00
  0.00000000E+00 -6.88285194E-03  0.00000000E+00  0.00000000E+00  0.00000000E+00
  0.00000000E+00  7.32037252E-02  0.00000000E+00  0.00000000E+00  0.00000000E+00
  0.00000000E+00 -5.66033312E-01  0.00000000E+00  0.00000000E+00  0.00000000E+00
  0.00000000E+00  2.80937536E-03  0.00000000E+00  0.00000000E+00  0.00000000E+00
 -9.50991730E-03  6.94795783E-03  4.17149099E-02  2.52683412E+00  2.23975422E+00
  0.00000000E+00  2.83787716E-02 -2.39072578E-02  0.00000000E+00  5.12666935E-02
  2.18972005E-01  0.00000000E+00  1.65417414E+00  3.66264772E-01 -2.10132012E-02
  8.44947755E-02 -4.71308007E+00 -2.69403705E+00  0.00000000E+00 -2.89559665E-02
  8.73627236E-03  0.00000000E+00  3.10051396E-01 -1.35168021E-01  0.00000000E+00
  1.72960040E+00 -9.20822568E-01 -1.41482877E-02  4.03084662E-02  1.43802988E-01
 -6.30570901E-01  1.02047001E+01  3.60097782E+00  0.00000000E+00  0.00000000E+00
  1.80856039E-02  0.00000000E+00  0.00000000E+00  6.41064293E-02  0.00000000E+00
  0.00000000E+00  1.44661186E-01  0.00000000E+00  0.00000000E+00 -4.32808065E-03
  0.00000000E+00  0.00000000E+00 -5.24167483E+00  0.00000000E+00  0.00000000E+00
  2.01862509E-01  2.69586671E-03  0.00000000E+00  0.00000000E+00 -5.09719934E-03
  0.00000000E+00 -4.34511217E-02  0.00000000E+00  0.00000000E+00  5.25309012E-02
  0.00000000E+00  1.80314683E-01  0.00000000E+00  0.00000000E+00 -4.20771742E-01
  0.00000000E+00  8.65795907E-04  0.00000000E+00  0.00000000E+00  3.15840431E-03
  0.00000000E+00  0.00000000E+00  0.00000000E+00 -2.10132012E-02  8.44947755E-02
 -4.71308007E+00 -2.69403705E+00  0.00000000E+00  2.89559665E-02  8.73627236E-03
  0.00000000E+00 -3.10051396E-01 -1.35168021E-01  0.00000000E+00 -1.72960040E+00
 -9.20822568E-01 -2.13062720E-02 -1.34953411E-02 -3.07354463E+00 -9.62966716E-01
  0.00000000E+00 -4.01703613E-02 -3.25411052E-02  0.00000000E+00  2.88798104E-01
  7.14902449E-02  0.00000000E+00 -4.53245926E-01 -2.01008690E+00  0.00000000E+00
  0.00000000E+00  0.00000000E+00  0.00000000E+00  0.00000000E+00  0.00000000E+00
  0.00000000E+00 -1.72210426E-03  0.00000000E+00  0.00000000E+00 -3.19204178E-03
  0.00000000E+00  0.00000000E+00 -2.23364191E-02  0.00000000E+00  0.00000000E+00
  1.39727332E-01  0.00000000E+00  0.00000000E+00  4.89293122E+00  0.00000000E+00
  0.00000000E+00 -4.11584676E-03  0.00000000E+00  0.00000000E+00  0.00000000E+00
 -4.71215126E-03  0.00000000E+00  0.00000000E+00  0.00000000E+00  0.00000000E+00
  5.62439147E-02  0.00000000E+00  0.00000000E+00  0.00000000E+00  0.00000000E+00
 -4.71186973E-01  0.00000000E+00  0.00000000E+00  0.00000000E+00  0.00000000E+00
  1.19062564E-02  0.00000000E+00  0.00000000E+00  0.00000000E+00 -1.71755557E-04
  2.13062720E-02  1.34953411E-02  3.07354463E+00  9.62966716E-01  0.00000000E+00
 -4.01703613E-02  3.25411052E-02  0.00000000E+00  2.88798104E-01 -7.14902449E-02
  0.00000000E+00 -4.53245926E-01  2.01008690E+00  0.00000000E+00  0.00000000E+00
  0.00000000E+00  0.00000000E+00  7.72795242E-03  0.00000000E+00  0.00000000E+00
 -2.88164447E-02  0.00000000E+00  0.00000000E+00 -3.73698755E-01  0.00000000E+00
  0.00000000E+00  0.00000000E+00  0.00000000E+00  0.00000000E+00  0.00000000E+00
  0.00000000E+00  0.00000000E+00 -2.41880661E-02  0.00000000E+00  0.00000000E+00
 -1.33998722E-01  0.00000000E+00  0.00000000E+00 -8.67673570E-02  0.00000000E+00
  0.00000000E+00 -8.75408166E-01  0.00000000E+00  0.00000000E+00  2.23230463E+00
  0.00000000E+00  0.00000000E+00 -6.80114609E-01  0.00000000E+00  0.00000000E+00
  0.00000000E+00  1.76030090E-03  0.00000000E+00  0.00000000E+00  0.00000000E+00
  0.00000000E+00  2.27801218E-02  0.00000000E+00  0.00000000E+00  0.00000000E+00
  0.00000000E+00 -1.88123342E-02  0.00000000E+00  0.00000000E+00  0.00000000E+00
  0.00000000E+00 -1.52032531E-03  0.00000000E+00  0.00000000E+00  0.00000000E+00
  1.33641815E-03  0.00000000E+00  0.00000000E+00  0.00000000E+00  0.00000000E+00
  0.00000000E+00  7.72795242E-03  0.00000000E+00  0.00000000E+00 -2.88164447E-02
  0.00000000E+00  0.00000000E+00 -3.73698755E-01  0.00000000E+00  0.00000000E+00
 -3.64868393E-02  1.50562717E-01 -1.57441044E+00 -3.29903740E+00  0.00000000E+00
  4.34827167E-02 -2.89574692E-02  0.00000000E+00 -2.87372416E-01  1.70298040E-01
  0.00000000E+00  1.75727632E+00 -1.48124339E+00 -5.95753469E-02  9.33778238E-02
  2.85461256E-02  8.16992418E-01  4.65208993E+00  4.54800606E+00  0.00000000E+00
  0.00000000E+00 -1.16740397E-02  0.00000000E+00  0.00000000E+00 -5.73992161E-02
  0.00000000E+00  0.00000000E+00 -5.44599066E-02  0.00000000E+00  0.00000000E+00
 -3.04817210E-01  0.00000000E+00  0.00000000E+00 -9.73272606E-01  0.00000000E+00
  0.00000000E+00 -6.87713091E-01  2.10410450E-03  0.00000000E+00  0.00000000E+00
 -3.02006547E-03  0.00000000E+00  6.51393914E-03  0.00000000E+00  0.00000000E+00
  2.56663642E-02  0.00000000E+00 -8.86050968E-03  0.00000000E+00  0.00000000E+00
 -1.99792836E-02  0.00000000E+00 -4.75503055E-04  0.00000000E+00  0.00000000E+00
 -1.51658759E-03  0.00000000E+00  0.00000000E+00  0.00000000E+00 -3.64868393E-02
  1.50562717E-01 -1.57441044E+00 -3.29903740E+00  0.00000000E+00 -4.34827167E-02
 -2.89574692E-02  0.00000000E+00  2.87372416E-01  1.70298040E-01  0.00000000E+00
 -1.75727632E+00 -1.48124339E+00  6.21500791E-02 -9.24647899E-02  2.06138923E+00
  4.27181313E+00  0.00000000E+00 -4.49531527E-02  3.61515243E-02  0.00000000E+00
  2.81855666E-01 -2.55802113E-01  0.00000000E+00 -2.55300973E+00  1.63077290E+00
  0.00000000E+00  0.00000000E+00  0.00000000E+00  0.00000000E+00  0.00000000E+00
  0.00000000E+00  0.00000000E+00 -2.27324592E-02  0.00000000E+00  0.00000000E+00
 -1.06566666E-01  0.00000000E+00  0.00000000E+00 -1.18745673E-01  0.00000000E+00
  0.00000000E+00 -5.41814752E-01  0.00000000E+00  0.00000000E+00 -1.82061708E+00
  0.00000000E+00  0.00000000E+00 -1.03762349E+00  0.00000000E+00  0.00000000E+00
  0.00000000E+00 -1.01655056E-02  0.00000000E+00  0.00000000E+00  0.00000000E+00
  0.00000000E+00 -2.33038288E-02  0.00000000E+00  0.00000000E+00  0.00000000E+00
  0.00000000E+00 -2.83916107E-01  0.00000000E+00  0.00000000E+00  0.00000000E+00
  0.00000000E+00  7.48065326E-03  0.00000000E+00  0.00000000E+00  0.00000000E+00
 -1.73413521E-03 -6.21500791E-02  9.24647899E-02 -2.06138923E+00 -4.27181313E+00
  0.00000000E+00 -4.49531527E-02 -3.61515243E-02  0.00000000E+00  2.81855666E-01
  2.55802113E-01  0.00000000E+00 -2.55300973E+00 -1.63077290E+00 -3.08337771E-02
 -9.01478050E-02 -2.73669492E+00 -1.28412588E+00  0.00000000E+00  1.20739376E-03
  6.45718666E-03  0.00000000E+00  6.55512873E-02 -1.04822442E-01  0.00000000E+00
  1.40361794E+00 -1.01761544E+00  4.28035474E-02 -3.71316146E-02  2.23983270E-01
 -1.90817724E+00  9.27330477E+00  2.42476312E-01  0.00000000E+00  0.00000000E+00
 -1.46982429E-02  0.00000000E+00  0.00000000E+00 -9.15190908E-02  0.00000000E+00
  0.00000000E+00 -2.52074462E-02  0.00000000E+00  0.00000000E+00 -7.98676594E-01
  0.00000000E+00  0.00000000E+00 -1.38197911E+00  0.00000000E+00  0.00000000E+00
 -1.27993382E-01 -6.21018616E-03  0.00000000E+00  0.00000000E+00  2.18484417E-02
  0.00000000E+00  2.11550689E-02  0.00000000E+00  0.00000000E+00 -1.18613870E-02
  0.00000000E+00 -1.07571801E-01  0.00000000E+00  0.00000000E+00  1.89689661E-01
  0.00000000E+00  3.75011157E-03  0.00000000E+00  0.00000000E+00  2.87224917E-03
  0.00000000E+00  0.00000000E+00  0.00000000E+00 -3.08337771E-02 -9.01478050E-02
 -2.73669492E+00 -1.28412588E+00  0.00000000E+00 -1.20739376E-03  6.45718666E-03
  0.00000000E+00 -6.55512873E-02 -1.04822442E-01  0.00000000E+00 -1.40361794E+00
 -1.01761544E+00  0.00000000E+00  0.00000000E+00  0.00000000E+00  0.00000000E+00
 -2.46571364E-02  0.00000000E+00  0.00000000E+00  2.06964001E-01  0.00000000E+00
  0.00000000E+00 -8.39916522E-01  0.00000000E+00  0.00000000E+00  0.00000000E+00
  0.00000000E+00  0.00000000E+00  0.00000000E+00  0.00000000E+00  0.00000000E+00
  0.00000000E+00  0.00000000E+00  0.00000000E+00  0.00000000E+00  0.00000000E+00
  0.00000000E+00  0.00000000E+00  0.00000000E+00  0.00000000E+00  0.00000000E+00
  0.00000000E+00  0.00000000E+00  0.00000000E+00  0.00000000E+00  0.00000000E+00
  0.00000000E+00  0.00000000E+00  0.00000000E+00  0.00000000E+00  0.00000000E+00
  0.00000000E+00  0.00000000E+00  5.56206434E-02  0.00000000E+00  0.00000000E+00
  0.00000000E+00  0.00000000E+00 -1.08823546E-01  0.00000000E+00  0.00000000E+00
  0.00000000E+00  0.00000000E+00  1.25597987E+00  0.00000000E+00  0.00000000E+00
  0.00000000E+00  0.00000000E+00 -4.95790692E-03  0.00000000E+00  0.00000000E+00
  0.00000000E+00  0.00000000E+00  0.00000000E+00  0.00000000E+00  2.46571364E-02
  0.00000000E+00  0.00000000E+00 -2.06964001E-01  0.00000000E+00  0.00000000E+00
  8.39916522E-01  0.00000000E+00  0.00000000E+00 -9.79186532E-03 -1.27204582E-01
  9.55418991E-01 -8.34182987E-01  0.00000000E+00  4.18209737E-02  3.23052270E-02
  0.00000000E+00 -4.09077384E-01 -2.43722060E-01  0.00000000E+00  3.81988139E-01
  8.10665855E-01 -9.40216629E-04  6.22104126E-03  4.47734663E-02 -1.36634437E-01
 -1.30487640E+00  1.32299236E+00  0.00000000E+00  0.00000000E+00  8.27513609E-03
  0.00000000E+00  0.00000000E+00  3.75718208E-02  0.00000000E+00  0.00000000E+00
  4.66067601E-02  0.00000000E+00  0.00000000E+00  3.97669275E-01  0.00000000E+00
  0.00000000E+00 -5.96414782E-01  0.00000000E+00  0.00000000E+00 -4.47278198E-01
  4.60295076E-02  0.00000000E+00  0.00000000E+00  1.49423012E-02  0.00000000E+00
 -8.08000820E-02  0.00000000E+00  0.00000000E+00 -1.23001472E-02  0.00000000E+00
  9.55835940E-01  0.00000000E+00  0.00000000E+00  4.00564918E-01  0.00000000E+00
 -6.35565067E-03  0.00000000E+00  0.00000000E+00 -5.97185377E-03  0.00000000E+00
  0.00000000E+00  0.00000000E+00 -9.79186532E-03 -1.27204582E-01  9.55418991E-01
 -8.34182987E-01  0.00000000E+00 -4.18209737E-02  3.23052270E-02  0.00000000E+00
  4.09077384E-01 -2.43722060E-01  0.00000000E+00 -3.81988139E-01  8.10665855E-01
  0.00000000E+00  0.00000000E+00  0.00000000E+00  0.00000000E+00 -1.48317426E-02
  0.00000000E+00  0.00000000E+00  1.11054684E-01  0.00000000E+00  0.00000000E+00
 -9.47367381E-01  0.00000000E+00  0.00000000E+00  0.00000000E+00  0.00000000E+00
  0.00000000E+00  0.00000000E+00  0.00000000E+00  0.00000000E+00 -6.23553965E-03
  0.00000000E+00  0.00000000E+00 -2.07459205E-02  0.00000000E+00  0.00000000E+00
 -5.47519855E-02  0.00000000E+00  0.00000000E+00 -1.01016599E-01  0.00000000E+00
  0.00000000E+00  1.31563931E+00  0.00000000E+00  0.00000000E+00  1.04805754E-01
  0.00000000E+00  0.00000000E+00  0.00000000E+00 -5.69068633E-02  0.00000000E+00
  0.00000000E+00  0.00000000E+00  0.00000000E+00  1.20733975E-01  0.00000000E+00
  0.00000000E+00  0.00000000E+00  0.00000000E+00 -1.30568967E+00  0.00000000E+00
  0.00000000E+00  0.00000000E+00  0.00000000E+00  9.14533516E-03  0.00000000E+00
  0.00000000E+00  0.00000000E+00  2.44272945E-03  0.00000000E+00  0.00000000E+00
  0.00000000E+00  0.00000000E+00  0.00000000E+00 -1.48317426E-02  0.00000000E+00
  0.00000000E+00  1.11054684E-01  0.00000000E+00  0.00000000E+00 -9.47367381E-01
  0.00000000E+00  0.00000000E+00 -2.54439062E-02 -3.46914922E-01  6.93848173E+00
  5.98773749E-01  0.00000000E+00  1.08811116E-02 -5.66253990E-02  0.00000000E+00
 -4.05759108E-01  7.95269285E-01  0.00000000E+00 -1.81266888E+00  1.03829790E+00
  0.00000000E+00  0.00000000E+00  0.00000000E+00  0.00000000E+00  0.00000000E+00
  0.00000000E+00  0.00000000E+00 -9.57576131E-03  0.00000000E+00  0.00000000E+00
 -8.48989511E-02  0.00000000E+00  0.00000000E+00  6.15072024E-02  0.00000000E+00
  0.00000000E+00 -1.69234192E+00  0.00000000E+00  0.00000000E+00 -4.87609646E+00
  0.00000000E+00  0.00000000E+00  5.36837990E-01  0.00000000E+00  0.00000000E+00
  0.00000000E+00  3.68537682E-02  0.00000000E+00  0.00000000E+00  0.00000000E+00
  0.00000000E+00 -2.20787848E-02  0.00000000E+00  0.00000000E+00  0.00000000E+00
  0.00000000E+00  2.00748911E+00  0.00000000E+00  0.00000000E+00  0.00000000E+00
  0.00000000E+00 -1.89937431E-02  0.00000000E+00  0.00000000E+00  0.00000000E+00
  2.04303798E-02  2.54439062E-02  3.46914922E-01 -6.93848173E+00 -5.98773749E-01
  0.00000000E+00  1.08811116E-02  5.66253990E-02  0.00000000E+00 -4.05759108E-01
 -7.95269285E-01  0.00000000E+00 -1.81266888E+00 -1.03829790E+00  1.47955760E-02
  1.98195455E-01 -8.65556696E+00 -1.78252089E+00  0.00000000E+00 -5.26945586E-02
  1.79381911E-02  0.00000000E+00  7.33834452E-01 -3.37677704E-01  0.00000000E+00
  2.22938355E+00 -1.40857190E+00  2.88731637E-02 -4.09997955E-02  4.51648360E-02
 -1.60484916E+00  1.76075242E+01  1.91109454E+00  0.00000000E+00  0.00000000E+00
 -1.28782764E-02  0.00000000E+00  0.00000000E+00 -8.24909498E-02  0.00000000E+00
  0.00000000E+00 -7.04154709E-03  0.00000000E+00  0.00000000E+00 -1.30586001E+00
  0.00000000E+00  0.00000000E+00 -5.83668446E+00  0.00000000E+00  0.00000000E+00
  1.84887084E-01  2.61887841E-02  0.00000000E+00  0.00000000E+00 -4.27499520E-02
  0.00000000E+00 -4.38246840E-02  0.00000000E+00  0.00000000E+00  7.41425661E-02
  0.00000000E+00  8.28391475E-01  0.00000000E+00  0.00000000E+00 -1.83512698E+00
  0.00000000E+00  4.18864597E-03  0.00000000E+00  0.00000000E+00  2.71022770E-02
  0.00000000E+00  0.00000000E+00  0.00000000E+00  1.47955760E-02  1.98195455E-01
 -8.65556696E+00 -1.78252089E+00  0.00000000E+00  5.26945586E-02  1.79381911E-02
  0.00000000E+00 -7.33834452E-01 -3.37677704E-01  0.00000000E+00 -2.22938355E+00
 -1.40857190E+00 -3.41944084E-02 -1.24003813E+00  2.49274652E+00 -3.08694414E+00
  0.00000000E+00  5.43938151E-02 -3.16789968E-02  0.00000000E+00 -6.76725314E-01
  2.92551063E-01  0.00000000E+00  2.85494633E-01 -3.27752159E-01 -1.29957381E-02
  4.56908367E-02  2.30292344E-01 -9.68376120E-01 -3.14505579E-01  3.90384779E+00
  0.00000000E+00  0.00000000E+00 -1.21529457E-02  0.00000000E+00  0.00000000E+00
 -2.37924224E-02  0.00000000E+00  0.00000000E+00 -1.42343714E-01  0.00000000E+00
  0.00000000E+00  5.46475730E-01  0.00000000E+00  0.00000000E+00  1.00802093E-01
  0.00000000E+00  0.00000000E+00 -8.50812841E-01 -5.78760426E-03  0.00000000E+00
  0.00000000E+00 -2.23828205E-02  0.00000000E+00  9.57255202E-03  0.00000000E+00
  0.00000000E+00  1.21639274E-01  0.00000000E+00 -2.87176535E-01  0.00000000E+00
  0.00000000E+00 -6.08432816E-01  0.00000000E+00  6.23721398E-03  0.00000000E+00
  0.00000000E+00  1.21394137E-02  0.00000000E+00  0.00000000E+00  0.00000000E+00
 -3.41944084E-02 -1.24003813E+00  2.49274652E+00 -3.08694414E+00  0.00000000E+00
 -5.43938151E-02 -3.16789968E-02  0.00000000E+00  6.76725314E-01  2.92551063E-01
  0.00000000E+00 -2.85494633E-01 -3.27752159E-01  0.00000000E+00  0.00000000E+00
  0.00000000E+00  0.00000000E+00 -1.42721706E-01  0.00000000E+00  0.00000000E+00
  1.35696391E+00  0.00000000E+00  0.00000000E+00 -5.32860608E-01  0.00000000E+00
  0.00000000E+00  0.00000000E+00  0.00000000E+00  0.00000000E+00  0.00000000E+00
  0.00000000E+00  0.00000000E+00  0.00000000E+00  0.00000000E+00  0.00000000E+00
  0.00000000E+00  0.00000000E+00  0.00000000E+00  0.00000000E+00  0.00000000E+00
  0.00000000E+00  0.00000000E+00  0.00000000E+00  0.00000000E+00  0.00000000E+00
  0.00000000E+00  0.00000000E+00  0.00000000E+00  0.00000000E+00  0.00000000E+00
  0.00000000E+00  0.00000000E+00  0.00000000E+00  0.00000000E+00 -1.84146431E-02
  0.00000000E+00  0.00000000E+00  0.00000000E+00  0.00000000E+00  1.01752062E-01
  0.00000000E+00  0.00000000E+00  0.00000000E+00  0.00000000E+00 -9.63165921E-01
  0.00000000E+00  0.00000000E+00  0.00000000E+00  0.00000000E+00  1.51645948E-02
  0.00000000E+00  0.00000000E+00  0.00000000E+00  0.00000000E+00  0.00000000E+00
  0.00000000E+00  1.42721706E-01  0.00000000E+00  0.00000000E+00 -1.35696391E+00
  0.00000000E+00  0.00000000E+00  5.32860608E-01  0.00000000E+00  0.00000000E+00
  0.00000000E+00  0.00000000E+00  0.00000000E+00  0.00000000E+00 -1.51947994E-01
  0.00000000E+00  0.00000000E+00  1.38771967E+00  0.00000000E+00  0.00000000E+00
 -6.30993410E-01  0.00000000E+00  0.00000000E+00  0.00000000E+00  0.00000000E+00
  0.00000000E+00  0.00000000E+00  0.00000000E+00  0.00000000E+00 -1.57828648E-02
  0.00000000E+00  0.00000000E+00 -5.25606591E-02  0.00000000E+00  0.00000000E+00
 -1.36876521E-01  0.00000000E+00  0.00000000E+00 -2.83332860E-01  0.00000000E+00
  0.00000000E+00 -1.21380959E-01  0.00000000E+00  0.00000000E+00  2.65689256E-01
  0.00000000E+00  0.00000000E+00  0.00000000E+00  1.26221105E-02  0.00000000E+00
  0.00000000E+00  0.00000000E+00  0.00000000E+00 -7.53377124E-02  0.00000000E+00
  0.00000000E+00  0.00000000E+00  0.00000000E+00  6.71887683E-01  0.00000000E+00
  0.00000000E+00  0.00000000E+00  0.00000000E+00 -5.32524538E-03  0.00000000E+00
  0.00000000E+00  0.00000000E+00  9.99231928E-03  0.00000000E+00  0.00000000E+00
  0.00000000E+00  0.00000000E+00  0.00000000E+00 -1.51947994E-01  0.00000000E+00
  0.00000000E+00  1.38771967E+00  0.00000000E+00  0.00000000E+00 -6.30993410E-01
  0.00000000E+00  0.00000000E+00  1.74994616E-03 -1.38776431E+00 -6.71816692E-02
 -1.91090896E+00  0.00000000E+00  4.53715527E-02 -5.47835512E-02  0.00000000E+00
 -1.11978982E-01  4.85584379E-01  0.00000000E+00  2.09917640E-01 -6.47051536E-01
  0.00000000E+00  0.00000000E+00  0.00000000E+00  0.00000000E+00  0.00000000E+00
  0.00000000E+00  0.00000000E+00  1.87074604E-02  0.00000000E+00  0.00000000E+00
  5.90889323E-02  0.00000000E+00  0.00000000E+00  1.49196666E-01  0.00000000E+00
  0.00000000E+00 -8.95566349E-02  0.00000000E+00  0.00000000E+00  2.05345307E+00
  0.00000000E+00  0.00000000E+00  4.77405576E-01  0.00000000E+00  0.00000000E+00
  0.00000000E+00 -3.37790506E-02  0.00000000E+00  0.00000000E+00  0.00000000E+00
  0.00000000E+00  1.47339333E-01  0.00000000E+00  0.00000000E+00  0.00000000E+00
  0.00000000E+00 -1.67127786E+00  0.00000000E+00  0.00000000E+00  0.00000000E+00
  0.00000000E+00  2.85584965E-02  0.00000000E+00  0.00000000E+00  0.00000000E+00
 -1.17054410E-02 -1.74994616E-03  1.38776431E+00  6.71816692E-02  1.91090896E+00
  0.00000000E+00  4.53715527E-02  5.47835512E-02  0.00000000E+00 -1.11978982E-01
 -4.85584379E-01  0.00000000E+00  2.09917640E-01  6.47051536E-01 -1.15169101E-02
 -5.67629170E-01  3.40089915E+00  4.32271716E-01  0.00000000E+00  9.48116106E-02
  9.64622795E-02  0.00000000E+00 -1.00619566E+00 -8.35371861E-01  0.00000000E+00
  1.04126763E-02  1.60508098E+00  0.00000000E+00  0.00000000E+00  0.00000000E+00
  0.00000000E+00  0.00000000E+00  0.00000000E+00  0.00000000E+00  1.35180534E-02
  0.00000000E+00  0.00000000E+00  2.74585418E-02  0.00000000E+00  0.00000000E+00
  1.63590889E-01  0.00000000E+00  0.00000000E+00 -3.41974384E-01  0.00000000E+00
  0.00000000E+00 -2.92407447E+00  0.00000000E+00  0.00000000E+00 -6.55869538E-02
  0.00000000E+00  0.00000000E+00  0.00000000E+00  9.19923206E-03  0.00000000E+00
  0.00000000E+00  0.00000000E+00  0.00000000E+00  1.36841775E-02  0.00000000E+00
  0.00000000E+00  0.00000000E+00  0.00000000E+00  6.69139920E-01  0.00000000E+00
  0.00000000E+00  0.00000000E+00  0.00000000E+00 -1.44301759E-02  0.00000000E+00
  0.00000000E+00  0.00000000E+00 -2.35372430E-03  1.15169101E-02  5.67629170E-01
 -3.40089915E+00 -4.32271716E-01  0.00000000E+00  9.48116106E-02 -9.64622795E-02
  0.00000000E+00 -1.00619566E+00  8.35371861E-01  0.00000000E+00  1.04126763E-02
 -1.60508098E+00  7.56998551E-03  2.59010347E-01 -1.99350595E+00 -3.57019430E-01
  0.00000000E+00  1.03510214E-01  1.30014166E-01  0.00000000E+00 -8.81920641E-01
 -1.36383826E+00  0.00000000E+00  7.92775130E-01 -2.59839860E-01  7.80493536E-03
 -1.92488227E-02 -4.61528172E-02 -1.81634310E-01  3.95568561E+00  2.92685133E-01
  0.00000000E+00  0.00000000E+00  1.20514808E-02  0.00000000E+00  0.00000000E+00
  3.15262765E-02  0.00000000E+00  0.00000000E+00  1.29863196E-01  0.00000000E+00
  0.00000000E+00 -4.81192649E-02  0.00000000E+00  0.00000000E+00 -4.40231985E-01
  0.00000000E+00  0.00000000E+00 -1.21656472E-01 -2.92168345E-02  0.00000000E+00
  0.00000000E+00 -1.64714222E-02  0.00000000E+00  1.06780605E-01  0.00000000E+00
  0.00000000E+00  4.49034712E-02  0.00000000E+00 -1.49696506E+00  0.00000000E+00
  0.00000000E+00 -1.04893127E+00  0.00000000E+00  7.73672916E-03  0.00000000E+00
  0.00000000E+00  1.18723239E-02  0.00000000E+00  0.00000000E+00  0.00000000E+00
  7.56998551E-03  2.59010347E-01 -1.99350595E+00 -3.57019430E-01  0.00000000E+00
 -1.03510214E-01  1.30014166E-01  0.00000000E+00  8.81920641E-01 -1.36383826E+00
  0.00000000E+00 -7.92775130E-01 -2.59839860E-01 -1.12719874E-03 -9.41798393E-01
 -2.05570633E+00  2.38083669E+00  0.00000000E+00 -1.23033004E-01  9.36191568E-02
  0.00000000E+00  1.93450985E+00 -1.32928712E+00  0.00000000E+00 -1.19914579E+00
  6.06506386E-01  0.00000000E+00  0.00000000E+00  0.00000000E+00  0.00000000E+00
  0.00000000E+00  0.00000000E+00  0.00000000E+00  3.04453839E-02  0.00000000E+00
  0.00000000E+00  1.21492231E-01  0.00000000E+00  0.00000000E+00  2.18049170E-01
  0.00000000E+00  0.00000000E+00  2.18930910E+00  0.00000000E+00  0.00000000E+00
  7.24712568E-01  0.00000000E+00  0.00000000E+00 -7.13876271E-01  0.00000000E+00
  0.00000000E+00  0.00000000E+00  1.75069831E-02  0.00000000E+00  0.00000000E+00
  0.00000000E+00  0.00000000E+00  9.39197149E-03  0.00000000E+00  0.00000000E+00
  0.00000000E+00  0.00000000E+00 -1.45149424E+00  0.00000000E+00  0.00000000E+00
  0.00000000E+00  0.00000000E+00  1.72091615E-02  0.00000000E+00  0.00000000E+00
  0.00000000E+00 -2.29800927E-02  1.12719874E-03  9.41798393E-01  2.05570633E+00
 -2.38083669E+00  0.00000000E+00 -1.23033004E-01 -9.36191568E-02  0.00000000E+00
  1.93450985E+00  1.32928712E+00  0.00000000E+00 -1.19914579E+00 -6.06506386E-01
  3.52533253E-03  7.82684521E-01  2.18455706E+00 -2.03749746E+00  0.00000000E+00
  1.44427664E-01 -1.16343052E-01  0.00000000E+00 -1.70486135E+00  1.45540127E+00
  0.00000000E+00  8.03581503E-01 -7.26155853E-01  5.82607550E-02 -1.00799294E-01
  1.03869241E-01 -2.25562893E+00 -1.25263934E+00  2.52476414E+00  0.00000000E+00
  0.00000000E+00  2.98941695E-02  0.00000000E+00  0.00000000E+00  9.08116994E-02
  0.00000000E+00  0.00000000E+00  3.01638546E-01  0.00000000E+00  0.00000000E+00
  1.36589573E+00  0.00000000E+00  0.00000000E+00  7.13721959E-01  0.00000000E+00
  0.00000000E+00 -5.29658531E-01  1.74363244E-05  0.00000000E+00  0.00000000E+00
 -5.99007653E-03  0.00000000E+00 -2.83327424E-02  0.00000000E+00  0.00000000E+00
 -1.54479764E-02  0.00000000E+00 -4.64805827E-02  0.00000000E+00  0.00000000E+00
  9.17095972E-01  0.00000000E+00 -9.72511454E-03  0.00000000E+00  0.00000000E+00
 -2.35097564E-02  0.00000000E+00  0.00000000E+00  0.00000000E+00  3.52533253E-03
  7.82684521E-01  2.18455706E+00 -2.03749746E+00  0.00000000E+00 -1.44427664E-01
 -1.16343052E-01  0.00000000E+00  1.70486135E+00  1.45540127E+00  0.00000000E+00
 -8.03581503E-01 -7.26155853E-01  0.00000000E+00  0.00000000E+00  0.00000000E+00
  0.00000000E+00  1.46440381E-02  0.00000000E+00  0.00000000E+00 -3.63772125E-01
  0.00000000E+00  0.00000000E+00  2.74268590E-01  0.00000000E+00  0.00000000E+00
  0.00000000E+00  0.00000000E+00  0.00000000E+00  0.00000000E+00  0.00000000E+00
  0.00000000E+00 -8.20920767E-02  0.00000000E+00  0.00000000E+00 -9.33977794E-02
  0.00000000E+00  0.00000000E+00 -1.31418739E+00  0.00000000E+00  0.00000000E+00
  2.16764935E+00  0.00000000E+00  0.00000000E+00 -1.27542211E+00  0.00000000E+00
  0.00000000E+00  2.66559730E-01  0.00000000E+00  0.00000000E+00  0.00000000E+00
  2.93769144E-03  0.00000000E+00  0.00000000E+00  0.00000000E+00  0.00000000E+00
  7.20201652E-02  0.00000000E+00  0.00000000E+00  0.00000000E+00  0.00000000E+00
 -1.23071869E-01  0.00000000E+00  0.00000000E+00  0.00000000E+00  0.00000000E+00
 -5.00963111E-03  0.00000000E+00  0.00000000E+00  0.00000000E+00  1.03986838E-02
  0.00000000E+00  0.00000000E+00  0.00000000E+00  0.00000000E+00  0.00000000E+00
  1.46440381E-02  0.00000000E+00  0.00000000E+00 -3.63772125E-01  0.00000000E+00
  0.00000000E+00  2.74268590E-01  0.00000000E+00  0.00000000E+00  1.30746504E-02
 -7.70786357E-01 -5.05056054E+00  1.10049856E-01  0.00000000E+00  8.41693777E-04
 -7.66784984E-02  0.00000000E+00  1.34260922E+00 -4.41169991E-01  0.00000000E+00
  8.23709298E-01 -7.96688754E-01 -3.97411138E-02  9.64840596E-02  1.88997277E-01
  1.06442756E-01  1.01051091E+01 -7.44814770E-01  0.00000000E+00  0.00000000E+00
  7.64732775E-02  0.00000000E+00  0.00000000E+00  5.24507491E-02  0.00000000E+00
  0.00000000E+00  1.43844188E+00  0.00000000E+00  0.00000000E+00 -4.08275141E+00
  0.00000000E+00  0.00000000E+00 -1.75596155E+00  0.00000000E+00  0.00000000E+00
  1.99100600E-01 -9.33839612E-03  0.00000000E+00  0.00000000E+00  1.10154171E-02
  0.00000000E+00  9.10833988E-02  0.00000000E+00  0.00000000E+00 -3.65426818E-02
  0.00000000E+00  4.37338273E-01  0.00000000E+00  0.00000000E+00 -1.12995337E+00
  0.00000000E+00  2.05705902E-02  0.00000000E+00  0.00000000E+00  5.60550231E-03
  0.00000000E+00  0.00000000E+00  0.00000000E+00  1.30746504E-02 -7.70786357E-01
 -5.05056054E+00  1.10049856E-01  0.00000000E+00 -8.41693777E-04 -7.66784984E-02
  0.00000000E+00 -1.34260922E+00 -4.41169991E-01  0.00000000E+00 -8.23709298E-01
 -7.96688754E-01 -2.72605570E-02  1.27198351E+00  5.05188245E+00  7.16362035E-01
  0.00000000E+00 -1.97368049E-01  7.73460946E-02  0.00000000E+00 -8.05162143E-01
  9.69155165E-01  0.00000000E+00 -1.27806595E+00  7.27260247E-01  0.00000000E+00
  0.00000000E+00  0.00000000E+00  0.00000000E+00  0.00000000E+00  0.00000000E+00
  0.00000000E+00  7.35552899E-02  0.00000000E+00  0.00000000E+00  2.11937134E-02
  0.00000000E+00  0.00000000E+00  1.55285499E+00  0.00000000E+00  0.00000000E+00
 -4.97284491E+00  0.00000000E+00  0.00000000E+00 -2.76436681E+00  0.00000000E+00
  0.00000000E+00  6.79859705E-02  0.00000000E+00  0.00000000E+00  0.00000000E+00
 -2.81389653E-02  0.00000000E+00  0.00000000E+00  0.00000000E+00  0.00000000E+00
 -2.22954727E-01  0.00000000E+00  0.00000000E+00  0.00000000E+00  0.00000000E+00
  2.53680788E+00  0.00000000E+00  0.00000000E+00  0.00000000E+00  0.00000000E+00
 -4.27083815E-03  0.00000000E+00  0.00000000E+00  0.00000000E+00 -1.74847224E-02
  2.72605570E-02 -1.27198351E+00 -5.05188245E+00 -7.16362035E-01  0.00000000E+00
 -1.97368049E-01 -7.73460946E-02  0.00000000E+00 -8.05162143E-01 -9.69155165E-01
  0.00000000E+00 -1.27806595E+00 -7.27260247E-01 -1.41316134E-02  2.71646721E-02
 -1.68505454E+00 -6.67296213E-01  0.00000000E+00  7.62409764E-02 -2.48867977E-01
  0.00000000E+00  5.53544471E-02  1.85864341E-01  0.00000000E+00  3.86412780E-01
 -5.82962404E-01  5.55753142E-02 -2.58382376E-01 -1.39519066E+00  1.50352129E+00
  2.58064907E+00  1.13478015E+00  0.00000000E+00  0.00000000E+00  6.15164080E-04
  0.00000000E+00  0.00000000E+00 -5.78088517E-03  0.00000000E+00  0.00000000E+00
  8.12492734E-02  0.00000000E+00  0.00000000E+00 -4.04013905E-01  0.00000000E+00
  0.00000000E+00 -9.13835634E-01  0.00000000E+00  0.00000000E+00 -2.27882016E-02
 -1.24170707E-02  0.00000000E+00  0.00000000E+00 -2.54922224E-02  0.00000000E+00
  2.88221325E-01  0.00000000E+00  0.00000000E+00  1.09256541E+00  0.00000000E+00
 -2.22428047E-01  0.00000000E+00  0.00000000E+00 -1.03989358E+00  0.00000000E+00
 -1.50985555E-02  0.00000000E+00  0.00000000E+00 -3.59029874E-03  0.00000000E+00
  0.00000000E+00  0.00000000E+00 -1.41316134E-02  2.71646721E-02 -1.68505454E+00
 -6.67296213E-01  0.00000000E+00 -7.62409764E-02 -2.48867977E-01  0.00000000E+00
 -5.53544471E-02  1.85864341E-01  0.00000000E+00 -3.86412780E-01 -5.82962404E-01
  0.00000000E+00  0.00000000E+00  0.00000000E+00  0.00000000E+00  1.90377042E-01
  0.00000000E+00  0.00000000E+00 -3.21489923E-01  0.00000000E+00  0.00000000E+00
  4.68499498E-01  0.00000000E+00  0.00000000E+00  0.00000000E+00  0.00000000E+00
  0.00000000E+00  0.00000000E+00  0.00000000E+00  0.00000000E+00  0.00000000E+00
  0.00000000E+00  0.00000000E+00  0.00000000E+00  0.00000000E+00  0.00000000E+00
  0.00000000E+00  0.00000000E+00  0.00000000E+00  0.00000000E+00  0.00000000E+00
  0.00000000E+00  0.00000000E+00  0.00000000E+00  0.00000000E+00  0.00000000E+00
  0.00000000E+00  0.00000000E+00  0.00000000E+00  0.00000000E+00  0.00000000E+00
  0.00000000E+00 -4.78144134E-02  0.00000000E+00  0.00000000E+00  0.00000000E+00
  0.00000000E+00  1.35155456E+00  0.00000000E+00  0.00000000E+00  0.00000000E+00
  0.00000000E+00 -9.41957111E-01  0.00000000E+00  0.00000000E+00  0.00000000E+00
  0.00000000E+00 -5.33263177E-02  0.00000000E+00  0.00000000E+00  0.00000000E+00
  0.00000000E+00  0.00000000E+00  0.00000000E+00 -1.90377042E-01  0.00000000E+00
  0.00000000E+00  3.21489923E-01  0.00000000E+00  0.00000000E+00 -4.68499498E-01
  0.00000000E+00  0.00000000E+00  0.00000000E+00  0.00000000E+00  0.00000000E+00
  0.00000000E+00 -1.45239133E-01  0.00000000E+00  0.00000000E+00  2.93298199E-01
  0.00000000E+00  0.00000000E+00 -5.23105377E-01  0.00000000E+00  0.00000000E+00
  0.00000000E+00  0.00000000E+00  0.00000000E+00  0.00000000E+00  0.00000000E+00
  0.00000000E+00  6.34959054E-03  0.00000000E+00  0.00000000E+00  2.39313673E-02
  0.00000000E+00  0.00000000E+00  8.62613897E-02  0.00000000E+00  0.00000000E+00
 -2.49885389E-01  0.00000000E+00  0.00000000E+00  6.63037504E-01  0.00000000E+00
  0.00000000E+00  6.26571251E-02  0.00000000E+00  0.00000000E+00  0.00000000E+00
 -4.78649005E-02  0.00000000E+00  0.00000000E+00  0.00000000E+00  0.00000000E+00
  1.35599977E+00  0.00000000E+00  0.00000000E+00  0.00000000E+00  0.00000000E+00
 -9.39862742E-01  0.00000000E+00  0.00000000E+00  0.00000000E+00  0.00000000E+00
 -3.69940497E-02  0.00000000E+00  0.00000000E+00  0.00000000E+00  1.87996180E-02
  0.00000000E+00  0.00000000E+00  0.00000000E+00  0.00000000E+00  0.00000000E+00
 -1.45239133E-01  0.00000000E+00  0.00000000E+00  2.93298199E-01  0.00000000E+00
  0.00000000E+00 -5.23105377E-01  0.00000000E+00  0.00000000E+00 -7.16548927E-03
 -1.03516803E-01 -2.23693176E+00 -5.56008924E-01  0.00000000E+00  1.69597259E-01
  9.41617644E-02  0.00000000E+00  2.01331019E-01 -2.93817895E-01  0.00000000E+00
  6.87534023E-01  8.89756126E-03  1.72542265E-02 -9.09978611E-02 -5.40236815E-01
  5.81402982E-01  3.93605122E+00  8.65450275E-01  0.00000000E+00  0.00000000E+00
  5.46217830E-03  0.00000000E+00  0.00000000E+00 -1.96942728E-02  0.00000000E+00
  0.00000000E+00  1.83242753E-01  0.00000000E+00  0.00000000E+00 -7.56425898E-01
  0.00000000E+00  0.00000000E+00 -1.77026879E+00  0.00000000E+00  0.00000000E+00
 -9.14554157E-02  4.54648101E-02  0.00000000E+00  0.00000000E+00  1.70175180E-03
  0.00000000E+00 -1.32215922E+00  0.00000000E+00  0.00000000E+00  1.59500805E-01
  0.00000000E+00  1.17707567E+00  0.00000000E+00  0.00000000E+00 -4.43083233E-01
  0.00000000E+00  6.65616233E-02  0.00000000E+00  0.00000000E+00 -1.67844630E-02
  0.00000000E+00  0.00000000E+00  0.00000000E+00 -7.16548927E-03 -1.03516803E-01
 -2.23693176E+00 -5.56008924E-01  0.00000000E+00 -1.69597259E-01  9.41617644E-02
  0.00000000E+00 -2.01331019E-01 -2.93817895E-01  0.00000000E+00 -6.87534023E-01
  8.89756126E-03 -1.13566469E-02 -9.08359609E-01  4.26868333E-01  1.53246201E+00
  0.00000000E+00 -3.20418725E-01  1.64848317E-01  0.00000000E+00  1.19402764E+00
 -9.17116048E-01  0.00000000E+00 -8.13643838E-01  6.64212511E-01  0.00000000E+00
  0.00000000E+00  0.00000000E+00  0.00000000E+00  0.00000000E+00  0.00000000E+00
  0.00000000E+00 -2.56681178E-02  0.00000000E+00  0.00000000E+00 -4.16150491E-02
  0.00000000E+00  0.00000000E+00 -4.42246049E-01  0.00000000E+00  0.00000000E+00
  2.12066407E+00  0.00000000E+00  0.00000000E+00 -1.41626569E+00  0.00000000E+00
  0.00000000E+00 -2.80254977E-01  0.00000000E+00  0.00000000E+00  0.00000000E+00
  1.13642104E-02  0.00000000E+00  0.00000000E+00  0.00000000E+00  0.00000000E+00
 -1.26098209E+00  0.00000000E+00  0.00000000E+00  0.00000000E+00  0.00000000E+00
  2.71559910E-01  0.00000000E+00  0.00000000E+00  0.00000000E+00  0.00000000E+00
 -2.88830650E-02  0.00000000E+00  0.00000000E+00  0.00000000E+00  1.07914072E-01
  1.13566469E-02  9.08359609E-01 -4.26868333E-01 -1.53246201E+00  0.00000000E+00
 -3.20418725E-01 -1.64848317E-01  0.00000000E+00  1.19402764E+00  9.17116048E-01
  0.00000000E+00 -8.13643838E-01 -6.64212511E-01  6.87505546E-02  6.59118627E-01
 -1.11365233E+00 -1.86430470E+00  0.00000000E+00  8.63691710E-02 -7.71351369E-02
  0.00000000E+00 -9.15286074E-01  5.60737465E-01  0.00000000E+00  9.75931750E-01
 -6.61984162E-01 -1.11088239E-01  5.12461751E-01  3.19014923E+00 -5.64698496E+00
  5.71845204E+00  1.94744830E+00  0.00000000E+00  0.00000000E+00 -7.01943191E-03
  0.00000000E+00  0.00000000E+00 -2.62691958E-03  0.00000000E+00  0.00000000E+00
 -1.84783566E-01  0.00000000E+00  0.00000000E+00  1.13931593E+00  0.00000000E+00
  0.00000000E+00 -1.48305630E+00  0.00000000E+00  0.00000000E+00 -3.14434471E-01
  1.13017804E-03  0.00000000E+00  0.00000000E+00 -9.85225749E-03  0.00000000E+00
 -1.28646646E-01  0.00000000E+00  0.00000000E+00  7.29734965E-01  0.00000000E+00
  2.88399594E-03  0.00000000E+00  0.00000000E+00 -3.79129842E-01  0.00000000E+00
  6.32006825E-02  0.00000000E+00  0.00000000E+00  1.83847598E-01  0.00000000E+00
  0.00000000E+00  0.00000000E+00  6.87505546E-02  6.59118627E-01 -1.11365233E+00
 -1.86430470E+00  0.00000000E+00 -8.63691710E-02 -7.71351369E-02  0.00000000E+00
  9.15286074E-01  5.60737465E-01  0.00000000E+00 -9.75931750E-01 -6.61984162E-01
 -5.07914894E-03 -5.17065326E-02 -9.07669571E-01 -3.62053695E-01  0.00000000E+00
 -5.17814190E-01 -8.47470918E-01  0.00000000E+00  8.27415013E-01  9.95636098E-01
  0.00000000E+00 -2.48669709E-01 -8.12306884E-01  0.00000000E+00  0.00000000E+00
  0.00000000E+00  0.00000000E+00  0.00000000E+00  0.00000000E+00  0.00000000E+00
  1.99556172E-03  0.00000000E+00  0.00000000E+00  4.38105657E-02  0.00000000E+00
  0.00000000E+00 -6.66986878E-02  0.00000000E+00  0.00000000E+00  1.47073777E-01
  0.00000000E+00  0.00000000E+00  1.06219873E+00  0.00000000E+00  0.00000000E+00
  1.74652290E-01  0.00000000E+00  0.00000000E+00  0.00000000E+00  1.36244295E-02
  0.00000000E+00  0.00000000E+00  0.00000000E+00  0.00000000E+00  4.00053052E-02
  0.00000000E+00  0.00000000E+00  0.00000000E+00  0.00000000E+00 -3.99583073E-01
  0.00000000E+00  0.00000000E+00  0.00000000E+00  0.00000000E+00  3.95597486E-01
  0.00000000E+00  0.00000000E+00  0.00000000E+00  2.97413716E-01  5.07914894E-03
  5.17065326E-02  9.07669571E-01  3.62053695E-01  0.00000000E+00 -5.17814190E-01
  8.47470918E-01  0.00000000E+00  8.27415013E-01 -9.95636098E-01  0.00000000E+00
 -2.48669709E-01  8.12306884E-01  0.00000000E+00  0.00000000E+00  0.00000000E+00
  0.00000000E+00 -9.74392665E-01  0.00000000E+00  0.00000000E+00  1.16483310E+00
  0.00000000E+00  0.00000000E+00 -3.92093449E-01  0.00000000E+00  0.00000000E+00
  0.00000000E+00  0.00000000E+00  0.00000000E+00  0.00000000E+00  0.00000000E+00
  0.00000000E+00  0.00000000E+00  0.00000000E+00  0.00000000E+00  0.00000000E+00
  0.00000000E+00  0.00000000E+00  0.00000000E+00  0.00000000E+00  0.00000000E+00
  0.00000000E+00  0.00000000E+00  0.00000000E+00  0.00000000E+00  0.00000000E+00
  0.00000000E+00  0.00000000E+00  0.00000000E+00  0.00000000E+00  0.00000000E+00
  0.00000000E+00  0.00000000E+00  0.00000000E+00  6.83014527E-03  0.00000000E+00
  0.00000000E+00  0.00000000E+00  0.00000000E+00  2.72178045E-01  0.00000000E+00
  0.00000000E+00  0.00000000E+00  0.00000000E+00 -4.12708460E-01  0.00000000E+00
  0.00000000E+00  0.00000000E+00  0.00000000E+00  4.66083995E-01  0.00000000E+00
  0.00000000E+00  0.00000000E+00  0.00000000E+00  0.00000000E+00  0.00000000E+00
  9.74392665E-01  0.00000000E+00  0.00000000E+00 -1.16483310E+00  0.00000000E+00
  0.00000000E+00  3.92093449E-01  0.00000000E+00  0.00000000E+00  0.00000000E+00
  0.00000000E+00  0.00000000E+00  0.00000000E+00 -1.00733558E+00  0.00000000E+00
  0.00000000E+00  1.20023820E+00  0.00000000E+00  0.00000000E+00 -4.27061409E-01
  0.00000000E+00  0.00000000E+00  0.00000000E+00  0.00000000E+00  0.00000000E+00
  0.00000000E+00  0.00000000E+00  0.00000000E+00  2.59268930E-03  0.00000000E+00
  0.00000000E+00  4.65916624E-02  0.00000000E+00  0.00000000E+00 -2.30586256E-02
  0.00000000E+00  0.00000000E+00 -2.28559691E-01  0.00000000E+00  0.00000000E+00
 -1.00809403E-03  0.00000000E+00  0.00000000E+00  1.47798767E-01  0.00000000E+00
  0.00000000E+00  0.00000000E+00 -5.36816005E-03  0.00000000E+00  0.00000000E+00
  0.00000000E+00  0.00000000E+00 -1.93152221E-01  0.00000000E+00  0.00000000E+00
  0.00000000E+00  0.00000000E+00  3.01412543E-01  0.00000000E+00  0.00000000E+00
  0.00000000E+00  0.00000000E+00 -1.04525790E-01  0.00000000E+00  0.00000000E+00
  0.00000000E+00  4.28868069E-01  0.00000000E+00  0.00000000E+00  0.00000000E+00
  0.00000000E+00  0.00000000E+00 -1.00733558E+00  0.00000000E+00  0.00000000E+00
  1.20023820E+00  0.00000000E+00  0.00000000E+00 -4.27061409E-01  0.00000000E+00
  0.00000000E+00  1.53909373E-02  3.33903597E-02  2.54668042E-01  1.77608252E-01
  0.00000000E+00 -6.87917382E-01 -7.66563485E-01  0.00000000E+00  7.40041263E-01
  9.83314308E-01  0.00000000E+00 -3.05977698E-01 -1.24018877E-01 -1.06731942E-03
  1.49685860E-02  1.24317988E-01 -1.90213001E-01 -6.10400280E-01 -1.98944355E-01
  0.00000000E+00  0.00000000E+00  1.07726021E-03  0.00000000E+00  0.00000000E+00
  3.92926429E-02  0.00000000E+00  0.00000000E+00 -6.14166022E-02  0.00000000E+00
  0.00000000E+00  2.77298908E-03  0.00000000E+00  0.00000000E+00 -6.06466283E-02
  0.00000000E+00  0.00000000E+00  1.36079908E-01 -1.64589776E-02  0.00000000E+00
  0.00000000E+00 -1.26895405E-02  0.00000000E+00 -3.63898666E-01  0.00000000E+00
  0.00000000E+00 -1.19048031E-01  0.00000000E+00  6.00422638E-01  0.00000000E+00
  0.00000000E+00  3.56034387E-01  0.00000000E+00 -4.01110422E-01  0.00000000E+00
  0.00000000E+00  1.03605691E-01  0.00000000E+00  0.00000000E+00  0.00000000E+00
  1.53909373E-02  3.33903597E-02  2.54668042E-01  1.77608252E-01  0.00000000E+00
  6.87917382E-01 -7.66563485E-01  0.00000000E+00 -7.40041263E-01  9.83314308E-01
  0.00000000E+00  3.05977698E-01 -1.24018877E-01  1.45401441E-01 -5.29842759E-01
 -1.71669552E+00  5.47336694E-01  0.00000000E+00 -7.25310266E-01  5.97693585E-01
  0.00000000E+00  1.12354728E+00 -9.79678122E-01  0.00000000E+00 -1.82294162E-01
  2.17125784E-01  4.07531753E-02 -9.20476014E-02 -4.78523035E-01  1.12692975E+00
  2.29478903E+00 -6.94095594E-01  0.00000000E+00  0.00000000E+00  2.21901322E-02
  0.00000000E+00  0.00000000E+00  1.68609494E-01  0.00000000E+00  0.00000000E+00
  7.06544133E-02  0.00000000E+00  0.00000000E+00 -9.32193074E-01  0.00000000E+00
  0.00000000E+00 -8.66804265E-01  0.00000000E+00  0.00000000E+00  1.91947967E-01
  8.52450163E-04  0.00000000E+00  0.00000000E+00 -4.17941088E-02  0.00000000E+00
 -6.37024208E-02  0.00000000E+00  0.00000000E+00  4.83434773E-01  0.00000000E+00
  7.26300432E-02  0.00000000E+00  0.00000000E+00 -8.05622366E-01  0.00000000E+00
  1.54938043E-01  0.00000000E+00  0.00000000E+00  3.59148320E-01  0.00000000E+00
  0.00000000E+00  0.00000000E+00  1.45401441E-01 -5.29842759E-01 -1.71669552E+00
  5.47336694E-01  0.00000000E+00  7.25310266E-01  5.97693585E-01  0.00000000E+00
 -1.12354728E+00 -9.79678122E-01  0.00000000E+00  1.82294162E-01  2.17125784E-01
  0.00000000E+00  0.00000000E+00  0.00000000E+00  0.00000000E+00  5.69347645E-02
  0.00000000E+00  0.00000000E+00 -5.41418191E-02  0.00000000E+00  0.00000000E+00
  1.42428846E-02  0.00000000E+00  0.00000000E+00  0.00000000E+00  0.00000000E+00
  0.00000000E+00  0.00000000E+00  0.00000000E+00  0.00000000E+00  5.30688353E-05
  0.00000000E+00  0.00000000E+00 -1.36758231E-03  0.00000000E+00  0.00000000E+00
  3.60305345E-03  0.00000000E+00  0.00000000E+00  3.78680947E-03  0.00000000E+00
  0.00000000E+00  6.90489548E-03  0.00000000E+00  0.00000000E+00 -6.01485853E-03
  0.00000000E+00  0.00000000E+00  0.00000000E+00  1.90239148E-03  0.00000000E+00
  0.00000000E+00  0.00000000E+00  0.00000000E+00  4.55083084E-02  0.00000000E+00
  0.00000000E+00  0.00000000E+00  0.00000000E+00 -2.44529669E-02  0.00000000E+00
  0.00000000E+00  0.00000000E+00  0.00000000E+00  9.38535455E-01  0.00000000E+00
  0.00000000E+00  0.00000000E+00  3.39905903E-01  0.00000000E+00  0.00000000E+00
  0.00000000E+00  0.00000000E+00  0.00000000E+00  5.69347645E-02  0.00000000E+00
  0.00000000E+00 -5.41418191E-02  0.00000000E+00  0.00000000E+00  1.42428846E-02
  0.00000000E+00  0.00000000E+00 -5.18779302E-02  4.17770020E-01  1.50246121E+00
 -7.26897614E-01  0.00000000E+00  7.56390812E-01 -3.95728247E-01  0.00000000E+00
 -1.14423097E+00  5.98323709E-01  0.00000000E+00  4.35301539E-01 -3.09086535E-02
  0.00000000E+00  0.00000000E+00  0.00000000E+00  0.00000000E+00  0.00000000E+00
  0.00000000E+00  0.00000000E+00  2.62176638E-02  0.00000000E+00  0.00000000E+00
  1.96912817E-01  0.00000000E+00  0.00000000E+00  7.74340041E-02  0.00000000E+00
  0.00000000E+00 -9.76084052E-01  0.00000000E+00  0.00000000E+00 -1.08749000E+00
  0.00000000E+00  0.00000000E+00  2.85367565E-01  0.00000000E+00  0.00000000E+00
  0.00000000E+00  5.92176091E-02  0.00000000E+00  0.00000000E+00  0.00000000E+00
  0.00000000E+00 -6.74591854E-01  0.00000000E+00  0.00000000E+00  0.00000000E+00
  0.00000000E+00  1.12843844E+00  0.00000000E+00  0.00000000E+00  0.00000000E+00
  0.00000000E+00 -2.94896353E-01  0.00000000E+00  0.00000000E+00  0.00000000E+00
  5.01363566E-01  5.18779302E-02 -4.17770020E-01 -1.50246121E+00  7.26897614E-01
  0.00000000E+00  7.56390812E-01  3.95728247E-01  0.00000000E+00 -1.14423097E+00
 -5.98323709E-01  0.00000000E+00  4.35301539E-01  3.09086535E-02 -4.63585744E-02
 -3.43310932E-02 -5.87200025E-01  1.81975664E-02  0.00000000E+00  3.59402654E-01
  3.76180520E-01  0.00000000E+00 -5.90103128E-02 -2.89803284E-01  0.00000000E+00
  1.66494564E-01  4.27351421E-02  2.73726749E-03 -2.04338001E-02 -1.64933206E-01
  2.65181918E-01  9.39097567E-01 -2.24915475E-02  0.00000000E+00  0.00000000E+00
  3.95303859E-03  0.00000000E+00  0.00000000E+00  2.39459557E-04  0.00000000E+00
  0.00000000E+00  1.08602305E-01  0.00000000E+00  0.00000000E+00 -3.70768153E-01
  0.00000000E+00  0.00000000E+00 -3.27583654E-01  0.00000000E+00  0.00000000E+00
  6.83851163E-03  9.72105169E-03  0.00000000E+00  0.00000000E+00  8.78350078E-03
  0.00000000E+00  2.91742138E-02  0.00000000E+00  0.00000000E+00  8.76712803E-03
  0.00000000E+00  1.50229647E-01  0.00000000E+00  0.00000000E+00 -7.03279176E-02
  0.00000000E+00 -8.36497932E-01  0.00000000E+00  0.00000000E+00  4.14389758E-01
  0.00000000E+00  0.00000000E+00  0.00000000E+00 -4.63585744E-02 -3.43310932E-02
 -5.87200025E-01  1.81975664E-02  0.00000000E+00 -3.59402654E-01  3.76180520E-01
  0.00000000E+00  5.90103128E-02 -2.89803284E-01  0.00000000E+00 -1.66494564E-01
  4.27351421E-02  0.00000000E+00  0.00000000E+00  0.00000000E+00  0.00000000E+00
  6.12256224E-01  0.00000000E+00  0.00000000E+00 -3.36918408E-01  0.00000000E+00
  0.00000000E+00  1.63662779E-01  0.00000000E+00  0.00000000E+00  0.00000000E+00
  0.00000000E+00  0.00000000E+00  0.00000000E+00  0.00000000E+00  0.00000000E+00
  2.80469812E-03  0.00000000E+00  0.00000000E+00  1.72020103E-03  0.00000000E+00
  0.00000000E+00  6.64012834E-02  0.00000000E+00  0.00000000E+00 -9.28385307E-02
  0.00000000E+00  0.00000000E+00 -8.65413080E-02  0.00000000E+00  0.00000000E+00
 -3.86502149E-02  0.00000000E+00  0.00000000E+00  0.00000000E+00  1.12323501E-02
  0.00000000E+00  0.00000000E+00  0.00000000E+00  0.00000000E+00  3.14181478E-02
  0.00000000E+00  0.00000000E+00  0.00000000E+00  0.00000000E+00  9.83839014E-02
  0.00000000E+00  0.00000000E+00  0.00000000E+00  0.00000000E+00 -3.43845611E-01
  0.00000000E+00  0.00000000E+00  0.00000000E+00  8.88597249E-01  0.00000000E+00
  0.00000000E+00  0.00000000E+00  0.00000000E+00  0.00000000E+00  6.12256224E-01
  0.00000000E+00  0.00000000E+00 -3.36918408E-01  0.00000000E+00  0.00000000E+00
  1.63662779E-01  0.00000000E+00  0.00000000E+00  0.00000000E+00  0.00000000E+00
  0.00000000E+00  0.00000000E+00  6.71370028E-01  0.00000000E+00  0.00000000E+00
 -3.62117648E-01  0.00000000E+00  0.00000000E+00  1.64214137E-01  0.00000000E+00
  0.00000000E+00  0.00000000E+00  0.00000000E+00  0.00000000E+00  0.00000000E+00
  0.00000000E+00  0.00000000E+00  0.00000000E+00  0.00000000E+00  0.00000000E+00
  0.00000000E+00  0.00000000E+00  0.00000000E+00  0.00000000E+00  0.00000000E+00
  0.00000000E+00  0.00000000E+00  0.00000000E+00  0.00000000E+00  0.00000000E+00
  0.00000000E+00  0.00000000E+00  0.00000000E+00  0.00000000E+00  0.00000000E+00
  0.00000000E+00  0.00000000E+00  0.00000000E+00  0.00000000E+00 -1.92759837E-02
  0.00000000E+00  0.00000000E+00  0.00000000E+00  0.00000000E+00 -3.99205074E-02
  0.00000000E+00  0.00000000E+00  0.00000000E+00  0.00000000E+00 -1.35564242E-01
  0.00000000E+00  0.00000000E+00  0.00000000E+00  0.00000000E+00  9.59290391E-01
  0.00000000E+00  0.00000000E+00  0.00000000E+00  0.00000000E+00  0.00000000E+00
  0.00000000E+00 -6.71370028E-01  0.00000000E+00  0.00000000E+00  3.62117648E-01
  0.00000000E+00  0.00000000E+00 -1.64214137E-01  0.00000000E+00  0.00000000E+00
  8.47921132E-02  1.10792851E-01  5.26281178E-01  1.92904155E-01  0.00000000E+00
  1.82227191E-01  7.21287058E-01  0.00000000E+00 -2.13909909E-01 -3.83947134E-01
  0.00000000E+00 -5.70846003E-02  3.33735476E-01  0.00000000E+00  0.00000000E+00
  0.00000000E+00  0.00000000E+00  0.00000000E+00  0.00000000E+00  0.00000000E+00
  5.80202976E-04  0.00000000E+00  0.00000000E+00 -5.17980333E-02  0.00000000E+00
  0.00000000E+00  1.88489789E-01  0.00000000E+00  0.00000000E+00 -5.62547053E-01
  0.00000000E+00  0.00000000E+00 -4.01094005E-01  0.00000000E+00  0.00000000E+00
 -6.19932408E-02  0.00000000E+00  0.00000000E+00  0.00000000E+00 -1.23761506E-02
  0.00000000E+00  0.00000000E+00  0.00000000E+00  0.00000000E+00  2.60488574E-01
  0.00000000E+00  0.00000000E+00  0.00000000E+00  0.00000000E+00  1.17986041E-01
  0.00000000E+00  0.00000000E+00  0.00000000E+00  0.00000000E+00  6.37093560E-01
  0.00000000E+00  0.00000000E+00  0.00000000E+00  6.72995329E-01 -8.47921132E-02
 -1.10792851E-01 -5.26281178E-01 -1.92904155E-01  0.00000000E+00  1.82227191E-01
 -7.21287058E-01  0.00000000E+00 -2.13909909E-01  3.83947134E-01  0.00000000E+00
 -5.70846003E-02 -3.33735476E-01  3.41967144E-02 -1.70783540E+00 -1.23327719E+00
 -9.18964656E-01  0.00000000E+00  1.08689875E+00 -5.12874310E-01  0.00000000E+00
 -2.66678569E-01 -1.24756871E-01  0.00000000E+00  7.02859282E-01 -3.58978123E-01
  0.00000000E+00  0.00000000E+00  0.00000000E+00  0.00000000E+00  0.00000000E+00
  0.00000000E+00  0.00000000E+00  7.74190434E-04  0.00000000E+00  0.00000000E+00
  2.03792002E-01  0.00000000E+00  0.00000000E+00 -7.49299246E-01  0.00000000E+00
  0.00000000E+00  2.78105143E+00  0.00000000E+00  0.00000000E+00  9.73985513E-01
  0.00000000E+00  0.00000000E+00  1.71988026E-01  0.00000000E+00  0.00000000E+00
  0.00000000E+00 -7.09212746E-02  0.00000000E+00  0.00000000E+00  0.00000000E+00
  0.00000000E+00 -9.36777274E-01  0.00000000E+00  0.00000000E+00  0.00000000E+00
  0.00000000E+00 -1.19286809E+00  0.00000000E+00  0.00000000E+00  0.00000000E+00
  0.00000000E+00  9.02078045E-01  0.00000000E+00  0.00000000E+00  0.00000000E+00
 -7.22923843E-01 -3.41967144E-02  1.70783540E+00  1.23327719E+00  9.18964656E-01
  0.00000000E+00  1.08689875E+00  5.12874310E-01  0.00000000E+00 -2.66678569E-01
  1.24756871E-01  0.00000000E+00  7.02859282E-01  3.58978123E-01  5.04262510E-02
 -1.62856676E+00 -8.95652637E-01 -6.56005793E-01  0.00000000E+00  8.03071444E-01
 -8.25207907E-01  0.00000000E+00  1.43883175E-01  1.58838232E-01  0.00000000E+00
  3.65184090E-01 -3.89409206E-01  1.52932463E-02 -1.58154141E-01 -1.64468521E+00
  2.64651927E+00  2.52280131E+00  7.64143286E-01  0.00000000E+00  0.00000000E+00
 -4.57827404E-03  0.00000000E+00  0.00000000E+00 -2.19840254E-01  0.00000000E+00
  0.00000000E+00  6.26284323E-01  0.00000000E+00  0.00000000E+00 -2.18199126E+00
  0.00000000E+00  0.00000000E+00 -4.16436722E-01  0.00000000E+00  0.00000000E+00
 -1.28351996E-01 -9.90777652E-04  0.00000000E+00  0.00000000E+00 -9.43920992E-02
  0.00000000E+00  7.09492000E-02  0.00000000E+00  0.00000000E+00 -6.11844182E-01
  0.00000000E+00  1.24746211E-01  0.00000000E+00  0.00000000E+00 -6.05769396E-01
  0.00000000E+00  5.76797220E-01  0.00000000E+00  0.00000000E+00  1.22836908E+00
  0.00000000E+00  0.00000000E+00  0.00000000E+00  5.04262510E-02 -1.62856676E+00
 -8.95652637E-01 -6.56005793E-01  0.00000000E+00 -8.03071444E-01 -8.25207907E-01
  0.00000000E+00 -1.43883175E-01  1.58838232E-01  0.00000000E+00 -3.65184090E-01
 -3.89409206E-01 -1.26186609E+00  2.61368394E+00 -1.35473875E+00 -1.62260120E-01
  0.00000000E+00 -1.14980142E-01  1.51239419E-01  0.00000000E+00 -5.19599352E-01
  4.62041336E-01  0.00000000E+00  5.04236038E-01 -4.37530362E-01  0.00000000E+00
  0.00000000E+00  0.00000000E+00  0.00000000E+00  0.00000000E+00  0.00000000E+00
  0.00000000E+00 -7.05572038E-03  0.00000000E+00  0.00000000E+00 -2.70603921E-02
  0.00000000E+00  0.00000000E+00  1.35919742E-01  0.00000000E+00  0.00000000E+00
 -1.64402779E+00  0.00000000E+00  0.00000000E+00  7.09660573E-01  0.00000000E+00
  0.00000000E+00 -7.24586137E-02  0.00000000E+00  0.00000000E+00  0.00000000E+00
 -1.04826668E-01  0.00000000E+00  0.00000000E+00  0.00000000E+00  0.00000000E+00
  5.47562559E-01  0.00000000E+00  0.00000000E+00  0.00000000E+00  0.00000000E+00
  5.65113847E-01  0.00000000E+00  0.00000000E+00  0.00000000E+00  0.00000000E+00
 -3.04726530E-02  0.00000000E+00  0.00000000E+00  0.00000000E+00  1.36069207E-01
  1.26186609E+00 -2.61368394E+00  1.35473875E+00  1.62260120E-01  0.00000000E+00
 -1.14980142E-01 -1.51239419E-01  0.00000000E+00 -5.19599352E-01 -4.62041336E-01
  0.00000000E+00  5.04236038E-01  4.37530362E-01 -1.24763860E+00  2.37328000E+00
 -1.63852692E+00  1.74785052E-01  0.00000000E+00 -2.01589224E-01  1.16931547E-01
  0.00000000E+00 -4.88546351E-01  2.32949909E-01  0.00000000E+00  4.50864887E-01
 -2.95877277E-01 -6.24123093E-03  6.39783080E-02  9.00889456E-01 -2.25140085E+00
  2.17070971E+00 -2.01184377E-01  0.00000000E+00  0.00000000E+00  1.03629767E-02
  0.00000000E+00  0.00000000E+00  1.04904234E-01  0.00000000E+00  0.00000000E+00
 -1.68906717E-01  0.00000000E+00  0.00000000E+00  1.12485845E+00  0.00000000E+00
  0.00000000E+00 -7.08210129E-01  0.00000000E+00  0.00000000E+00  1.63051838E-01
 -1.60661218E-03  0.00000000E+00  0.00000000E+00 -6.26097368E-02  0.00000000E+00
 -3.74450482E-02  0.00000000E+00  0.00000000E+00  3.83893643E-01  0.00000000E+00
 -1.21706410E-01  0.00000000E+00  0.00000000E+00  9.58330687E-02  0.00000000E+00
  1.57207566E-02  0.00000000E+00  0.00000000E+00 -7.13939798E-02  0.00000000E+00
  0.00000000E+00  0.00000000E+00 -1.24763860E+00  2.37328000E+00 -1.63852692E+00
  1.74785052E-01  0.00000000E+00  2.01589224E-01  1.16931547E-01  0.00000000E+00
  4.88546351E-01  2.32949909E-01  0.00000000E+00 -4.50864887E-01 -2.95877277E-01
  0.00000000E+00  0.00000000E+00  0.00000000E+00  0.00000000E+00 -4.70793992E-02
  0.00000000E+00  0.00000000E+00  1.52121232E-01  0.00000000E+00  0.00000000E+00
 -1.14577821E-01  0.00000000E+00  0.00000000E+00  0.00000000E+00  0.00000000E+00
  0.00000000E+00  0.00000000E+00  0.00000000E+00  0.00000000E+00 -7.09996232E-02
  0.00000000E+00  0.00000000E+00 -1.51762156E+00  0.00000000E+00  0.00000000E+00
  2.05577343E+00  0.00000000E+00  0.00000000E+00 -1.32811242E+00  0.00000000E+00
  0.00000000E+00  6.11460215E-01  0.00000000E+00  0.00000000E+00 -1.30011273E-01
  0.00000000E+00  0.00000000E+00  0.00000000E+00  3.15844845E-02  0.00000000E+00
  0.00000000E+00  0.00000000E+00  0.00000000E+00 -3.63027339E-03  0.00000000E+00
  0.00000000E+00  0.00000000E+00  0.00000000E+00  2.30608892E-02  0.00000000E+00
  0.00000000E+00  0.00000000E+00  0.00000000E+00 -1.09560535E-02  0.00000000E+00
  0.00000000E+00  0.00000000E+00  3.07333752E-02  0.00000000E+00  0.00000000E+00
  0.00000000E+00  0.00000000E+00  0.00000000E+00 -4.70793992E-02  0.00000000E+00
  0.00000000E+00  1.52121232E-01  0.00000000E+00  0.00000000E+00 -1.14577821E-01
  0.00000000E+00  0.00000000E+00 -1.01709228E-01  1.11773103E-01 -2.29971290E+00
  3.20208647E-01  0.00000000E+00 -3.08917547E-01  2.15128201E-01  0.00000000E+00
  6.31726194E-01 -3.12851308E-01  0.00000000E+00  3.26553262E-01 -2.76671106E-01
  7.20899154E-03 -7.59725673E-04  4.82815172E-02 -8.40092759E-02  4.08102136E+00
 -6.49313567E-01  0.00000000E+00  0.00000000E+00 -7.08559644E-02  0.00000000E+00
  0.00000000E+00 -1.51982484E+00  0.00000000E+00  0.00000000E+00  2.22904187E+00
  0.00000000E+00  0.00000000E+00 -2.00454883E+00  0.00000000E+00  0.00000000E+00
 -6.33567747E-01  0.00000000E+00  0.00000000E+00  1.40625513E-01 -3.54601926E-02
  0.00000000E+00  0.00000000E+00  1.54326960E-01  0.00000000E+00 -7.44708960E-03
  0.00000000E+00  0.00000000E+00  5.66499504E-02  0.00000000E+00  1.68675703E-01
  0.00000000E+00  0.00000000E+00 -3.81874734E-01  0.00000000E+00 -6.15911604E-02
  0.00000000E+00  0.00000000E+00 -6.80162374E-02  0.00000000E+00  0.00000000E+00
  0.00000000E+00 -1.01709228E-01  1.11773103E-01 -2.29971290E+00  3.20208647E-01
  0.00000000E+00  3.08917547E-01  2.15128201E-01  0.00000000E+00 -6.31726194E-01
 -3.12851308E-01  0.00000000E+00 -3.26553262E-01 -2.76671106E-01 -3.20101957E-02
 -3.12677590E-01 -2.22395275E+00  1.41754972E-01  0.00000000E+00 -2.90728814E-01
  2.29044631E-01  0.00000000E+00  6.82047460E-01 -6.14115559E-01  0.00000000E+00
  3.43317646E-01 -2.03746359E-01  0.00000000E+00  0.00000000E+00  0.00000000E+00
  0.00000000E+00  0.00000000E+00  0.00000000E+00  0.00000000E+00  7.21216230E-02
  0.00000000E+00  0.00000000E+00  1.55143305E+00  0.00000000E+00  0.00000000E+00
 -2.40064265E+00  0.00000000E+00  0.00000000E+00  2.71350435E+00  0.00000000E+00
  0.00000000E+00  8.57647138E-01  0.00000000E+00  0.00000000E+00 -1.24735490E-01
  0.00000000E+00  0.00000000E+00  0.00000000E+00  1.29301613E-01  0.00000000E+00
  0.00000000E+00  0.00000000E+00  0.00000000E+00  7.04322498E-02  0.00000000E+00
  0.00000000E+00  0.00000000E+00  0.00000000E+00 -8.98688806E-01  0.00000000E+00
  0.00000000E+00  0.00000000E+00  0.00000000E+00 -6.86876953E-03  0.00000000E+00
  0.00000000E+00  0.00000000E+00 -3.64062094E-02  3.20101957E-02  3.12677590E-01
  2.22395275E+00 -1.41754972E-01  0.00000000E+00 -2.90728814E-01 -2.29044631E-01
  0.00000000E+00  6.82047460E-01  6.14115559E-01  0.00000000E+00  3.43317646E-01
  2.03746359E-01  0.00000000E+00  0.00000000E+00  0.00000000E+00  0.00000000E+00
 -5.87510490E-02  0.00000000E+00  0.00000000E+00  1.28638244E-02  0.00000000E+00
  0.00000000E+00  1.83491106E-01  0.00000000E+00  0.00000000E+00  0.00000000E+00
  0.00000000E+00  0.00000000E+00  0.00000000E+00  0.00000000E+00  0.00000000E+00
  3.46322259E-03  0.00000000E+00  0.00000000E+00  4.34461734E-02  0.00000000E+00
  0.00000000E+00 -7.19562922E-02  0.00000000E+00  0.00000000E+00  8.34213898E-02
  0.00000000E+00  0.00000000E+00 -2.93031654E-01  0.00000000E+00  0.00000000E+00
 -1.22953741E-02  0.00000000E+00  0.00000000E+00  0.00000000E+00  1.36531475E+00
  0.00000000E+00  0.00000000E+00  0.00000000E+00  0.00000000E+00 -1.14169931E+00
  0.00000000E+00  0.00000000E+00  0.00000000E+00  0.00000000E+00  5.05718391E-01
  0.00000000E+00  0.00000000E+00  0.00000000E+00  0.00000000E+00  1.98492945E-03
  0.00000000E+00  0.00000000E+00  0.00000000E+00 -1.02853808E-02  0.00000000E+00
  0.00000000E+00  0.00000000E+00  0.00000000E+00  0.00000000E+00 -5.87510490E-02
  0.00000000E+00  0.00000000E+00  1.28638244E-02  0.00000000E+00  0.00000000E+00
  1.83491106E-01  0.00000000E+00  0.00000000E+00  0.00000000E+00  0.00000000E+00
  0.00000000E+00  0.00000000E+00  8.61958419E-02  0.00000000E+00  0.00000000E+00
 -4.41035014E-02  0.00000000E+00  0.00000000E+00 -1.44991204E-01  0.00000000E+00
  0.00000000E+00  0.00000000E+00  0.00000000E+00  0.00000000E+00  0.00000000E+00
  0.00000000E+00  0.00000000E+00  0.00000000E+00  0.00000000E+00  0.00000000E+00
  0.00000000E+00  0.00000000E+00  0.00000000E+00  0.00000000E+00  0.00000000E+00
  0.00000000E+00  0.00000000E+00  0.00000000E+00  0.00000000E+00  0.00000000E+00
  0.00000000E+00  0.00000000E+00  0.00000000E+00  0.00000000E+00  0.00000000E+00
  0.00000000E+00  0.00000000E+00  0.00000000E+00  0.00000000E+00  1.36840237E+00
  0.00000000E+00  0.00000000E+00  0.00000000E+00  0.00000000E+00 -1.15345344E+00
  0.00000000E+00  0.00000000E+00  0.00000000E+00  0.00000000E+00  5.23770542E-01
  0.00000000E+00  0.00000000E+00  0.00000000E+00  0.00000000E+00  1.80465328E-02
  0.00000000E+00  0.00000000E+00  0.00000000E+00  0.00000000E+00  0.00000000E+00
  0.00000000E+00 -8.61958419E-02  0.00000000E+00  0.00000000E+00  4.41035014E-02
  0.00000000E+00  0.00000000E+00  1.44991204E-01  0.00000000E+00  0.00000000E+00
 -8.70121485E-03  2.85412883E-02 -6.33933323E-01 -1.99124732E-01  0.00000000E+00
 -9.36977403E-02 -7.60170134E-02  0.00000000E+00  1.57390391E-01  6.71153030E-02
  0.00000000E+00  2.05625490E-01  4.26218610E-02 -2.23989836E-03  4.18347689E-03
  5.44573273E-02 -1.66211937E-01  1.20824702E+00  3.00731299E-01  0.00000000E+00
  0.00000000E+00 -5.18399405E-04  0.00000000E+00  0.00000000E+00 -3.67817164E-02
  0.00000000E+00  0.00000000E+00  7.33416906E-02  0.00000000E+00  0.00000000E+00
 -1.41175886E-01  0.00000000E+00  0.00000000E+00 -6.66990896E-01  0.00000000E+00
  0.00000000E+00 -2.86827853E-02  1.37422297E+00  0.00000000E+00  0.00000000E+00
  8.57535816E-02  0.00000000E+00 -1.19736933E+00  0.00000000E+00  0.00000000E+00
 -7.11025616E-02  0.00000000E+00  6.68517516E-01  0.00000000E+00  0.00000000E+00
  8.60246876E-03  0.00000000E+00 -6.05488047E-03  0.00000000E+00  0.00000000E+00
  3.27404043E-03  0.00000000E+00  0.00000000E+00  0.00000000E+00 -8.70121485E-03
  2.85412883E-02 -6.33933323E-01 -1.99124732E-01  0.00000000E+00  9.36977403E-02
 -7.60170134E-02  0.00000000E+00 -1.57390391E-01  6.71153030E-02  0.00000000E+00
 -2.05625490E-01  4.26218610E-02 -1.42514318E-02  6.34674183E-01 -1.53577038E+00
 -4.73506234E-01  0.00000000E+00 -2.90109587E-01  3.37721460E-01  0.00000000E+00
  1.26164554E-03 -1.41253929E-01  0.00000000E+00  3.86374567E-01 -2.64893249E-01
 -1.96245093E-02  5.30103880E-02  7.24410810E-01 -1.52419473E+00  3.12136441E+00
  6.10854001E-01  0.00000000E+00  0.00000000E+00 -1.31757257E-02  0.00000000E+00
  0.00000000E+00 -1.90587817E-01  0.00000000E+00  0.00000000E+00  2.16803921E-01
  0.00000000E+00  0.00000000E+00  2.60213693E-01  0.00000000E+00  0.00000000E+00
 -1.01541706E+00  0.00000000E+00  0.00000000E+00 -2.13675147E-02  8.34607056E-02
  0.00000000E+00  0.00000000E+00 -1.40436852E+00  0.00000000E+00 -9.35010801E-02
  0.00000000E+00  0.00000000E+00  1.48457288E+00  0.00000000E+00  8.36569711E-04
  0.00000000E+00  0.00000000E+00 -6.26447951E-01  0.00000000E+00 -1.50040912E-01
  0.00000000E+00  0.00000000E+00 -3.12030931E-01  0.00000000E+00  0.00000000E+00
  0.00000000E+00 -1.42514318E-02  6.34674183E-01 -1.53577038E+00 -4.73506234E-01
  0.00000000E+00  2.90109587E-01  3.37721460E-01  0.00000000E+00 -1.26164554E-03
 -1.41253929E-01  0.00000000E+00 -3.86374567E-01 -2.64893249E-01  2.10154419E-02
  8.26755003E-01 -8.96993474E-01 -1.88663587E-01  0.00000000E+00 -4.82588908E-01
  2.61075869E-01  0.00000000E+00  5.23513382E-02  1.19250642E-01  0.00000000E+00
  1.27269270E-01 -2.35731800E-01  0.00000000E+00  0.00000000E+00  0.00000000E+00
  0.00000000E+00  0.00000000E+00  0.00000000E+00  0.00000000E+00  1.28690553E-02
  0.00000000E+00  0.00000000E+00  1.45601901E-01  0.00000000E+00  0.00000000E+00
 -4.01871169E-02  0.00000000E+00  0.00000000E+00 -9.54996292E-01  0.00000000E+00
  0.00000000E+00  9.28853797E-01  0.00000000E+00  0.00000000E+00 -3.48624409E-02
  0.00000000E+00  0.00000000E+00  0.00000000E+00 -1.47240180E+00  0.00000000E+00
  0.00000000E+00  0.00000000E+00  0.00000000E+00  1.80179457E+00  0.00000000E+00
  0.00000000E+00  0.00000000E+00  0.00000000E+00 -4.03430045E-01  0.00000000E+00
  0.00000000E+00  0.00000000E+00  0.00000000E+00 -2.55159062E-01  0.00000000E+00
  0.00000000E+00  0.00000000E+00  2.29372711E-01 -2.10154419E-02 -8.26755003E-01
  8.96993474E-01  1.88663587E-01  0.00000000E+00 -4.82588908E-01 -2.61075869E-01
  0.00000000E+00  5.23513382E-02 -1.19250642E-01  0.00000000E+00  1.27269270E-01
  2.35731800E-01  0.00000000E+00  0.00000000E+00  0.00000000E+00  0.00000000E+00
  1.20953117E-02  0.00000000E+00  0.00000000E+00 -5.34198807E-02  0.00000000E+00
  0.00000000E+00  4.63317524E-02  0.00000000E+00  0.00000000E+00  0.00000000E+00
  0.00000000E+00  0.00000000E+00  0.00000000E+00  0.00000000E+00  0.00000000E+00
 -1.41574627E+00  0.00000000E+00  0.00000000E+00  1.58685667E+00  0.00000000E+00
  0.00000000E+00 -1.07007606E+00  0.00000000E+00  0.00000000E+00  5.68627069E-01
  0.00000000E+00  0.00000000E+00 -2.63165943E-01  0.00000000E+00  0.00000000E+00
  5.80042699E-02  0.00000000E+00  0.00000000E+00  0.00000000E+00  4.54984608E-03
  0.00000000E+00  0.00000000E+00  0.00000000E+00  0.00000000E+00 -9.58214305E-03
  0.00000000E+00  0.00000000E+00  0.00000000E+00  0.00000000E+00 -4.04063085E-03
  0.00000000E+00  0.00000000E+00  0.00000000E+00  0.00000000E+00  2.57682347E-03
  0.00000000E+00  0.00000000E+00  0.00000000E+00 -7.20302493E-03  0.00000000E+00
  0.00000000E+00  0.00000000E+00  0.00000000E+00  0.00000000E+00  1.20953117E-02
  0.00000000E+00  0.00000000E+00 -5.34198807E-02  0.00000000E+00  0.00000000E+00
  4.63317524E-02  0.00000000E+00  0.00000000E+00 -1.04226292E-02 -1.78576348E-02
 -1.03595721E+00  2.45668444E-02  0.00000000E+00 -8.02873202E-02  5.50555835E-02
  0.00000000E+00  2.33869921E-01 -1.05670776E-01  0.00000000E+00  1.93410361E-01
 -1.59350613E-01  6.67640812E-02  8.77147822E-02  7.05886186E-02 -9.55710103E-02
  2.01510646E+00 -1.47655881E-01  0.00000000E+00  0.00000000E+00  1.42315589E+00
  0.00000000E+00  0.00000000E+00 -1.64392149E+00  0.00000000E+00  0.00000000E+00
  1.20557319E+00  0.00000000E+00  0.00000000E+00 -9.23808085E-01  0.00000000E+00
  0.00000000E+00 -3.32903649E-01  0.00000000E+00  0.00000000E+00  3.70174575E-02
  5.13762599E-03  0.00000000E+00  0.00000000E+00 -2.40117400E-02  0.00000000E+00
 -1.70525640E-02  0.00000000E+00  0.00000000E+00  6.86708939E-02  0.00000000E+00
  8.22088678E-02  0.00000000E+00  0.00000000E+00 -2.04217661E-01  0.00000000E+00
 -1.23149334E-02  0.00000000E+00  0.00000000E+00 -8.67257994E-03  0.00000000E+00
  0.00000000E+00  0.00000000E+00 -1.04226292E-02 -1.78576348E-02 -1.03595721E+00
  2.45668444E-02  0.00000000E+00  8.02873202E-02  5.50555835E-02  0.00000000E+00
 -2.33869921E-01 -1.05670776E-01  0.00000000E+00 -1.93410361E-01 -1.59350613E-01
 -1.45031693E-03 -1.47746412E-01 -1.01654719E+00 -2.70184945E-02  0.00000000E+00
 -8.36385390E-02  6.58339288E-02  0.00000000E+00  2.47512411E-01 -2.28752645E-01
  0.00000000E+00  2.03427043E-01 -1.28421125E-01  0.00000000E+00  0.00000000E+00
  0.00000000E+00  0.00000000E+00  0.00000000E+00  0.00000000E+00  0.00000000E+00
 -1.42848663E+00  0.00000000E+00  0.00000000E+00  1.67745709E+00  0.00000000E+00
  0.00000000E+00 -1.29481866E+00  0.00000000E+00  0.00000000E+00  1.20485753E+00
  0.00000000E+00  0.00000000E+00  4.42043419E-01  0.00000000E+00  0.00000000E+00
 -3.57387715E-02  0.00000000E+00  0.00000000E+00  0.00000000E+00 -2.24889879E-02
  0.00000000E+00  0.00000000E+00  0.00000000E+00  0.00000000E+00  7.18144341E-02
  0.00000000E+00  0.00000000E+00  0.00000000E+00  0.00000000E+00 -4.21304437E-01
  0.00000000E+00  0.00000000E+00  0.00000000E+00  0.00000000E+00  1.47340155E-03
  0.00000000E+00  0.00000000E+00  0.00000000E+00 -1.30917803E-02  1.45031693E-03
  1.47746412E-01  1.01654719E+00  2.70184945E-02  0.00000000E+00 -8.36385390E-02
 -6.58339288E-02  0.00000000E+00  2.47512411E-01  2.28752645E-01  0.00000000E+00
  2.03427043E-01  1.28421125E-01 -3.77237607E-02  4.12076888E-01 -1.30292291E-01
 -4.70225446E-01  0.00000000E+00 -3.06934711E-02  3.23437621E-02  0.00000000E+00
 -3.03996397E-01  1.83479052E-01  0.00000000E+00  2.41433368E-01 -1.46375513E-01
  2.15013625E+00  2.97729204E+00  2.61409017E+00 -2.77042667E+00  1.54123004E+00
  3.90224138E-01  0.00000000E+00  0.00000000E+00 -4.91754829E-02  0.00000000E+00
  0.00000000E+00  7.60697411E-02  0.00000000E+00  0.00000000E+00 -1.44571734E-01
  0.00000000E+00  0.00000000E+00  5.74358034E-01  0.00000000E+00  0.00000000E+00
 -3.15924170E-01  0.00000000E+00  0.00000000E+00 -8.44689475E-02  9.77718232E-03
  0.00000000E+00  0.00000000E+00 -5.70644397E-02  0.00000000E+00 -2.58498545E-02
  0.00000000E+00  0.00000000E+00  1.61532917E-01  0.00000000E+00 -1.83351318E-02
  0.00000000E+00  0.00000000E+00  7.19454652E-02  0.00000000E+00 -4.21973825E-02
  0.00000000E+00  0.00000000E+00 -9.91233727E-02  0.00000000E+00  0.00000000E+00
  0.00000000E+00 -3.77237607E-02  4.12076888E-01 -1.30292291E-01 -4.70225446E-01
  0.00000000E+00  3.06934711E-02  3.23437621E-02  0.00000000E+00  3.03996397E-01
  1.83479052E-01  0.00000000E+00 -2.41433368E-01 -1.46375513E-01
Orthonormal basis                          R   N=        5184
  3.88817298E-02  7.64573414E-02  1.07088044E-01  1.06291110E-01 -8.29898937E-19
 -3.40904675E-02  1.04867297E-02 -2.55226341E-18 -6.48296096E-02  1.79648261E-02
 -3.37299702E-18 -7.85798036E-02  1.81300838E-02  2.48856672E-02 -4.31283333E-02
  8.82959976E-02  1.19810364E-01  1.31553787E-01  1.08493534E-01 -4.26735968E-19
 -2.42382456E-05 -5.34257151E-03 -1.16872523E-18 -6.41985860E-05 -1.46843693E-02
 -2.51942396E-18 -6.74455564E-05 -3.16963808E-02 -4.03532694E-18  2.06464556E-04
 -5.09161085E-02 -3.93267753E-18  4.37053995E-04 -4.98912838E-02 -2.37850428E-18
  2.84533592E-04 -3.01620685E-02  2.60149876E-03  6.61188884E-19  7.67981463E-05
 -3.76707018E-03  4.65884138E-19  7.33733136E-03  1.74802820E-18  4.59163470E-05
 -8.88113799E-03  1.07923385E-18  1.20916203E-02  2.14643679E-18 -2.25659883E-04
 -6.22597733E-03  7.28027246E-19  1.94999688E-03 -4.90701971E-19 -6.99820494E-05
  6.92367059E-03 -8.66669538E-19  6.63443232E-19 -2.05564084E-05  3.93107280E-02
  7.71304519E-02  1.07579464E-01  1.06488594E-01  2.93623808E-18  3.44649514E-02
  1.04402570E-02  5.37404752E-18  6.51015853E-02  1.76022489E-02  6.19410510E-18
  7.84782878E-02  1.74120942E-02  8.20174262E-02  1.26986572E-01  1.15383533E-01
  6.44418095E-02  1.31430863E-17  8.47918143E-04  3.42667997E-02  4.27150304E-17
  3.27884958E-02  4.03160379E-02  4.38124268E-17  9.49172325E-02  2.28063772E-02
 -1.56977013E-03  2.41598674E-03 -3.98604663E-03 -4.52880685E-03 -3.89383327E-03
 -2.41230683E-03  7.03612106E-18  2.70341944E-02 -8.60479683E-04  1.57098551E-17
  6.11737554E-02 -1.93991982E-03  2.87682126E-17  1.12441640E-01 -3.57602479E-03
  4.45359579E-17  1.77009092E-01 -6.17355185E-03  5.17043981E-17  1.96107925E-01
 -7.68504612E-03  3.42051037E-17  1.33810932E-01 -5.40596833E-03  1.50066164E-03
 -5.60088998E-18 -2.05497840E-02  1.02859058E-03 -1.27796227E-18  3.58911056E-03
 -1.43410907E-17 -4.99689059E-02  2.25037189E-03 -3.45829808E-18  5.41779872E-03
 -1.95275694E-17 -6.88946191E-02  2.62413983E-03 -6.99759842E-18 -8.49007813E-04
  1.41753088E-18  8.84209135E-04 -3.08068573E-04  1.17287976E-18 -7.54373819E-18
 -1.61667916E-02 -8.18436904E-02 -1.25963326E-01 -1.13979298E-01 -6.43745778E-02
  1.43173894E-17  5.49031849E-03 -4.22338806E-02  2.71388862E-17  4.02147609E-02
 -5.30662706E-02  3.76819900E-17  1.00491018E-01 -3.81216663E-02 -1.57767812E-16
 -2.64869998E-16 -1.94921022E-16  1.22226779E-17  8.61467946E-02  4.90258887E-16
  1.14274209E-15  1.44816211E-01  6.50637428E-16  1.94910213E-15  1.73030343E-01
  5.17563896E-16  2.28682712E-15  4.06837792E-16 -6.57570411E-16  1.05161925E-15
  1.19837263E-15  9.93044527E-16  5.75450495E-16  2.73581804E-02 -5.30483711E-17
  2.65241856E-16  6.11835419E-02  3.96826683E-17  6.36664637E-16  1.09952282E-01
  2.77282617E-17  1.13034631E-15  1.71614108E-01  7.01368328E-17  1.85550173E-15
  1.92680943E-01  8.77617422E-17  2.26056418E-15  1.28181190E-01  2.95821385E-17
  1.61117248E-15 -3.78533497E-16 -2.17982049E-02 -1.53580305E-17 -2.16515577E-16
 -5.63541509E-04 -9.14973702E-16 -5.22624112E-02 -1.87635740E-17 -5.09373617E-16
 -1.19336595E-03 -1.43997434E-15 -8.14398318E-02 -1.57149177E-17 -6.08735713E-16
 -1.20022355E-03  1.65901181E-16  7.52116153E-03 -6.83692630E-17 -1.13542883E-18
  5.57048140E-04 -2.09830726E-02 -7.49189623E-18 -2.35366025E-16 -3.56412719E-16
 -3.13532043E-16 -6.68984149E-17  8.83255985E-02 -4.73750711E-16  1.10062858E-15
  1.47444401E-01 -6.00373900E-16  1.88285170E-15  1.74662741E-01 -3.65647118E-16
  2.29808633E-15 -1.12920378E-02 -1.73229481E-02 -1.30267735E-02 -7.01912953E-04
 -1.21522548E-15  3.47005186E-02  8.20446338E-02 -1.85936139E-15  4.85196712E-02
  1.39577193E-01 -2.38080228E-15  3.63189689E-02  1.68713450E-01  3.13715197E-02
 -4.78387571E-02  7.64025291E-02  8.44796080E-02  6.99480797E-02  4.01103600E-02
 -3.81172300E-16  1.19696866E-03  1.93933922E-02 -8.52190842E-16  2.68019019E-03
  4.33009765E-02 -1.52735666E-15  5.00403866E-03  7.91463863E-02 -2.38822532E-15
  8.41872683E-03  1.33243108E-01 -2.65896741E-15  9.93371777E-03  1.64826018E-01
 -1.77267065E-15  6.96563680E-03  1.16775319E-01 -2.81271656E-02  3.00604678E-16
 -1.27203243E-03 -1.48083632E-02  1.62447110E-17 -6.76108185E-02  7.18716049E-16
 -3.18462557E-03 -3.28354158E-02  3.04134522E-17 -1.05536564E-01  1.13012151E-15
 -4.46142116E-03 -4.16307615E-02  1.18950509E-17  1.25068491E-02 -1.01628951E-16
  5.91822971E-04 -4.77733182E-04 -1.84427337E-17  2.87140901E-16 -6.98842549E-04
 -1.98966370E-02 -3.01628815E-02 -2.41719019E-02 -6.82407504E-03 -1.23392085E-15
 -3.43992650E-02  8.00447011E-02 -2.05940042E-15 -4.39608961E-02  1.37459054E-01
 -2.42897873E-15 -2.51816556E-02  1.67426496E-01 -7.50124182E-02 -9.43593535E-02
 -9.40592921E-02 -1.11276146E-01 -6.18986212E-17 -1.24085880E-01 -8.92572504E-03
 -7.73732765E-17 -1.83001236E-01  1.27344161E-02 -1.78925702E-17 -1.19329444E-01
  4.40372777E-02  6.74204923E-02 -9.15458051E-02  1.11688995E-01  8.04662637E-02
 -1.02932884E-02 -8.87677343E-02  6.34462286E-18 -3.52338545E-04 -1.82328106E-02
  1.21059483E-17 -6.47713281E-04 -3.41118890E-02  1.67809549E-17 -6.21455353E-04
 -4.43187352E-02  3.17021632E-17 -1.31304006E-04 -1.04085834E-02  2.63961793E-17
 -7.81075214E-04  6.97202390E-02  2.41714453E-17 -1.30560343E-03  8.67437876E-02
  4.22326050E-02  1.54185576E-18  1.98837427E-04  3.95887958E-02 -3.67774125E-17
  8.24465612E-02 -1.76704651E-18 -1.98295688E-04  9.02261404E-02 -7.05219737E-17
  9.96634889E-02 -8.41126550E-18 -4.06803000E-04  1.56155798E-01 -7.99019797E-17
 -2.38036531E-02 -3.26349868E-18 -3.30912998E-04 -1.81161427E-02  2.99998169E-17
  2.57613975E-18 -4.52114661E-04 -7.31207527E-02 -9.10187302E-02 -9.11800594E-02
 -1.09757290E-01  6.21975210E-17  1.26761531E-01 -8.34475207E-03  8.67188579E-17
  1.84804151E-01  1.38605205E-02  6.65302578E-17  1.18152443E-01  4.49593487E-02
 -2.79134763E-17 -1.03390289E-16 -5.01525822E-17  5.96370503E-17  1.75391204E-01
  1.21549409E-16 -1.39331208E-16  2.06029726E-01  4.65002321E-17 -8.69996151E-17
  1.23998651E-01  4.15068322E-18  5.57481141E-17  8.86112779E-17 -1.46428977E-16
  1.23503908E-16  4.19024550E-17  8.65275015E-18  1.87123669E-17 -2.49404345E-04
  2.47543082E-17  3.56345827E-16 -4.38844369E-04  5.23424101E-17  5.58701714E-17
 -5.25074311E-04 -1.30618848E-16  0.00000000E+00  3.05931844E-04 -5.80386483E-17
  2.62349838E-17  2.12842862E-03 -5.08510839E-18  6.30854098E-18  2.23689336E-03
  1.07522200E-16  8.13847529E-17  5.92208783E-17  6.44788439E-04  1.11946494E-16
  3.26541248E-18  1.33908685E-01  1.57516651E-16  9.22726952E-04  1.44742743E-16
  1.37652315E-16  2.45641749E-01  1.79849596E-16 -1.32165575E-04  7.04320874E-17
  7.92297817E-17  2.95392540E-01  6.01476893E-17 -2.65959886E-04 -2.61477578E-17
 -1.32604046E-16 -7.48328981E-02  5.60428299E-04  5.24681260E-17 -1.36722773E-16
  1.09744844E-17  5.64455641E-17  2.26616765E-17 -1.75608018E-01  7.01020288E-17
 -6.56231756E-17 -2.03517196E-01  6.38310534E-17 -1.24291424E-16 -1.18577314E-01
  4.16891880E-17 -1.18353999E-16 -8.33084393E-02 -8.90048805E-02 -6.04333177E-02
 -3.20426093E-02 -1.03921383E-16 -2.91194988E-02  1.36405773E-01 -9.97645274E-17
 -5.47657809E-02  1.77624040E-01 -4.98822637E-17 -6.14270257E-02  1.13450810E-01
 -3.76680954E-04  4.80484769E-04 -2.59756944E-04  5.42315059E-04  8.78664321E-04
  2.29250970E-04  4.26550054E-18  1.01801849E-01 -6.96043143E-05  5.00401680E-18
  1.70567892E-01 -1.22248238E-04  1.11801330E-17  2.06254778E-01 -4.12488640E-04
 -9.86400391E-18  1.49705645E-01 -5.89508813E-04  6.01294934E-18  1.28437018E-02
  1.09495942E-03 -2.12695336E-18 -4.49238927E-02  1.91444066E-03  2.01237577E-04
  3.57012729E-18  6.05972810E-02 -5.57663957E-04 -2.48574056E-17  2.26818494E-04
  9.09171169E-18  1.29044045E-01 -1.45328026E-03 -4.34008112E-17 -6.42342895E-04
  2.04812655E-17  2.25368968E-01 -1.73570660E-03 -6.83366120E-17  2.56564623E-04
 -3.45566413E-18 -5.30226738E-02  8.84171172E-04  4.62200081E-18 -4.58124437E-18
 -1.07093706E-02  8.31082215E-02  8.76863100E-02  5.90428074E-02  3.07272473E-02
  2.50419644E-17 -3.01852328E-02 -1.36390411E-01  2.15057051E-17 -5.53065399E-02
 -1.75642867E-01  3.39967445E-19 -6.11758959E-02 -1.08861747E-01 -4.84871356E-02
 -4.67433681E-02  2.59131418E-02  9.54193627E-02 -3.42372773E-17  5.17645829E-02
 -1.28812754E-01 -5.13559159E-17  3.53886538E-02 -1.09889252E-01  6.84745546E-17
 -1.66629042E-02 -2.18375449E-02  5.17902605E-03 -5.87890458E-03  2.14181515E-03
  1.67194237E-02  7.38352621E-02  1.18682688E-01 -9.35313559E-18  2.24210927E-03
  1.37609245E-01 -1.31331521E-17  3.60810696E-03  2.20008807E-01 -1.95452261E-17
  3.87813267E-03  2.55149441E-01 -2.27634179E-17  9.86882023E-04  2.02118966E-01
 -4.73036555E-17 -2.73308169E-03  7.43430044E-02 -3.11157546E-17 -2.95927592E-03
  4.15182873E-03  6.23942605E-02 -3.80245161E-18 -2.45082182E-03  9.90145047E-02
 -9.41977534E-17  1.07213493E-01 -1.01074971E-17 -3.07150810E-03  1.57906254E-01
 -1.61824704E-16  1.23536921E-01  7.58809872E-18 -1.16447738E-03  1.26445903E-01
 -1.93883344E-16 -3.48478477E-02 -7.60085341E-19  7.66642438E-04 -4.19716168E-02
  4.32624619E-17 -3.26516462E-18 -1.49630695E-04 -5.18861828E-02 -4.89085232E-02
  2.80123074E-02  9.81664319E-02  6.84567615E-17 -5.76280754E-02 -1.30367981E-01
  6.93326079E-17 -3.96427521E-02 -1.08013362E-01  3.01930289E-17  1.29145931E-02
 -1.90543447E-02 -7.57175264E-02 -6.17519553E-02  3.59553369E-02  6.30409854E-02
  2.09290632E-16  1.84227736E-01 -3.24720383E-02  3.05215505E-17  1.49196225E-01
  3.78839288E-03 -9.59248729E-17  9.98164826E-02  3.50082677E-02  1.25385144E-03
 -1.52190806E-03  1.27355135E-03  5.18728158E-04  5.94721756E-04  1.49337252E-03
 -4.08519941E-17 -7.99641921E-02  1.67746627E-03 -6.27740000E-17 -1.24715654E-01
  2.58768689E-03 -7.48533234E-17 -1.37463089E-01  3.12107294E-03 -5.48460413E-17
 -5.18910208E-02  3.48166588E-03 -2.45037036E-17  1.23108363E-01  1.98479142E-03
 -2.53464737E-17  1.58905688E-01  4.51657161E-04  2.01277787E-03 -1.55976717E-17
  1.77561590E-01  2.04045214E-03 -6.17620052E-17  3.06891335E-03 -2.63685656E-17
  2.71530654E-01  3.62557571E-03 -1.08116045E-16  2.34812446E-03 -2.15703687E-17
  1.89758040E-01  2.82936020E-03 -1.30940634E-16 -9.59051483E-04  6.90862966E-19
 -8.10651805E-02 -8.83394334E-04  9.96778012E-18 -2.35765411E-17  7.49027126E-03
  7.73423043E-02  6.18890241E-02 -3.54018478E-02 -6.01003892E-02  1.01622503E-16
  1.80977140E-01  2.72289260E-02  9.50391457E-17  1.43611886E-01 -8.72452666E-03
  3.89946420E-17  9.77667676E-02 -3.50255280E-02 -3.50362374E-17 -1.33080038E-16
 -6.33303901E-19  9.33690399E-19 -1.01914135E-01  1.18098224E-16 -6.22620561E-17
 -8.91385696E-02  1.13800706E-17  3.34491285E-17 -2.64438880E-02  1.28575425E-17
  1.32752937E-16 -6.77691597E-17  3.28118698E-17 -5.12200759E-17  5.25480384E-19
  1.44361411E-17 -4.63369742E-17  1.97867215E-01 -1.00199760E-17 -1.14553394E-16
  2.75552394E-01 -8.63381216E-18  1.48733400E-17  2.57070993E-01  1.51249820E-17
 -2.95182739E-17  1.59899359E-01 -1.26609479E-16  0.00000000E+00  6.74289411E-02
  3.70000305E-17 -7.28438101E-17  2.88104905E-02  1.37666129E-17  3.81177492E-17
 -9.89350259E-18  1.94198440E-01 -3.30633980E-17  1.33585553E-16  1.02392233E-03
 -5.52937628E-17  2.85690802E-01  1.82735479E-17  9.49585187E-17  1.31203303E-03
 -9.12599571E-17  2.69980896E-01 -3.88746779E-18 -2.88198717E-17  2.47148020E-04
 -3.04332875E-16 -1.60532855E-02  4.00319749E-17  2.33983789E-17 -6.32985958E-04
  4.47879497E-02 -8.48994245E-17 -3.18443523E-17  1.71696615E-17  4.47508458E-17
 -2.59198375E-17 -1.01947708E-01  1.62752590E-16  1.78944041E-17 -8.73931909E-02
  8.45579401E-17 -4.87325875E-17 -2.45938258E-02  2.74430529E-17 -4.59152681E-17
 -9.12306990E-02 -6.87039640E-02  1.31101149E-02  5.98942086E-02  1.90973045E-16
  7.04209221E-02 -8.71162168E-03 -7.63892180E-17  2.90322141E-02  1.55133148E-02
  2.86459568E-17 -8.06970203E-03 -5.53145788E-03 -2.77532899E-03  3.31667303E-03
 -7.31255480E-03 -7.01016124E-03  1.95867860E-02  5.18546140E-02  3.98171339E-18
  1.68678356E-03 -8.94739544E-02  3.80104431E-18  2.21584753E-03 -1.16805630E-01
  9.63118155E-18  1.78422689E-03 -9.50232587E-02  1.22826615E-17  3.03456646E-04
 -5.62114060E-02 -1.50086314E-17 -5.57149110E-04 -6.43394000E-02 -7.75262936E-19
 -4.98735752E-04 -6.84087625E-02 -2.00098652E-01 -9.20592452E-17  2.60865945E-04
  2.26548576E-01  1.71751814E-17 -2.75103482E-01 -1.30536088E-16  6.96519093E-04
  3.09218919E-01  2.68459854E-17 -2.34547822E-01 -1.19799267E-16  1.34151347E-03
  2.45756085E-01  6.32978013E-17 -1.64117253E-02  9.59247746E-18  5.41616323E-04
 -5.82636100E-02  5.27626855E-18 -6.79044122E-18  1.38754393E-04 -9.20157050E-02
 -6.77585044E-02  1.42532951E-02  6.04041936E-02 -2.56071795E-19 -6.87643287E-02
 -7.10443718E-03  1.24798819E-17 -2.72073936E-02  1.66325358E-02  2.52213299E-18
  7.55838353E-03 -6.05822049E-03 -8.45751503E-05 -2.61886864E-03  9.23178120E-03
  5.11261684E-02 -1.15351627E-14 -5.48163398E-02  5.63678084E-03 -4.25087981E-15
 -3.74715674E-02  1.44986671E-02  2.87931415E-14 -2.55743741E-02  1.05966236E-01
 -3.86114621E-01  3.96915901E-01 -1.90756583E-01 -3.15114495E-02  8.50667644E-02
  1.18191806E-01 -6.57578743E-14 -5.42746524E-03 -1.07239936E-01 -7.89745510E-14
 -6.52815859E-03 -1.29536464E-01 -5.48231195E-14 -4.41583182E-03 -9.03132809E-02
 -4.43722188E-15 -8.86794752E-04  1.35243771E-02  4.49095753E-14  5.41809109E-05
  1.41302700E-01  5.24224220E-14 -3.40529651E-04  1.57496562E-01  8.03495381E-02
  5.46163699E-14 -2.16129645E-03  3.55559743E-02 -5.83753675E-16  1.00447169E-01
  6.82308683E-14 -2.81322544E-03  4.96860914E-02 -7.21735499E-16  6.27722123E-02
  4.83931017E-14 -1.24844522E-03  5.89471304E-02 -6.82454728E-16 -3.71978999E-03
 -1.41631030E-15 -2.44841748E-03  8.30911084E-03 -1.91927801E-16  3.95195687E-15
 -1.80038231E-03 -2.92250204E-04 -2.51168733E-03  1.03813793E-02  5.24963407E-02
 -1.20708663E-14  5.67408136E-02 -1.60759662E-03 -4.11922403E-15  3.82635519E-02
  8.76582518E-03  2.92773379E-14  2.54273513E-02  1.04501570E-01  7.00644819E-17
 -8.51323419E-16  2.29716050E-15  1.23110301E-14  4.80804099E-02 -1.30259357E-14
  1.79108614E-15  1.73258822E-02 -8.88881204E-15  3.84575233E-15 -1.18398132E-01
 -6.38607038E-15  2.62276408E-14 -9.41622989E-14  9.69152144E-14 -4.66519740E-14
 -7.60956778E-15  2.08111991E-14  2.85613053E-14  2.71375716E-01 -1.53992719E-15
 -2.59008268E-14  3.25242239E-01 -1.58457865E-15 -3.13018747E-14  2.25668024E-01
 -1.09820503E-15 -2.19607328E-14  1.83479785E-02 -5.01354198E-16  3.51190057E-15
 -1.85226088E-01 -7.36909612E-17  3.41559512E-14 -2.16132280E-01 -4.78273927E-16
  3.79032087E-14  1.94398423E-14 -2.25084363E-01 -9.78063528E-16  8.69592858E-15
  2.61271267E-03  2.45787373E-14 -2.81190641E-01 -7.73806527E-16  1.20638963E-14
  3.33405328E-03  1.52083040E-14 -1.99439784E-01 -5.11052457E-16  1.39914104E-14
  3.07087736E-03 -1.08751194E-15  5.82625586E-03 -7.15814236E-16  2.24254646E-15
  7.09771571E-04 -1.62538286E-02 -6.10538014E-16 -2.87322146E-16 -6.80027614E-16
  2.73887404E-15  1.28093746E-14  4.95159796E-02  1.44954403E-14 -5.78746902E-16
  1.66362403E-02  9.55821051E-15  2.09127953E-15 -1.20823183E-01  6.28516416E-15
  2.54900149E-14 -1.77228536E-02  4.67054810E-03  2.75752624E-02  2.15396506E-02
  1.04735218E-17 -1.41689311E-02 -2.36166345E-01  7.33146526E-17 -1.94607234E-02
 -1.89500254E-01 -8.37881743E-17  2.12316992E-02 -9.34084470E-02 -3.23937380E-03
  3.07773810E-03 -1.04601002E-03 -7.97724352E-05  1.64234148E-03  3.34420399E-03
  2.40891001E-16  3.16253592E-01 -1.11252855E-02  2.99149966E-16  3.35990413E-01
 -1.18563143E-02  2.00052960E-16  1.69035014E-01 -5.74662547E-03  2.62660783E-17
 -9.78050071E-03  2.82967619E-03 -1.67327924E-16 -9.83889334E-03  6.29982027E-03
 -2.20043382E-16  2.94637148E-02  5.24674508E-03  4.16022700E-03 -1.63940757E-16
  2.08384861E-01 -2.35031555E-03 -3.02833061E-17  4.95674844E-03 -2.04853707E-16
  2.07891124E-01 -1.97040989E-03 -4.27965041E-17  4.84384374E-03 -1.65891630E-16
  4.46031477E-03 -8.12480235E-04 -1.76073933E-17 -9.33437751E-05  1.23777594E-17
  1.59919130E-01 -1.48077796E-03  2.06369165E-17  1.68796718E-17  1.12557539E-01
  1.92416987E-02 -4.18853822E-03 -2.72148788E-02 -1.85163292E-02  6.18683759E-17
 -1.54348196E-02  2.30190797E-01  2.14090709E-17 -2.11304508E-02  1.84003158E-01
 -9.82728115E-17  1.88616156E-02  9.63290812E-02  2.09812373E-02  2.18911443E-03
 -1.61459021E-02 -5.78660300E-02  6.37352451E-17 -1.03955443E-01  7.67183827E-02
 -6.37352451E-17 -1.14940943E-01  4.55749059E-02  8.49803268E-17 -1.19165431E-01
 -3.20067618E-02 -2.14971486E-01  1.99675084E-01 -3.81437416E-02  2.92319699E-02
 -1.38871525E-02 -9.35161301E-02 -2.01828276E-16  1.86927727E-03  3.28766068E-01
 -2.29712446E-16  1.88810768E-03  3.37451458E-01 -1.46687538E-16  1.11278405E-03
  1.52759080E-01 -2.88905078E-17  1.77923515E-03 -5.61564661E-02  1.40256663E-16
  3.36575565E-03 -1.16563650E-01  1.77874668E-16  3.46124860E-03 -8.67180552E-02
 -2.01194858E-01  1.41096581E-16  9.63470033E-03 -7.29180734E-02  2.30626195E-17
 -2.14611760E-01  1.82094918E-16  9.14000034E-03 -6.29159731E-02  4.26115852E-17
 -1.10885336E-01  1.54934966E-16  3.20074818E-03  5.98867274E-02 -5.84501878E-17
  1.89578291E-02  1.92332644E-18  8.05186336E-03  5.76246202E-02 -2.48935808E-17
  7.31035621E-18  3.80620537E-03  2.55823024E-02  4.37032899E-03 -1.75485517E-02
 -6.06216471E-02 -1.10067759E-17  9.42262567E-02  9.16580138E-02  1.27401129E-17
  1.08357399E-01  5.44654256E-02  1.11645846E-16  1.20138519E-01 -3.14686482E-02
 -3.41585107E-16 -2.51693648E-16  8.31971894E-17  3.45045210E-16 -2.16811825E-01
 -2.68439875E-15 -1.00533505E-15 -1.63962344E-01 -1.47541091E-15 -4.68771495E-16
 -8.08024089E-02 -1.05615477E-16  5.63736083E-16  1.05838568E-16 -1.41667802E-16
 -1.42783399E-17  5.23857243E-17  7.68688096E-17  1.08828511E-16 -5.03564861E-03
 -3.13017535E-15 -1.13162770E-16 -3.94658777E-03 -2.41322101E-15  3.68003700E-17
 -1.92205644E-04 -6.89529675E-17  1.15153548E-16  2.81484800E-03  1.46645196E-15
  8.89105669E-17  5.05664912E-03  1.33439501E-15  1.40421484E-16  5.94875552E-03
  1.11435361E-15 -6.51392705E-17 -2.37103648E-16 -7.67600486E-03  1.21071107E-15
 -3.72526483E-16  5.22115892E-01  8.44005313E-17 -5.63017899E-03  1.20957012E-15
 -1.24391263E-16  4.08700723E-01  5.60850436E-17  1.06054436E-03  1.80542321E-15
  9.36637235E-17  4.35085579E-02 -2.71823308E-16 -1.53472772E-03  3.96865945E-15
 -3.95087039E-16  3.32377753E-01  5.08862244E-03  1.24673675E-15 -1.82416864E-16
  1.69518259E-16  1.78565560E-17 -1.90127273E-16  2.01094256E-01 -2.66359374E-15
  1.07856031E-15  1.53788478E-01 -1.72653935E-15  2.06920635E-16  8.32398976E-02
 -2.47663968E-16 -6.74845817E-16 -1.58660673E-02 -2.37947490E-02  6.22103564E-03
  3.73240606E-02  1.80565739E-15 -2.76491697E-01 -1.05281429E-01  1.56974052E-15
 -1.71148246E-01 -2.41761497E-02  9.15955443E-16 -1.22854066E-02  6.77292021E-02
  5.17239694E-03 -4.05140809E-03 -1.08317083E-03 -1.92639887E-03  1.75409822E-03
  6.82766202E-03  7.70102666E-16 -3.18512577E-01 -1.33162459E-02  2.80037333E-16
 -2.47066547E-01 -1.03421265E-02  3.54422250E-16 -4.69820896E-03 -1.88315663E-04
  8.97450372E-17  1.47819989E-01  6.73858525E-03  1.70475849E-16  1.33448935E-01
  3.64171417E-03  2.47535149E-16  1.19151319E-01 -7.50313490E-04 -1.43351634E-03
 -5.15654033E-16  1.02279241E-01 -9.04583126E-03 -5.06003914E-15 -5.25393371E-04
 -5.58763248E-16  1.07391778E-01 -7.31368532E-03 -3.92681304E-15  3.92163486E-03
 -3.26905192E-16  1.89081840E-01 -8.10546043E-04 -3.70306381E-16 -1.89086655E-03
 -7.74100511E-17  4.13816292E-01 -8.25921798E-03 -3.20218860E-15  2.90910644E-16
  1.17325500E-01 -4.82795606E-03  1.09607943E-02 -6.62628077E-03 -2.57962092E-02
 -2.09290772E-15 -2.76410635E-01  1.03428908E-01 -1.45726660E-15 -1.70491178E-01
  1.79584863E-02 -7.44888240E-16 -1.17445378E-02 -7.24459104E-02  2.78109802E-01
  1.66876224E-01 -2.91927359E-03 -1.24150840E-01 -7.08042300E-17  2.74364703E-02
  7.39612940E-03 -5.31031725E-17  3.30368763E-02  8.82287503E-03 -9.44056399E-17
  8.20793522E-03  7.11301335E-02  3.06460542E-02 -2.34622676E-02 -3.44293755E-04
  8.63118083E-03 -2.68937276E-02 -1.18783885E-01  1.29807755E-16 -6.52930247E-03
  9.98702471E-02  5.90035250E-17 -4.84738225E-03  7.53231192E-02  6.63789656E-17
 -1.88915022E-04 -1.22306623E-02 -6.30023967E-17  2.55831725E-03 -9.51625796E-02
 -3.09477758E-17  3.89864557E-03 -4.22754835E-04 -1.95433673E-17  4.60926622E-03
  1.18151820E-01  1.09569476E-01 -1.53951505E-17  3.14890479E-03  3.91623797E-01
  2.95297316E-16  8.30269842E-02 -5.79612328E-17  3.63094816E-03  2.78061702E-01
  2.12926179E-16 -7.14830190E-03  2.40066471E-17  3.80393330E-03  5.24143582E-04
 -1.01481879E-18  1.96177425E-01  2.35263007E-17  1.40593466E-02  3.46617818E-01
  1.68201672E-16 -6.51014092E-17  7.81183255E-03  2.79349611E-01  1.66185189E-01
 -4.32362191E-03 -1.26877257E-01  2.19445950E-16 -5.09266717E-02  1.23604935E-02
  1.50061868E-16 -4.52638419E-02  1.12675913E-02 -1.08031601E-17 -7.13659473E-03
  6.86816494E-02 -1.08231725E-16  3.65190265E-17  5.26969808E-17 -7.98142941E-17
 -2.98717550E-01  3.51761859E-16  3.74834571E-17 -1.63948545E-01  3.78630883E-16
 -2.31491565E-17  7.91625861E-02  7.41176724E-17 -1.00080830E-16  4.64694329E-17
 -5.10136869E-17 -1.47524747E-16  1.11988244E-16  2.27484515E-17 -7.63911131E-17
  1.79767277E-02  3.38000509E-16 -5.09717674E-17  1.16918938E-02  2.77726262E-16
  9.66787341E-17 -9.32586859E-03  5.09524830E-17  6.20668639E-17 -6.92969313E-04
 -2.25351143E-16 -1.16577224E-16  1.58959485E-01 -6.60172980E-18 -1.01545316E-16
  2.68746622E-01 -1.37417887E-17  1.32628498E-16  3.63911262E-17 -3.60971346E-01
 -2.21839712E-16  6.68558035E-17 -9.20044649E-03 -1.94489610E-16 -2.35442467E-01
 -1.51345537E-16  1.87021454E-16 -6.61481818E-03 -2.92852696E-17  1.82064246E-02
 -1.95263919E-16 -1.78707791E-16 -3.45435362E-03 -2.22189631E-16 -1.62207164E-01
 -6.42153256E-16 -1.73091744E-16 -1.76771808E-02  4.52523366E-01 -1.26526033E-17
  2.27165773E-16  2.13397267E-16  3.83425583E-17 -1.21526468E-16 -3.08356635E-01
  3.15556348E-16 -1.33816228E-16 -1.65522612E-01  1.84629533E-16  2.85817637E-17
  8.18571227E-02  5.06008043E-17  1.69220662E-16  2.81282810E-01  1.73113321E-01
 -3.91855451E-03 -1.11212168E-01  1.22325898E-17  1.04394803E-01  1.75909140E-02
 -1.71256258E-16  1.42794571E-02  3.14304551E-02  0.00000000E+00 -1.18084323E-01
  2.79886436E-03  1.32439434E-03 -9.74429626E-04 -5.29466379E-04 -1.07786649E-03
 -4.83906012E-04 -2.85007686E-04 -1.71256258E-16 -1.33874018E-01  1.34239607E-03
 -3.66977695E-17 -8.85687128E-02  8.56426207E-04 -6.61324389E-17  3.49707298E-02
  3.32715076E-05  5.67549164E-17  1.29662838E-01 -6.46738750E-04  1.38949361E-16
 -9.81310892E-02 -7.39469379E-04  1.59011206E-16 -3.36419763E-01  2.81008108E-04
  1.66320141E-03 -9.77965115E-17  4.16128941E-01  3.10908761E-03  3.22275255E-17
  8.53040764E-04 -2.60918979E-17  2.39607607E-01  2.28571317E-03  2.04409918E-17
 -1.47828668E-03  2.65242860E-17 -8.81503815E-02 -2.29259334E-03 -2.31917701E-17
 -2.42765615E-03 -9.67027594E-17  7.55356879E-02 -3.53172635E-03 -1.67756840E-17
  2.36936578E-16 -2.71519764E-01 -2.76531359E-01 -1.69351586E-01  4.53649093E-03
  1.09490621E-01 -2.15044005E-16  1.08493629E-01 -1.47243739E-02 -1.03801018E-16
  1.39804472E-02 -2.92727674E-02  1.07578821E-16 -1.20401614E-01 -1.22150944E-03
 -1.59548593E-01 -9.79349590E-02  5.55626165E-03  6.26750768E-02 -1.15833553E-16
  2.32824373E-02  2.50373018E-01  2.53881761E-17  2.48120915E-02  1.57318186E-01
  2.03105408E-16  4.50383408E-02 -4.53609071E-02 -6.10702408E-02  3.92007177E-02
  3.53018619E-02  2.18413358E-02 -2.92089104E-02 -1.67905391E-02 -1.01552704E-16
  5.36607633E-03  1.08938575E-01  1.26940880E-17  2.93635017E-03  5.95330106E-02
 -1.90411320E-17 -1.10671661E-03 -2.80931055E-02 -9.37180718E-17 -1.77997924E-03
 -4.60497570E-02  9.37430586E-17 -2.18327599E-04 -1.55949813E-01  1.25926229E-16
  1.45742759E-03 -2.97097247E-01  4.88033936E-01  4.19699518E-17  1.69407892E-03
  9.31219114E-02  1.03656948E-18  2.55105546E-01  4.69444492E-17 -1.72360488E-04
  7.03703617E-02  1.23646833E-18 -1.50759684E-01  6.54861378E-17  5.76362264E-04
  5.96232064E-02 -3.09867522E-17  2.79946370E-01  3.79204462E-17  1.24121435E-02
 -1.20986799E-01 -3.93243017E-17  3.15652251E-17 -8.88368448E-04 -1.57094443E-01
 -9.49252981E-02  6.43387966E-03  6.10114539E-02  4.74775841E-18 -2.14735758E-02
  2.49926099E-01  3.15520529E-17 -2.13325774E-02  1.56894025E-01  2.58501602E-17
 -4.35873516E-02 -4.73944391E-02 -2.82226666E-02 -9.76934967E-02 -4.77346952E-02
  1.18714488E-01 -1.77596795E-16 -1.27533921E-01  1.54740094E-01  3.04451648E-17
  1.90333963E-02 -4.48535800E-02  3.38279609E-17  8.94467005E-03 -1.24493268E-01
  6.43295248E-02 -3.64678946E-02 -3.26741796E-02 -4.57636361E-02 -2.57554253E-03
  1.22544549E-01  8.11871062E-17  3.34802558E-03 -2.27636930E-01  1.08249475E-16
  1.26354963E-03 -8.96679812E-02  0.00000000E+00 -1.17218958E-03  1.15522472E-01
  3.24748425E-16 -1.43102561E-03  2.25298367E-01  3.45679476E-17 -1.69550979E-03
  8.38828040E-02 -1.89651310E-16  3.05778552E-06 -1.21720117E-01 -1.33878386E-01
  5.66233740E-17  4.74200141E-03 -1.83548955E-01  2.55971449E-16 -4.98519057E-02
  1.72965320E-16  5.79137125E-04 -4.77757921E-02  1.09292568E-16  9.65907945E-02
  1.73386140E-16 -2.91567280E-03  2.11517158E-01 -2.02571862E-16  3.44387658E-01
 -1.81719315E-16 -5.17330770E-03  6.21474604E-01 -2.33023119E-16  6.76328887E-16
 -2.11158496E-02 -2.16337004E-02 -9.91556497E-02 -4.91820505E-02  1.17897043E-01
 -2.08545200E-16  1.26085752E-01  1.47286617E-01 -7.14050301E-17 -1.65627979E-02
 -4.51660801E-02  8.20645635E-17 -6.43628409E-03 -1.18137370E-01  5.02338256E-03
  6.23313832E-02  2.99282151E-02 -5.57605258E-02  4.46592129E-17  9.24797931E-02
 -7.49247064E-02 -2.70531770E-16 -4.23920193E-02  2.60533311E-02 -1.79495683E-16
 -7.49196160E-02  1.08399003E-02 -1.68007180E-03  8.65111839E-04  1.33421228E-03
  1.46943023E-03  8.65286213E-04 -6.33062472E-04  4.32850833E-16 -2.00321155E-01
 -1.03304012E-02  2.37037361E-16 -7.05450349E-02 -3.59038457E-03  1.20236342E-17
  1.08125259E-01  6.10275639E-03 -2.33602037E-16  1.74840922E-01  8.49335918E-03
  1.37412963E-17  6.73818457E-03  8.06669811E-04  3.22491047E-16 -1.93284720E-01
 -3.72986455E-03 -5.05549232E-03  3.24464277E-16  9.15984911E-02 -6.02969359E-03
  3.02824026E-16 -1.69370680E-03  2.88253823E-16  1.45028156E-02 -1.60389585E-03
  6.34133443E-17  5.59464432E-03  5.80944623E-17 -1.31272322E-01  5.23270290E-03
 -2.92137592E-16  3.76704907E-02 -1.56997953E-16 -3.49316151E-01 -1.03165437E-02
 -7.35591262E-16 -2.00482083E-16  8.04252782E-01  1.78321238E-03 -6.58113969E-02
 -3.31764847E-02  5.48042421E-02 -1.87462469E-16  8.33291763E-02  8.11487522E-02
 -2.86007377E-17 -4.23663327E-02 -2.81026501E-02  1.50146598E-16 -6.25755337E-02
 -1.78750940E-02 -1.04806497E-16 -3.39767639E-17  2.22951287E-17  8.62633336E-17
 -1.04200152E-01 -1.12372800E-16 -6.72810572E-17  8.30893380E-02  3.18318887E-17
  5.11332971E-17  1.93070941E-01  1.09745581E-16  2.57524138E-17  8.15257952E-18
  5.70694402E-17 -3.15303730E-17 -1.24732891E-16  2.11825434E-17  1.65700276E-16
  9.70219232E-03 -1.74484019E-16  2.87810769E-16  3.25381516E-03 -1.11168475E-16
 -8.77664964E-17 -5.54048266E-03 -1.49069145E-17 -8.14487989E-17 -7.21225616E-03
  8.02682009E-17  2.59565608E-17  2.02389532E-03 -3.90105342E-17 -1.80457960E-16
  1.02060609E-02 -2.30743762E-17  3.93485156E-18  3.00114848E-16 -2.92374669E-03
  1.28712412E-16 -3.34449755E-17 -3.98075655E-01  1.94754008E-16 -8.03395024E-04
  1.20778071E-16 -9.66224568E-17 -1.19819297E-01 -5.52128324E-16  1.98045757E-03
 -2.48457746E-16  6.90160406E-17  3.23702538E-01 -1.18068652E-15 -3.11644993E-03
 -5.58125420E-16  1.14047624E-15  7.76116975E-01  1.05786271E-02  8.23237871E-16
 -2.71828089E-16 -2.16594086E-16 -7.88631352E-17  2.07688655E-16  1.02934854E-01
  3.79520807E-16  2.00280481E-16 -8.94105017E-02 -6.55346638E-17  6.88404658E-17
 -1.87778809E-01 -1.82374341E-16 -4.46612941E-17  7.03841700E-02  4.44724480E-02
 -5.18386931E-03 -6.86086224E-02 -1.17779752E-16  1.16360607E-01 -2.21204157E-02
  1.38564415E-16 -9.02688898E-03 -4.11684559E-02  3.94908581E-16 -1.17186101E-01
 -3.04149151E-02 -4.51274839E-02  2.38463022E-02  2.90952063E-02  4.61107763E-02
  2.47208252E-02 -6.07677606E-02  3.32554595E-16  7.40273332E-03 -1.31753016E-01
  3.32554595E-16  2.46956887E-03 -4.17286593E-02 -1.66277297E-16 -4.56300647E-03
  7.83707821E-02 -1.24707973E-16 -7.32960527E-03  7.34470921E-02 -9.09328970E-17
 -9.90979006E-05  2.73865956E-02 -5.14406857E-17  6.56782629E-03  7.05483984E-02
 -2.19395658E-01 -2.24743706E-17 -6.46071052E-03 -2.37081641E-02 -7.69827534E-16
 -6.19837307E-02 -4.16844907E-17 -5.10004396E-04 -2.19445039E-02 -2.10814473E-16
  1.87166360E-01 -8.93077015E-17  6.78639417E-03 -2.09354765E-02  5.48007305E-16
  7.45438157E-01  5.41928334E-17  8.00409167E-03 -4.66308380E-01  1.51350244E-15
  1.06827615E-16 -3.71587755E-02  6.66376079E-02  4.88375744E-02 -1.55830664E-03
 -7.17236503E-02  1.09739213E-16 -1.22313488E-01 -2.75321660E-02 -2.14592011E-16
  1.43028994E-02 -4.01419123E-02 -3.52735018E-16  1.21723002E-01 -3.00950762E-02
  4.00648957E-17  7.67644226E-17 -2.11169753E-16 -4.75164735E-17  3.34286811E-16
  8.59940022E-17 -4.55239529E-17  1.01419149E-16 -1.61591837E-16  5.95798471E-17
  5.85513222E-16  7.51660501E-17  1.17842006E-16 -2.88958967E-17 -1.19763822E-16
 -5.55878485E-17 -1.83764742E-16  6.01957152E-17 -1.39896838E-16  2.94518854E-15
  3.94922123E-17 -1.87054951E-16  9.11836157E-16 -5.75486351E-17  7.13626679E-17
 -1.72795220E-15  1.36968251E-16 -6.83940809E-17 -2.02578810E-15  4.28493095E-17
 -3.55034441E-17 -3.24981287E-16 -1.77722449E-16 -3.20658420E-17  1.04421933E-15
 -1.35474001E-16 -4.64773711E-17 -1.05412345E-16  1.78434832E-15  1.66635160E-16
 -7.82862385E-18  2.96567331E-16  1.66624060E-16  5.98970878E-16 -1.10588622E-16
 -2.25514052E-17  6.41847686E-17 -1.31838984E-16 -1.45369827E-15  5.17164436E-17
  1.11022302E-16 -8.32667268E-17 -1.27935856E-16  9.41361270E-01 -1.05957045E-16
 -2.60819973E-17 -8.18840659E-04  3.37399301E-01  7.86195599E-17  9.29319717E-17
 -1.12181452E-16  8.91841366E-17  2.64103044E-17  2.55428970E-16  1.00775497E-16
  1.86551555E-16  2.61164671E-16  1.27356158E-17  6.68431942E-18  6.74361188E-16
 -1.02308510E-17  1.21078746E-16 -1.53677434E-16 -2.43398741E-16 -7.23703270E-17
  4.32066651E-16 -1.87293554E-02 -3.93373948E-16  1.35885330E-16 -2.56408808E-02
  2.21203353E-16 -9.36159948E-17  1.21499627E-01  3.28211763E-16 -7.77612789E-17
  8.14432635E-16 -2.91480587E-16 -4.87244700E-16 -4.61738324E-16 -7.49021596E-17
  6.68750127E-16  6.19098872E-01  1.40716609E-16  8.14149083E-16  1.71047576E-01
  4.23509028E-16  3.31248118E-16 -3.90574625E-01  3.30198411E-17 -5.81320168E-16
 -4.61599822E-01 -1.73524879E-16 -6.65102201E-16  1.60487854E-02 -8.15440229E-17
  1.48793325E-16  3.77437823E-01 -2.70946272E-17  8.28978404E-16 -5.09308165E-17
  1.32328392E-01  4.74690118E-17 -5.09343379E-16  9.94461609E-03  8.03539147E-17
  3.06271814E-02  1.41124104E-17  1.12899283E-16  2.26189834E-03 -2.46967181E-16
 -1.23699338E-01  4.23372311E-17  3.51928234E-16 -8.51155882E-03  6.02075531E-16
  7.25908256E-02  3.28765585E-16  2.03823004E-16 -6.90282913E-03 -2.02548861E-01
 -6.47425063E-16 -1.46604548E-16 -1.05551793E-16 -1.36832608E-16  2.30139484E-16
 -1.89894879E-02  3.87302122E-16 -1.72938410E-16 -2.30898316E-02  1.86703471E-16
 -6.28531936E-17  1.27608508E-01 -2.88545715E-16  1.33813155E-16  2.58098978E-17
  1.85681812E-16 -8.28256330E-17 -2.23164339E-16  4.09222192E-02  9.41013555E-17
  8.20545263E-18  1.10143906E-01 -2.24819540E-16 -1.89667530E-17  5.53607851E-02
 -7.97379023E-17  9.04275457E-17 -2.82339172E-17 -4.28583237E-17  5.88369495E-18
  3.19800867E-17 -8.00673960E-18  3.26739341E-17  7.20848693E-02  1.30444652E-16
 -5.03363592E-17  1.71633414E-02 -1.49327221E-16  3.01398110E-17 -4.64305890E-02
  5.52980624E-17  5.47324607E-17 -6.62241307E-02  2.49246884E-17  4.88319294E-17
 -1.20081888E-01  3.16037267E-16 -1.42486228E-16 -1.98010481E-01 -1.46439381E-16
 -1.14891498E-16  7.62904571E-17  5.21665102E-01 -2.02098192E-17  1.03937185E-16
  7.52488074E-03  1.43493770E-16  9.87602997E-02 -1.73728265E-16 -1.43281043E-16
  1.67882197E-03  1.14624835E-16 -4.27726749E-01  0.00000000E+00 -1.89847382E-16
 -5.79756518E-03 -8.34080370E-17 -2.38734716E-01 -1.21067409E-16 -2.57248257E-16
  3.80741987E-03  6.66091282E-01  1.22489114E-16  8.67922952E-17  3.62453555E-17
 -4.31431376E-17  3.96172399E-17  3.41965303E-02  1.95103216E-17 -1.03988455E-16
  1.13898564E-01  4.68839734E-19  2.24616562E-16  6.04917042E-02 -6.55239476E-18
  1.07276960E-16 -6.64501356E-02 -3.77002482E-02  4.64585924E-03  1.41344223E-01
  5.07055715E-17 -1.51597364E-01 -7.92292824E-03  2.17309592E-16 -9.25303387E-03
 -5.62127200E-02 -4.02928202E-16  1.47791358E-01  5.43568352E-02  2.65090855E-01
 -1.17147751E-01 -2.37718400E-01 -2.43303181E-01 -2.48358697E-02  2.72615965E-01
 -1.13000988E-15  1.72552580E-04  4.70022914E-01  2.31796898E-16  8.02036217E-06
  9.63367650E-02  9.85136817E-16  1.85408455E-04 -3.26113865E-01  1.24590833E-15
  8.85011690E-05 -2.93406582E-01  6.63246984E-17 -7.24515131E-04  1.21886055E-01
 -1.03456202E-15  1.27020165E-03  3.50481704E-01 -4.48516894E-02 -4.26821849E-16
  4.77705800E-03 -1.10651781E-01 -2.48643585E-17 -6.82294897E-03 -2.65446102E-16
 -1.28769113E-04 -3.25512754E-03 -1.93826114E-17 -1.35386113E-02  1.92525669E-16
 -4.09138600E-03  1.08760248E-01 -4.43951259E-17  2.69581317E-01 -1.12973198E-16
 -3.13961724E-03 -5.91480174E-02 -2.47028194E-17  6.04784746E-16  2.68061489E-03
 -6.17633969E-02 -3.80665757E-02  2.16199576E-03  1.40974618E-01  2.76426211E-16
  1.48911014E-01 -4.97352014E-03  2.35803140E-16  6.12422257E-03 -5.71032007E-02
 -3.17405565E-16 -1.46658504E-01  5.62884062E-02  2.09415943E-01  5.48231819E-02
 -4.64492838E-02 -7.74910462E-02  2.80190536E-16  2.45448076E-01  1.13812874E-02
 -4.20285805E-16  1.59740550E-01  1.18495277E-01 -2.80190536E-16 -5.77513083E-02
  2.08141962E-01  3.06875913E-03 -1.00652452E-03 -3.95059903E-03 -3.66239958E-03
  1.36045361E-03  3.26210889E-03 -6.22645637E-17  3.25518766E-01  1.94091569E-03
 -2.80190536E-16  3.60146943E-03  1.50577400E-05 -1.24529127E-16 -2.53771146E-01
 -6.54667705E-04  3.11322818E-17 -5.90874275E-02 -1.02485992E-04  1.27447779E-16
  5.21986520E-02  1.71521657E-03  2.28354071E-16 -1.77798897E-01  9.88409370E-03
 -4.95002463E-03 -2.07716735E-16 -3.41821959E-01 -2.30565194E-02  1.07453233E-17
 -6.72345942E-04  1.78933295E-16 -3.58418751E-02  8.15338808E-04 -6.27323146E-17
  4.84352775E-03  3.55387831E-16  2.10828394E-01  1.88100250E-02 -1.58143682E-16
 -3.71200232E-04  6.89854200E-19  6.12269578E-01  1.03630363E-02  2.26623934E-16
  1.37244143E-16  3.50301309E-01 -1.98650838E-01 -5.08408947E-02  4.32688335E-02
  7.54287542E-02 -2.14193258E-17  2.25212844E-01  1.08760078E-03  1.20920965E-17
  1.56322141E-01 -1.25510641E-01  1.50019837E-16 -4.32825400E-02 -2.11063396E-01
 -1.66834019E-01 -7.27261833E-02  8.65955761E-03  7.95575166E-02 -1.74873728E-16
 -1.82465450E-01  1.52294164E-01 -3.57696262E-16 -4.14994440E-02  5.46598962E-02
  1.58976116E-16  1.78671727E-01 -8.88330760E-02 -7.07662829E-02  1.83195506E-02
  1.00535208E-01  4.62764791E-02 -4.57844542E-02  4.29548265E-02 -7.94880581E-17
  1.56694011E-02  9.60486092E-02 -1.90771339E-16 -6.55019844E-04 -6.06595553E-03
 -1.11283281E-16 -1.13598942E-02 -7.87331317E-02 -6.35904465E-17 -3.70382981E-03
  6.40557219E-02  1.64937721E-16 -4.80296091E-04  9.53295899E-02  2.32688870E-16
 -8.94815245E-04 -1.25356588E-01 -3.92248112E-01 -1.13587290E-19  6.46005836E-03
  6.12824885E-01 -1.05618139E-16  3.31781095E-02  9.30523589E-17 -3.21966051E-03
 -2.17833044E-02 -4.43635242E-17  3.95701589E-01 -5.51511746E-18 -3.31661357E-03
 -5.23956025E-01 -1.45311335E-16 -2.11198717E-02  4.58295950E-17  1.57168053E-02
 -1.98218233E-02  1.01401984E-16 -1.27611733E-16  1.98745013E-02 -1.70751402E-01
 -7.20026201E-02  9.10555864E-03  7.95195656E-02 -2.31092831E-17  1.91037258E-01
  1.39037888E-01  1.35422654E-17  4.88484551E-02  4.33786521E-02  2.31651289E-16
 -1.78168217E-01 -9.59917916E-02  9.88544208E-02 -6.69787519E-02 -5.68852313E-02
  7.54409290E-02  1.73557873E-17 -1.59346003E-01  3.57576902E-01 -2.69014702E-16
 -6.69003850E-02  1.54751433E-01  1.04134724E-16  4.09443334E-02 -5.43033321E-03
  2.48042354E-02 -3.19235153E-03 -3.20995142E-02 -1.69041577E-02  2.80799105E-03
  4.08066478E-03  3.81827320E-16  4.02156496E-01 -2.46773764E-02  2.42981022E-16
 -1.00698084E-01  6.55801207E-03  6.94231490E-17 -3.27490451E-01  2.01248475E-02
 -4.16538894E-16 -2.40620714E-01 -1.92221165E-04 -5.20673618E-17 -9.37951204E-02
 -3.38768097E-03 -6.39994655E-17  3.09891194E-01  1.05218920E-02  4.19830130E-03
 -3.02607642E-16  6.98567314E-01 -3.33158866E-03  4.86977527E-17 -1.95923951E-03
 -2.04027240E-16 -1.72227116E-01 -2.12011310E-03 -8.74240894E-17 -1.92625246E-03
 -1.22247637E-16 -3.17037231E-01  1.26957302E-02  5.60776213E-17 -1.40334590E-02
 -4.22189907E-17  1.08880790E-01 -1.75423244E-02 -2.25866685E-16  1.46947745E-16
  3.03085377E-01 -7.98099007E-02  7.04213321E-02  5.53472600E-02 -7.52275408E-02
  4.03344376E-16 -1.72398568E-01 -3.28175488E-01  3.01614807E-16 -5.98416923E-02
 -1.50731712E-01 -5.41938495E-17  7.81330769E-02  2.95983848E-03 -1.45783949E-15
 -3.24091820E-16  4.27907760E-16 -2.39192969E-16  5.30654994E-01  8.05173500E-17
  7.19305054E-16  1.38295797E-01  8.23240368E-16  3.10350634E-17 -1.16369985E-01
  1.42662649E-15 -1.28702807E-15 -7.66755460E-16 -3.21282784E-18  1.33825352E-15
  5.87489100E-16 -1.77853969E-16 -2.68931096E-16  3.98231584E-01 -2.39876036E-15
  2.42193061E-16 -1.35959903E-01  8.79956723E-16 -5.94425236E-16 -3.25579485E-01
  2.04804591E-15 -2.13197804E-16  3.05091717E-02  1.74793368E-17 -2.39471427E-16
  9.18876658E-02 -8.34868495E-16  3.19609310E-16 -1.48869171E-01 -5.36594382E-16
 -1.07128584E-15  6.53825449E-17 -4.25162647E-01 -3.82228878E-17 -4.03464227E-16
  3.15454540E-02 -4.99508262E-16  1.60623171E-01 -2.24140544E-16  2.47575652E-16
 -1.01688764E-02 -2.46944611E-16  6.09880927E-01 -1.26199952E-15 -1.99299913E-16
 -4.60516997E-02  7.16583958E-16 -1.68415547E-01  2.47221465E-15 -8.28550201E-17
  4.43961117E-02  4.69995716E-01  3.96069652E-16  1.53275917E-15  1.41791594E-16
 -2.08058515E-16  1.28708944E-16  4.28877552E-01  1.16908029E-15 -2.64190530E-15
  1.24151323E-01  7.19675341E-16  7.52753908E-17 -7.20219711E-02 -3.95553984E-16
  1.94655542E-15 -3.25464381E-01 -2.76835608E-02  7.38910138E-02  1.02286722E-02
 -2.47897387E-15  2.16690775E-01  3.82468834E-01 -2.55980998E-16  2.19160697E-01
 -4.74766487E-03  6.46688837E-16  1.07450464E-01 -3.11680770E-01 -5.87297273E-03
  6.14150159E-04  5.10850160E-03  3.57245045E-03  5.35901342E-03 -4.56718881E-04
 -2.08377514E-15 -4.32086933E-01  3.37244351E-02  3.23344418E-16  1.52504342E-01
 -1.15461627E-02  1.28439588E-15  3.71137808E-01 -2.70005842E-02  3.59271576E-17
 -2.90009273E-02 -3.71555379E-03 -2.60471893E-16 -2.02978604E-01  7.17024202E-03
  3.19976247E-16 -1.41422368E-01  2.62764127E-02 -1.90907726E-02  2.11601836E-15
  3.45839411E-02 -1.81098019E-02 -1.16477236E-16  5.11072076E-03 -5.24312778E-16
  2.63111665E-02  3.01848982E-03  7.42374275E-17  4.11527741E-02 -2.53752362E-15
 -2.59033840E-01  1.22308998E-02  3.32724609E-16 -1.94707679E-02  7.91058466E-16
  5.98911127E-01  1.54261179E-02 -2.36738611E-16 -2.04158280E-15  1.34944945E-01
  3.02742318E-01  3.68233327E-02 -6.91446344E-02 -2.34919314E-02 -1.96869767E-15
  1.01061081E-01 -3.12601016E-01 -6.42587518E-16  2.07074487E-01 -2.67453673E-03
  3.86372059E-16  1.61086102E-01  2.76539680E-01  4.75394126E-03  3.73382017E-03
 -2.26719999E-02 -1.01725466E-02  4.57435408E-15  4.36631215E-01  4.38124226E-01
  5.36601385E-16 -3.37432756E-02  1.79420087E-03  2.72906713E-16 -4.14985892E-01
 -1.82015617E-01  2.09003637E-01 -6.33903895E-03 -2.98458697E-01 -1.66065342E-01
  5.35380199E-02  9.68555658E-02 -4.72232249E-15  1.73495437E-02  1.27737751E-01
  4.39068902E-15 -7.43606470E-03 -5.23684713E-02  2.08422426E-15 -1.62932277E-02
 -8.87677072E-02 -4.37917397E-15  9.52797154E-03  2.99276310E-02 -2.73943068E-15
  2.15494648E-02  6.85770684E-02  8.18029236E-15  6.04088512E-03  2.72159833E-01
 -2.05308385E-02 -1.48313859E-15 -1.90118472E-02  1.05784373E-01  3.54487252E-15
 -1.47378979E-02  1.65567432E-15  5.57692707E-03 -6.93259458E-02 -3.33154638E-15
  3.21030910E-01  1.12981947E-15  2.79570128E-02  3.92438697E-02 -1.75328113E-15
 -2.90199030E-01 -1.03211234E-15 -7.01010602E-02  1.81949551E-02  6.37060619E-16
  3.00862702E-15 -3.12000223E-02 -3.29435566E-02 -5.09233313E-03 -1.65654892E-02
 -3.91267717E-03  5.49725221E-15 -4.56280681E-01  5.21766990E-01 -1.80359397E-15
 -7.86061439E-03  1.74639225E-02 -3.95064623E-15  3.85211702E-01 -2.21110302E-01
 -2.05008602E-01  4.65707461E-02  4.09959153E-02 -9.10898833E-02  4.91916526E-15
  2.91147633E-01 -6.79920472E-02  2.27038396E-16  1.28586610E-01 -7.84970638E-02
 -2.74338062E-15  7.79088090E-02 -2.93991295E-02 -4.29087369E-01 -4.64640195E-03
  5.70054168E-01  2.96669485E-01  2.04108187E-02 -1.27444601E-01 -7.00035056E-16
  2.91234945E-02  5.16546265E-01  6.81115189E-16 -1.37811016E-02 -2.45190752E-01
  9.08153586E-16 -2.38334397E-02 -4.04010774E-01 -1.46628964E-16 -7.23663077E-03
  4.31709269E-03 -3.21637728E-16  2.28712287E-03  3.47431197E-02  1.00275292E-15
  3.29861974E-02  5.39583847E-02 -1.28091984E-01  3.62433690E-16  3.81699071E-02
 -3.58222165E-01  1.72809895E-15  6.62091292E-02 -3.42926836E-16 -1.85453747E-02
  1.72849069E-01 -8.86984880E-16  2.24886796E-01 -1.20784691E-15  2.26577246E-03
  5.55153781E-02 -4.34876680E-15  6.74055728E-02  1.87873153E-16 -3.55875017E-02
  3.02729616E-01  4.92078153E-15 -5.69292566E-16  1.27478297E-03 -2.66822544E-01
  5.36452186E-02  6.38523264E-02 -9.86195702E-02 -5.64290909E-15 -3.23557909E-01
 -4.99238870E-02 -8.63772464E-16 -1.64117231E-01 -9.21735025E-02  1.95741397E-15
 -9.03641626E-02 -6.37146599E-02 -1.61473840E-15  4.65582611E-16  1.80584306E-16
 -8.13494003E-16 -6.55032697E-01  3.02473214E-15 -2.50961896E-16 -6.32563300E-02
  1.18142268E-15 -1.08485581E-15  3.15300080E-01 -7.45104044E-17  1.18351902E-16
 -3.03666588E-15  4.81745121E-17  4.56802988E-15  2.27602140E-15  1.69373545E-17
 -9.82992365E-16  5.39483824E-02  3.86857608E-16  3.76708920E-15 -2.69288586E-02
 -1.76485637E-17 -1.73654982E-15 -4.22509989E-02  8.15468681E-17 -3.04316207E-15
  1.49792510E-02  1.09674211E-16 -4.96559352E-16  1.43714514E-02 -1.95554592E-16
  9.85212877E-17 -3.79060876E-02  2.84545361E-16  1.18213202E-15 -1.01973172E-15
 -2.68376992E-02 -8.82969143E-17 -2.73243965E-15 -2.09077366E-01  6.29366039E-16
  1.52586239E-02  3.17328066E-16  1.21013371E-15  9.22444584E-02  1.83523638E-15
  4.81464774E-02  1.31511293E-16  5.59743075E-16  5.20891306E-01  5.34395094E-16
 -1.49073435E-02 -4.58052938E-16  2.42386346E-15 -6.32224972E-01  4.00578906E-02
 -6.59401647E-16 -2.63617610E-15  4.22964720E-16  7.04774206E-16 -7.84623990E-16
  7.16576674E-01 -2.75739850E-15  5.58918296E-17  9.27483867E-02 -1.48066981E-15
 -8.68550736E-16 -3.17996530E-01 -5.69567340E-16 -7.92761568E-16 -5.28951378E-17
  6.66342262E-16 -2.50284710E-17  1.13231685E-16  4.39556390E-01 -6.10874991E-15
 -4.92007607E-15 -1.18736878E-01  1.96389591E-16  4.39292506E-17 -2.66178989E-01
  6.28446691E-15  3.63837558E-15 -2.16545365E-15 -3.51434005E-16  2.64609133E-15
  1.71065670E-15 -5.27151008E-16 -9.71611661E-16 -4.75546131E-01  4.85805831E-16
  9.30266484E-17  3.31453930E-01 -4.13451771E-16 -9.92284250E-16  3.48560411E-01
 -1.44708120E-16 -1.03362943E-16 -3.18899610E-01 -4.13451771E-16  1.82952409E-15
 -2.64761468E-01  7.06744120E-16  1.86053297E-16  9.34206248E-01 -2.64609133E-15
 -5.54025373E-15 -1.35296817E-16  1.39655254E-01  7.44746760E-16 -1.06053949E-15
  1.58118366E-02 -1.94082529E-16 -1.21836737E-01 -5.57802861E-16  3.69221239E-16
 -1.24065166E-02 -2.51253175E-15  3.93248866E-02 -1.80017520E-15  1.40445912E-15
  6.83857362E-03  2.64092319E-15 -7.58063919E-02  1.51426711E-15 -1.66414338E-15
 -2.34391861E-02  2.11446817E-01 -1.44708120E-16  4.62403814E-15 -7.89414287E-16
 -8.55345384E-16  5.83675151E-16  4.89628926E-01  5.46036518E-15 -5.26468985E-15
 -1.24966814E-01  4.39234457E-16 -3.44367701E-16 -3.09932707E-01 -4.02808075E-15
  1.81047405E-15 -5.59440229E-01  1.09364146E-01  2.31903011E-01 -1.02779103E-01
  2.17988824E-15 -3.74667167E-02  1.90403001E-02 -3.35367422E-16  5.15918707E-02
 -1.49928461E-01 -1.10042435E-15 -2.00371883E-02 -1.07304797E-01 -1.26443057E-01
 -2.51688960E-02  1.83120124E-01  1.40808008E-02 -4.32500351E-02  2.12368716E-02
 -1.17378598E-15  5.13049089E-02 -4.36266829E-01  1.34146969E-15 -3.71103153E-02
  3.16609098E-01  1.36243015E-15 -3.61223876E-02  3.09539236E-01 -1.76067896E-15
  2.78961151E-02 -3.12783598E-01 -1.13186505E-15  3.66909334E-02 -3.35637987E-01
  2.59909752E-15 -7.90361771E-02  8.10768539E-01  2.27211284E-01  1.35588001E-16
  1.67228748E-02  1.14619059E-01 -1.68215910E-16 -1.84737406E-01 -9.90425415E-16
 -6.03788542E-03 -5.24493822E-02  3.21787667E-16 -1.65762296E-01  2.94375731E-16
 -2.38012875E-02 -2.52824701E-01  3.58010098E-17  1.32732899E-01 -3.01903827E-16
  4.71904561E-03  2.25358176E-01  1.66945329E-16  8.52880316E-16 -1.33641770E-02
 -4.30123339E-01  7.44465622E-02  1.68973314E-01 -7.69057874E-02  1.45409442E-15
  9.04999402E-03  3.83315779E-02 -2.76936015E-16 -2.53400413E-02 -1.55074600E-01
 -6.41762105E-16  3.07888826E-02 -1.33354020E-01  5.34560959E-01 -1.38614988E-01
 -2.69222745E-01  1.01558516E-01  1.95321490E-15  1.84404339E-01  5.89408276E-02
 -5.09534322E-16 -9.79791872E-02 -2.56343340E-02 -8.49223870E-16 -6.13031001E-02
 -8.97385248E-02 -1.26880229E-02 -2.98327274E-03  1.97208801E-02 -1.06938434E-03
 -9.08707269E-03  9.21919632E-03 -1.69844774E-15 -4.93381985E-01 -6.14161698E-02
  9.76607450E-16  3.70854231E-01  4.63178134E-02  1.48614177E-15  3.42547825E-01
  4.21742007E-02 -1.65598655E-15 -2.76022853E-01 -3.99164608E-02 -8.06762676E-16
 -3.46331011E-01 -3.69758672E-02  3.14212832E-15  7.27112758E-01  9.52226350E-02
  2.30895816E-02  8.87704326E-16 -1.28169037E-01  1.63104003E-02  7.50949428E-17
 -2.01980055E-02 -7.45680653E-16  1.76916299E-02 -6.92220754E-03 -1.55330041E-17
 -1.79598007E-02  4.74522225E-16  1.91041297E-01 -2.34735674E-02 -3.02791386E-16
  1.27887490E-02 -2.58704808E-16 -3.34003148E-02  2.01249239E-02  1.40539402E-16
  6.97783692E-16  1.37210916E-01 -6.19145066E-01  1.49169076E-01  3.04726212E-01
 -1.10867016E-01  1.26413381E-15  2.11454990E-01 -2.88188766E-02 -3.54516785E-16
 -9.90254630E-02 -4.27638264E-03 -7.91061052E-16 -7.02733973E-02  5.05438522E-02
 -1.65963707E-16  4.48110909E-16 -3.81333055E-16  2.72924521E-16 -1.62704400E-01
 -2.65975142E-15 -2.71122150E-15  2.90273548E-01  2.55959341E-16 -7.01106022E-16
  6.38141385E-01  2.08662506E-15  1.66930005E-15 -1.70268605E-15 -5.34176016E-16
  2.31476274E-15  5.84255018E-16 -5.92601518E-16 -6.12076686E-16 -6.50806931E-03
 -6.67720021E-16  0.00000000E+00  5.72912498E-03  2.89345342E-16 -2.22573340E-17
  3.07318711E-03  5.78690685E-16 -4.45146680E-16 -5.98071717E-03 -9.70976197E-16
  9.45936696E-16 -3.31038523E-03 -3.22731343E-16 -5.34176016E-16 -2.55363627E-02
 -7.56749357E-16 -8.01264025E-16  2.10232561E-15 -1.33113425E-02  3.53768742E-16
  1.54838961E-15  8.66948779E-01 -1.69508041E-15  1.32364419E-02  3.91797431E-17
 -1.88519564E-15 -8.13358486E-01 -2.40551847E-15 -1.62880306E-03 -3.01249086E-16
 -2.65355777E-16 -4.27478192E-01  1.96412278E-15  2.61465749E-03  5.24960089E-16
 -5.50869017E-16  9.39724362E-02 -7.06696437E-03 -1.78058672E-16  4.11760679E-16
 -2.97344072E-16  3.33860010E-17 -9.88836004E-17  1.17179527E-01  3.05899969E-15
 -2.88738638E-15 -2.76656021E-01  6.84416395E-17 -1.25580975E-15 -5.98385266E-01
 -1.32981429E-15  8.29983140E-17  5.25383845E-01 -1.92374785E-01 -2.20505177E-01
  1.98035345E-01 -7.99946221E-16 -1.04664285E-02  2.61788649E-01  7.29362731E-16
 -9.79089136E-02 -3.97995476E-02  6.58779241E-16  3.16781238E-01 -4.07499129E-01
 -4.50354239E-01 -1.69747630E-01  6.55189684E-01  8.04171840E-02 -3.13922547E-01
  3.49446139E-01  5.64667921E-16  2.28019272E-02 -1.71419917E-01  1.04110648E-15
 -2.27841019E-02  1.74093981E-01  9.41113201E-17 -8.85607261E-03  4.59423208E-02
 -9.88168861E-16  2.14701556E-02 -1.66414077E-01 -5.41140091E-16  4.23070511E-03
  1.23664095E-01 -1.69400376E-15 -1.63357339E-02  4.06141384E-01  1.47692096E-01
 -1.54695482E-15 -9.32852980E-03  7.40981950E-03 -4.70188978E-16 -1.63338784E-01
  4.83699099E-16  1.21616167E-02 -4.24397540E-02  7.68679294E-16  1.29026593E-02
 -4.90320918E-16  1.23286358E-02  2.86419032E-01  1.87382996E-16 -1.82444815E-01
  4.95561273E-17 -7.13971075E-03 -3.03486078E-01 -2.12163368E-17 -8.91524113E-17
  1.75662413E-04  5.30507992E-01 -1.91922682E-01 -2.39894234E-01  1.94317959E-01
 -5.17673305E-16 -1.79352386E-02  2.31979980E-01  5.88718420E-16  9.47555025E-02
 -2.55339552E-02  7.48747525E-16 -3.09193418E-01 -3.69025150E-01 -4.41019035E-02
  8.29850851E-02  1.00546311E-01 -3.29438256E-02  2.07928027E-16  1.00133917E-01
  2.17398277E-01  6.50905129E-16  2.19035174E-02  1.55466638E-01  1.86833880E-16
  3.08528884E-01  3.03336709E-01  7.13014665E-02  2.92357330E-02 -8.07360481E-02
 -5.92047732E-03 -3.31568781E-02 -8.97629874E-02  1.24154126E-15 -4.96456728E-02
 -4.49294469E-01 -1.77944203E-15  5.26033970E-02  4.76353214E-01 -9.64303895E-17
  1.21820704E-02  1.55430971E-01  1.67547802E-15 -4.01695880E-02 -4.61168308E-01
  5.54474740E-16  1.36525731E-02 -2.31169018E-01  1.32591786E-15 -6.11479102E-03
 -4.32658458E-02 -7.12496527E-01  1.35002545E-15  3.65102607E-02 -4.19605485E-01
  2.12146857E-15  7.71059303E-01 -1.82313705E-15 -4.36680389E-02  4.68945498E-01
 -2.48998050E-15  2.89662133E-01  2.99980050E-16 -4.23788171E-02  2.84013930E-01
 -1.06711844E-15 -1.73540553E-01 -3.89378979E-16 -5.12893368E-03 -9.18505536E-02
  5.53124999E-16  2.88909370E-16 -2.37341377E-02  8.37119252E-03  7.66030146E-02
  1.17400040E-01 -1.08085984E-02  4.66862771E-16 -1.19160120E-01  3.33570642E-01
 -1.05862901E-15  1.63690349E-02  1.12640287E-01 -3.13527272E-15 -3.00122684E-01
  1.53091130E-01  1.91035385E-01  3.70725735E-04  1.36280826E-01  9.18929172E-02
  7.84301503E-16  1.48095690E-02  4.56279625E-01 -4.53424307E-16 -2.21394630E-01
 -2.29545234E-01 -1.20096168E-15 -1.34257472E-02 -6.61362257E-01  1.96060277E-02
  8.70709151E-03 -2.55414155E-02  2.12175155E-03  9.10705209E-03 -2.51243939E-02
  1.76467838E-15  4.90841497E-01 -4.08732193E-02 -1.75242367E-15 -5.39714592E-01
  4.48677824E-02  7.10773237E-16 -9.85140679E-02  1.20739793E-02  1.96075376E-15
  4.61217239E-01 -4.70577859E-02  5.88226127E-16 -8.58402905E-02 -2.75175107E-02
  2.64701757E-15 -4.57707585E-03 -9.44383797E-03 -7.92719933E-02  2.91662122E-15
 -4.08284388E-01 -5.15730156E-02  1.30206304E-15  8.85764839E-02 -3.94601694E-15
  4.85746510E-01  5.91444440E-02 -1.05622085E-15  2.24878741E-02  4.65478720E-16
  4.34788245E-01  1.61268702E-02 -4.99539538E-16 -1.05728495E-02 -1.18099450E-16
 -1.14711152E-01  7.09011729E-06  6.58267796E-17  1.66944739E-16  1.46835985E-01
 -2.44928759E-01  3.55279765E-02 -8.83760277E-02 -1.14376272E-01  1.36028778E-15
 -1.05572652E-03 -4.01580396E-01 -1.89795373E-15 -2.32811044E-01  2.51926274E-01
 -3.18131636E-15 -5.79021778E-02  7.24642017E-01 -1.92945521E-16  1.83459461E-15
  1.42753446E-15 -9.22043829E-16 -8.09273120E-02 -2.26403599E-15  1.63718302E-15
  2.29865181E-01 -2.16156194E-16 -2.10071797E-15  4.44087140E-01  3.82036058E-15
  5.89225773E-16 -8.19792380E-16 -2.30566607E-16 -6.40462797E-17  6.21248913E-16
  1.51789683E-15 -2.02386244E-15 -5.75425690E-01  2.04948095E-15 -1.17845155E-15
  6.92049079E-01 -2.66432523E-15  1.51149220E-15  7.82238055E-02  8.19792380E-16
 -6.14844285E-16 -7.66444530E-01  1.30654411E-15  3.33040654E-16 -2.78732180E-01
 -4.48323958E-16 -2.34409384E-15 -2.86754725E-01  1.28092559E-16 -1.51149220E-15
 -3.04542686E-15 -7.15077066E-01 -1.53950644E-15 -9.52499241E-17 -2.60417876E-02
  3.74606282E-15  8.86526570E-01  2.52649495E-15 -1.03443734E-15  3.17414901E-02
 -1.20956207E-15 -5.58898898E-02  1.97774003E-15  3.66983666E-15  5.94339019E-03
  9.34260153E-16 -2.55707266E-02 -1.66263892E-16 -3.33550398E-16 -8.30083966E-03
  7.13234868E-02  3.88280571E-16 -1.89576988E-15  1.43463666E-15  1.43463666E-15
 -1.05055913E-15 -6.41463440E-02  2.02192179E-15 -3.14577420E-15  2.45052048E-01
 -2.92032128E-15  1.39137684E-15  4.64261844E-01 -1.99458472E-15  4.40196895E-15
 -4.82097695E-01  3.16408658E-01 -1.51682445E-01 -1.90980075E-02  1.18729796E-16
  6.11433841E-01 -7.13430481E-02 -3.85871838E-16 -5.06945934E-01  2.33870745E-02
  5.93648982E-17 -6.30266436E-01  1.87427394E-01 -1.75493958E-02 -1.31452669E-02
  1.70604738E-02 -1.48094844E-02 -1.26994645E-02  1.68664621E-02  8.60791024E-16
  2.31829491E-01 -8.80051128E-04 -1.54348735E-15 -3.52354374E-01  1.26639586E-03
  1.24666286E-15  2.34145220E-02  6.95772055E-04  2.37459593E-16  3.31851075E-01
 -2.62582372E-03 -1.39507511E-15 -1.31322476E-01 -1.01190593E-02  3.56189389E-16
  8.69258400E-01  2.29497490E-03 -2.12287791E-02 -5.84373217E-16 -1.60934949E-01
  1.33266989E-02 -5.19442859E-17  3.21872733E-02  9.16445616E-16  2.72506189E-01
 -1.91494650E-02  1.49339822E-16 -2.28422861E-02 -4.29504169E-16 -7.11743802E-01
 -6.63282593E-04 -4.16702888E-17  5.67941045E-03  6.38229724E-18  2.66974970E-01
  6.52631529E-03  2.80405051E-17 -9.35153419E-17 -1.76624028E-01  5.01465620E-01
 -3.40293362E-01  1.22631088E-01  3.64518477E-02 -5.80154345E-16  5.78886689E-01
  3.88679022E-02  6.46350462E-16 -4.93785526E-01 -1.05660064E-02 -1.33024413E-16
 -6.15213835E-01 -1.80028205E-01  3.11527249E-02 -7.05450229E-02 -2.66029427E-02
  4.31121090E-03  1.10609075E-15 -3.18404329E-02 -6.99390547E-02 -7.77720061E-16
  2.14945910E-01 -4.81833859E-02 -1.02927890E-15 -1.67959625E-01  2.29764667E-02
 -2.25226414E-01 -1.78103490E-01  1.99626776E-01 -1.28185452E-01 -6.94262245E-02
  1.01717382E-01  2.50790716E-15 -4.79655143E-03  2.83064639E-01 -2.00094890E-15
  7.66445991E-03 -4.50836100E-01 -1.15217787E-16 -9.25873625E-04  1.72150826E-01
  2.22754388E-15 -8.70213194E-03  1.94522727E-01  3.84059289E-17  6.06955281E-03
 -5.28820897E-01  3.99421661E-16 -2.09205411E-02  3.47684966E-01 -6.68073061E-01
  1.10609075E-15  8.84475378E-03  6.32173095E-01 -7.37393835E-16  1.06672923E+00
 -1.96638356E-15 -1.40721355E-02 -1.01463964E+00  1.16754024E-15 -6.91552390E-01
  3.81658919E-16  2.39455704E-02  5.68151324E-01 -5.35702699E-16  1.72631817E-02
 -8.94513091E-17 -5.99674118E-03  2.59159785E-02 -2.43066176E-16  2.33058635E-17
  4.91785883E-03  2.21743047E-03 -5.67910630E-02 -3.39334395E-02  4.40484825E-03
 -3.25541704E-16  6.06610837E-03 -8.18040319E-02 -2.11272547E-16 -1.94676691E-01
 -3.53429105E-02 -9.85404982E-16  1.95193212E-01  3.39368578E-02  7.02715933E-16
  1.71735373E-16  1.06441421E-15 -2.43879595E-15 -7.79613689E-02 -3.57357016E-15
  1.57240683E-15  7.96382797E-02  2.54519367E-15 -1.11802696E-15 -2.22831045E-01
  2.49544397E-15 -1.37408471E-15  9.28918181E-16  1.58556728E-16 -1.30705937E-15
  2.10307977E-15  2.30801701E-15 -6.64883981E-16  5.56480334E-01  2.17812531E-17
 -1.05838820E-15 -9.21022215E-01 -1.51776165E-16  5.15348689E-16  4.10680381E-01
  1.51051152E-15 -6.18750489E-16  5.77823352E-01 -8.92216473E-17  1.02286834E-15
 -7.60616444E-01 -3.16061818E-16 -3.07462942E-16  6.86647322E-01  1.69952399E-16
  5.62016540E-16  8.50865996E-16 -6.73723870E-01 -3.38796211E-16  6.25527771E-16
  1.89342368E-03 -2.14378578E-15  1.10788998E+00  1.04730380E-15 -8.17520322E-16
 -2.94776375E-03 -1.22083810E-16 -8.17249312E-01  4.11350847E-16  2.53138810E-15
  1.47673932E-03 -3.36303582E-16  7.81417287E-03 -4.81098862E-16 -1.50088982E-15
  1.08001532E-03 -2.17993200E-02  3.80346461E-16 -1.17247316E-15  1.64937303E-15
  2.09724967E-15 -1.17782804E-15 -8.50582134E-02  5.29627373E-16  1.65903798E-15
  8.94849492E-02  3.08784616E-16 -1.71140786E-15 -2.31591067E-01 -9.46610119E-16
  6.36343337E-16  1.31007844E-01  1.04910482E-01  4.96668062E-01 -2.68200183E-01
  1.98722750E-16 -5.81782616E-01  4.63944137E-01 -9.27372831E-16  3.25412578E-01
 -1.95037572E-01 -2.46747414E-15  3.71579465E-01 -2.77536117E-01  4.86977583E-01
  4.39300601E-01 -2.04080468E-01  6.09277917E-01  3.08057212E-01 -5.14776850E-01
  3.31204583E-16  1.95943161E-03  3.54961342E-01  9.50143146E-16 -3.99540303E-03
 -6.23295773E-01 -2.23563093E-15  2.52175876E-03  2.53622363E-01  2.64963666E-16
  1.27849720E-02  6.28189073E-01  4.60374370E-15 -2.36656982E-02 -3.21835988E-01
 -2.51715483E-15  2.43621059E-02  5.08162634E-01  7.88079778E-02  2.84835941E-15
 -2.85386313E-02 -1.42585853E-01  1.32481833E-16 -1.42254992E-01 -3.31204583E-15
  4.02101405E-02  2.87032227E-01 -2.38467300E-15  8.05664399E-02  9.68773404E-16
 -4.40278366E-02  4.18591413E-01  2.61625745E-15 -2.19526358E-01  7.60088642E-17
  4.24803333E-03 -4.46580368E-01 -1.31629260E-16 -8.50806535E-16 -3.55435228E-03
  1.74064224E-01  7.75842934E-02  5.08670700E-01 -2.63450918E-01  7.82441576E-16
  5.77511499E-01  4.83006745E-01 -2.91186480E-15 -3.31278081E-01 -2.27389682E-01
  2.68741145E-15 -3.81625902E-01 -3.08995548E-01  1.11172432E-01 -1.44125912E-01
 -1.47413640E-01  6.27070560E-02  1.49471739E-15 -3.61007639E-01 -4.94632773E-01
 -1.72170886E-15  3.27540570E-01  7.75172990E-01 -4.45417218E-16  4.74390997E-01
  1.93756670E-03 -1.68523063E-02 -1.59961745E-02  6.65983300E-03 -1.50838037E-02
  9.50446657E-04  3.45633034E-03 -1.71314315E-16  3.35274001E-01 -1.07392126E-02
  4.88245797E-16 -6.08218824E-01  1.94911790E-02 -6.50994395E-16  3.72387741E-01
 -8.26679039E-03  6.85257258E-17  1.05143826E-01 -2.20863247E-02  1.73027458E-15
 -9.04908889E-01  8.80023091E-03 -1.09641161E-15  1.39547639E-01 -2.33555525E-02
  8.20313927E-03  6.85257258E-17 -5.42956909E-01  2.95805676E-02  9.59360162E-16
 -1.45599732E-02  3.42628629E-16  9.49859893E-01 -5.32137472E-02 -1.50756597E-15
  2.09346161E-02 -6.76691543E-16 -8.01259759E-01  2.86457971E-02  2.16926751E-15
  1.75027290E-03 -1.93531640E-16 -1.58998066E-02  1.21069282E-02 -2.39628825E-16
  3.72284492E-16  1.43467998E-03 -1.36786092E-01  1.53531006E-01  1.33019178E-01
 -5.78175933E-02  4.56625525E-16 -4.01628658E-01  4.78168660E-01 -7.66365523E-16
  3.34025704E-01 -7.84308397E-01  1.52996294E-15  4.78825669E-01  3.99591439E-02
 -2.20254242E-01  4.27565535E-01  1.22056182E-01 -2.04424003E-01 -1.87812085E-16
  1.61730463E-02  2.33651887E-01 -2.17325413E-15  2.45125412E-01 -4.98875884E-01
 -5.04409600E-15  2.32671169E-01  2.86472074E-01 -8.61456168E-02 -8.55807596E-02
  8.02892448E-02  1.23521402E-01  3.46230807E-01 -3.18348436E-01  7.15474609E-16
  3.38064184E-03 -3.65894789E-01  1.18053311E-15 -6.68211909E-03  6.93407047E-01
 -4.20341333E-15  3.63165379E-03 -5.10594771E-01  3.00499336E-15  1.73279225E-02
 -2.80676052E-01  4.50749004E-15  1.31721666E-02  6.48030766E-01 -2.50416113E-15
  1.31541263E-02 -5.45521447E-01  2.37659896E-01  2.79035098E-15  2.80322718E-02
  5.90549595E-01  5.72379688E-16 -4.50422072E-01 -3.93511035E-15 -5.50115051E-02
 -1.08176875E+00 -2.57570859E-15  4.35888100E-01 -4.06926184E-16  3.48924159E-02
  1.09213570E+00  4.80038746E-15 -7.51258314E-02  5.10055141E-17  1.43609091E-03
 -1.22041592E-01 -4.88056830E-16 -6.96909781E-16 -3.02740219E-03 -2.00036779E-01
  3.95306651E-01  1.32802387E-01 -1.94242432E-01 -8.95270731E-17  2.55334495E-02
  2.19610336E-01 -2.20440412E-15 -2.67418940E-01 -4.56961753E-01  1.74043913E-15
 -2.73127210E-01  2.90914972E-01 -3.34388760E-16 -2.97451555E-16 -2.53435038E-15
  3.42180684E-15  1.92311723E-01  5.68151199E-15  5.78848606E-16 -3.73497540E-01
 -9.75603564E-15 -2.51032496E-15 -7.56272158E-01  2.67672908E-15  2.66246587E-15
  0.00000000E+00  6.84634080E-16  1.00793351E-15 -2.16325352E-15 -3.58957452E-15
  2.62443064E-15 -1.41418672E-02 -1.63551475E-15  2.51983377E-15  2.84282450E-02
  3.00478291E-15 -4.77342095E-15 -2.37685616E-02 -2.96674768E-15  5.03015873E-15
  6.48506324E-04  4.42159510E-16  1.90176133E-17  4.94761548E-02  2.45327212E-15
 -4.64029766E-15 -1.72987235E-02 -1.92077895E-15 -7.60704534E-17 -1.33650940E-16
 -1.97427429E-02  6.62166579E-16 -1.32536306E-16  7.94122408E-01  4.05519756E-16
  3.73837830E-02 -2.55254518E-16  7.46591910E-16 -1.52630591E+00 -2.16257480E-15
 -4.75134438E-02  8.59152129E-16 -3.91288607E-15  1.76641188E+00  1.50012243E-15
  1.47861180E-03  6.44261787E-16  2.06246039E-15 -7.58199610E-02 -4.30941126E-03
 -5.88694377E-16  1.34138383E-15 -1.82265192E-15 -1.83622718E-15  4.19107154E-16
 -1.53931937E-01 -3.34709995E-15 -4.56422720E-16  2.97562962E-01  5.70528400E-15
 -2.89067723E-15  7.45873671E-01 -2.28211360E-15  5.17279083E-15  1.50576897E-01
 -2.91026630E-01  3.86482074E-01  8.56736140E-02  6.81903445E-16 -1.83877399E-01
  3.71204087E-01 -2.46009781E-15 -5.54432250E-01  5.36706515E-02 -1.01760976E-15
 -4.75435664E-03  1.63750589E-01 -1.18154984E-01 -1.41349895E-01  5.40882434E-03
 -7.07679947E-02  2.32579455E-02 -1.13956992E-02 -8.81229067E-16 -5.57925859E-01
 -8.98916972E-03  1.72049485E-15  1.22111319E+00  1.99057884E-02 -3.36755393E-15
 -1.17390168E+00 -2.83820443E-02  1.93031129E-15 -4.00112982E-01  4.30080237E-03
  5.24541111E-15  6.80773427E-01  3.75888880E-02  0.00000000E+00 -3.85800588E-01
 -2.77165171E-02  1.69788649E-03 -5.03559467E-16 -6.60895667E-01 -1.16089237E-02
 -1.09104551E-15 -3.10517473E-03  3.35706311E-15  1.43132324E+00  2.35206619E-02
  2.18209102E-15  6.50106408E-03 -4.25927382E-15 -1.00223810E+00  6.54033591E-03
 -2.47583405E-15 -1.07772625E-02  1.25889867E-16 -5.09908055E-02 -2.24284403E-02
  1.83589389E-17 -5.65193047E-16  3.97309326E-02 -1.74126507E-01  3.19186110E-01
 -3.51212120E-01 -1.12697984E-01  7.96334655E-16 -9.69074806E-02 -3.23256600E-01
 -1.55984202E-15 -6.80302641E-01 -1.03209319E-01 -3.84977441E-15  7.87868871E-02
 -1.30811804E-01 -2.22788126E-02 -9.72656949E-02  2.04951559E-02  1.56680319E-01
  7.02003263E-15  6.14824337E-01  1.50564724E-01 -1.52287694E-14 -1.01611098E+00
 -3.51508617E-01  9.11696019E-15  7.14655445E-01  7.72413167E-01  1.60276257E-01
  1.93269447E-01 -6.52503163E-02 -5.72118002E-02 -2.79986749E-01  3.18055619E-02
 -1.01507321E-15 -1.90387658E-02  4.43561900E-01  2.73535518E-15  4.26197062E-02
 -9.85679790E-01 -2.59645043E-15 -4.30378636E-02  1.09792903E+00  2.87425994E-15
 -1.60930536E-02 -2.90323833E-01  1.14062174E-14  3.42328940E-02 -8.02008385E-01
 -4.59454191E-15 -2.14743411E-02 -7.51297148E-02  2.58499178E-01 -2.60713541E-15
 -1.82615239E-02  2.04049276E-01 -6.64872954E-15 -5.65286305E-01  6.11180923E-15
  4.62332558E-02 -4.52483225E-01  1.17000544E-14  5.53623135E-01 -1.12406002E-14
 -2.37406719E-02  2.41919252E-01 -1.14542998E-14  9.24014121E-02 -3.41919398E-16
 -6.10782128E-03  2.02001301E-01  1.06849812E-16 -2.01946144E-15  7.99849906E-04
 -4.53574922E-02 -6.63741202E-02 -1.28598622E-02  1.43092551E-01  4.22187889E-15
 -6.01816820E-01  1.00470416E-01 -1.03628412E-14  9.46769972E-01 -3.15224138E-01
 -8.53440995E-15 -7.09564460E-01  7.57744924E-01 -7.99878884E-17 -1.15774601E-15
  2.66753390E-15  1.09649083E-15 -7.54584974E-01  2.08415783E-15  4.57417798E-15
  1.47791430E+00 -5.57237988E-15 -8.77540139E-15 -6.24572589E-02  3.11526749E-15
  6.89965934E-15  1.01355886E-14  1.28779015E-14  5.59431839E-16  7.28358315E-15
 -7.89786125E-16 -4.60708573E-15  1.57932974E-01 -3.20302151E-15  2.85200545E-15
 -3.55355190E-01  8.68764738E-15 -6.80093608E-15  3.77974061E-01 -1.03549736E-14
  6.49379703E-15 -3.18070712E-01  4.19025416E-15 -2.36935838E-15 -1.32512916E+00
 -4.10798478E-15 -2.34330640E-15  4.74928641E-01  3.59791457E-15 -4.38770070E-16
  2.10097939E-15  3.60846876E-01 -4.03452543E-15  4.25530272E-15  2.75587406E-02
 -3.41407991E-15 -7.37176376E-01  7.97505473E-15 -7.47375522E-15 -5.92427714E-02
 -6.51071448E-17  1.25143448E+00 -3.78959964E-15  1.94464666E-15  7.54107337E-02
  1.43531347E-15 -3.55896291E-02 -1.70616610E-15  2.09887863E-15  1.82975490E-03
  9.93013221E-02  2.18101039E-15 -1.13331036E-15 -1.64158966E-15 -3.94629095E-15
  3.65117733E-15 -7.28586664E-01 -1.45671663E-14  1.40406422E-15  1.43695128E+00
  1.84283429E-14 -9.06060194E-15  7.33280527E-02 -1.41722732E-14  4.91422478E-15
 -1.38487404E-01  2.03185805E-01 -4.01863960E-01  1.34111706E-01  2.42090252E-14
  4.21678150E-01 -4.10589016E-01 -4.51663901E-14 -3.77417470E-01  3.73470610E-01
  3.05353460E-14  2.67169198E-01 -5.20124083E-01  1.52330777E+00  1.96767435E+00
  4.32994494E-01  9.92970746E-01 -3.26208195E-01  2.31618658E-01  1.69006402E-15
 -3.56870845E-02 -1.52926060E-01 -3.88257952E-15  8.36548314E-02  3.54985648E-01
  6.80593350E-15 -9.70876619E-02 -3.24933229E-01 -3.07180556E-15 -1.38624240E-02
 -7.08904247E-02  1.37032218E-16  6.38032773E-02  2.73460656E-01 -3.47148286E-15
 -4.57995584E-02  1.60080436E-01 -1.19549899E-01 -2.00980587E-15 -3.36816671E-02
  1.98099973E-01 -9.13548121E-17  2.67565081E-01  1.64438662E-15  8.44876981E-02
 -4.47429308E-01  2.74064436E-15 -3.26512380E-01 -2.74064436E-15 -8.32947534E-02
  1.95818598E-01  3.74554730E-15  1.12438549E-01  2.28387030E-16  4.57835691E-03
  2.13432999E-01 -1.30180607E-15 -1.08483839E-16 -3.55037735E-03 -1.87014802E-01
  3.07921657E-01 -4.62185262E-01  9.27191345E-02 -1.02898102E-14 -4.04317530E-01
 -4.28557496E-01  2.16170085E-14  2.36542417E-01  3.11464833E-01 -1.67418878E-14
 -2.35822648E-01 -5.11395070E-01  1.06846578E-15 -1.68424094E-15  1.24616304E-14
 -6.47735238E-16  9.14882820E-01 -1.10427029E-14  1.58753445E-15 -1.77047665E+00
  1.43111562E-14  6.53690657E-15  1.24381159E+00 -1.21866615E-14 -4.20229708E-15
 -2.78110355E-14 -3.68809934E-14 -6.14585948E-15 -1.96092606E-14  6.44352219E-15
 -2.52137825E-15  1.56719940E-03 -2.59725306E-15  2.70814701E-15 -3.63643902E-03
  6.63029095E-15 -6.06998467E-15  2.59552796E-03 -9.52520671E-15  6.63029095E-15
 -9.43669942E-03  7.30732770E-15 -1.02722817E-15 -4.50461881E-02 -3.92214394E-15
  1.40076569E-16  8.64212849E-03  8.40459416E-16 -4.20229708E-15  2.80502508E-15
  1.27416212E-02  4.47231465E-15 -4.92927550E-15 -2.77950205E-02 -5.17992106E-15
 -2.74810640E-02 -8.97961346E-15  8.85410951E-15  1.07692958E-01  8.39268158E-15
  4.42804255E-02  8.96218026E-15 -1.84730647E-15  2.87514967E-01 -3.56396695E-15
  4.73134267E-04  1.20201366E-15 -5.93221121E-15 -7.35362792E-02 -1.49853532E-03
 -1.19382467E-15  6.79866400E-15 -8.63207915E-15  1.04309701E-14 -9.12931503E-15
 -9.38974009E-01  1.21866615E-14  1.62021899E-14  1.82731682E+00 -1.13928943E-14
 -1.65290352E-14 -1.21452778E+00  3.73537518E-15  1.95173353E-14  1.45795140E-15
 -6.36338253E-15  8.51652325E-15 -4.08255421E-15  4.82751533E-01 -2.19410158E-15
 -2.75777961E-16 -8.73576905E-01  3.27296921E-15  3.51541137E-15  1.21534532E+00
 -6.73989215E-15 -4.94582014E-15 -7.80057662E-15 -1.07401879E-14 -1.26069925E-15
 -4.88217907E-15  2.20622369E-15  3.00628283E-15  5.56690880E-01 -3.83058619E-15
  2.42442164E-16 -1.34942134E+00  8.26727778E-15 -1.26069925E-15  1.69451006E+00
 -9.98861715E-15  1.45465298E-15 -9.83595859E-01  5.45494868E-15 -2.42442164E-15
 -6.59608203E-01  3.68512089E-15  3.58814402E-15 -4.55740865E-01 -5.45494868E-16
 -4.94582014E-15  8.24006317E-18  1.99478100E-01  2.13120475E-15 -1.41236785E-15
  5.23867331E-03 -1.05477603E-15 -4.65851953E-01 -4.22907047E-15  1.15887819E-15
 -1.18218965E-02  8.85600052E-16  5.24941415E-01  1.43304630E-15 -1.34135899E-15
  1.90066545E-02 -7.33516259E-16 -4.88962958E-03  1.19214693E-15 -2.65551624E-15
 -4.15702447E-03  1.36322273E-02 -1.65735830E-15  2.22086266E-15  2.20520300E-16
  1.85496874E-15 -5.73996813E-15  4.85088132E-01  2.90930596E-15  9.69768655E-15
 -8.78300336E-01 -2.64261958E-15 -1.55162985E-14  1.25785697E+00 -2.90930596E-15
  1.32858306E-14  2.31666431E-01 -3.21501113E-01 -7.84897966E-02 -2.80542708E-01
  1.38557215E-14 -1.43326837E-01  7.10302087E-01 -2.55812351E-14  1.22371334E-01
 -1.27387312E+00  2.01401470E-14  2.28145740E-01  1.16564798E+00  2.10019229E-02
  2.92094435E-02  9.23662698E-03  9.14572222E-03 -8.86510902E-03  1.12983284E-02
  5.79716389E-15  4.21276706E-01 -6.61373063E-03 -1.12944745E-14 -1.04419479E+00
  1.66578591E-02  9.14552579E-15  1.46029391E+00 -2.12724678E-02 -3.17344748E-15
 -8.29859286E-01  4.09339843E-04 -9.22048912E-15  3.95340878E-01  2.27758208E-03
 -2.59872864E-15 -1.54038140E-01 -8.13256794E-04  1.34453997E-03  4.54777512E-15
 -3.05876388E-01  2.28094941E-03  3.99804406E-16 -2.31628706E-03 -7.39638152E-15
  6.86154987E-01 -9.69813685E-03 -1.79911983E-15  8.23938478E-03  8.09603923E-15
 -6.40074806E-01  3.82874215E-03  6.19696830E-15  2.93299692E-03 -9.99511016E-17
 -1.34546994E-01  4.84315776E-03 -6.40311745E-16 -4.24792182E-16  9.96321916E-02
 -2.46106158E-01  3.32669245E-01  5.82943838E-02  2.80917984E-01 -8.10543224E-15
 -1.38051416E-01 -7.16415576E-01  1.52862094E-14  9.66281203E-02  1.28328972E+00
 -7.52863647E-16  2.40413989E-01 -1.17431351E+00 -3.01081735E-01  7.56197834E-01
 -1.82763638E-01  6.49966404E-03 -2.25781337E-15 -3.90859078E-01 -5.96099716E-01
  6.25240625E-15  8.12954725E-01  1.71808901E+00  9.03125347E-16 -1.28809188E-01
 -3.84347892E-01 -2.33213764E-01 -3.47752487E-01 -2.47028354E-01 -1.59066352E-01
 -3.64975372E-01  1.95469566E-01  1.77846222E-15 -2.68501141E-02  2.33330077E-01
 -9.44808055E-16  6.98770537E-02 -6.12158915E-01  2.55653944E-15 -7.33572320E-02
  8.94018565E-01 -1.33384667E-15  3.49389850E-02 -6.82590801E-01 -1.24492355E-14
 -6.33008262E-02 -2.97590791E-01  1.11153889E-15  1.02241524E-01  1.91221387E-01
  2.48800984E-01  2.11192389E-15 -2.69900523E-02  1.39242984E-01  2.94557805E-15
 -5.68883287E-01 -4.58857147E-15  7.31046626E-02 -2.85255923E-01 -5.66884833E-15
  1.55163401E+00  7.13523298E-15  4.75813883E-02  1.05697290E+00  4.89077111E-15
 -1.29505554E-01 -7.50288750E-16 -3.45382901E-02 -1.78989709E-02 -1.38942361E-16
  0.00000000E+00  3.33646633E-02 -2.48387168E-01  5.34475428E-01 -1.69249739E-01
  1.18391286E-01 -1.04384519E-15  1.94082507E-01 -6.91006386E-01  1.02684003E-15
 -5.65303960E-01  1.83000120E+00  9.45418726E-15 -5.60593055E-02 -4.02566416E-01
 -3.30822255E-01  1.26626247E+00 -2.19418965E-01 -6.17511206E-01  7.78398553E-15
 -1.07662290E+00  6.32298467E-01 -1.28177709E-14  1.28792335E+00 -8.08399474E-01
 -8.62530640E-16 -8.33581190E-01  1.69711036E-01  2.75801148E-02  4.25080537E-02
  6.15711855E-02  3.37400737E-02 -5.83638962E-02  9.54537668E-02 -5.65593862E-16
 -2.80616267E-01  6.45134936E-02  1.64022220E-15  7.37054723E-01 -1.69628988E-01
  1.30086588E-15 -8.16920277E-01  2.27894870E-01 -2.94108808E-15  3.84890532E-01
 -1.50342562E-01  1.49882373E-14 -7.73750622E-01  4.32553041E-01 -3.83189842E-15
  1.02879511E+00 -1.48377483E-01 -7.01792347E-02 -3.39356317E-15 -2.96631805E-01
 -5.24977243E-02  5.09034476E-16  1.62902823E-01  5.93873555E-15  7.92477466E-01
  1.23043961E-01 -6.78712634E-16 -3.76092258E-01 -1.08028428E-14  2.62392504E-01
 -1.41467993E-01 -5.65593862E-16 -7.64832057E-03  3.11076624E-16 -3.46753783E-01
 -5.91398465E-02  1.27258619E-16 -2.26237545E-16  3.14287179E-01  1.22520787E-01
 -7.51715332E-01 -4.55755753E-02  5.83051370E-01  6.22802245E-15 -1.06659810E+00
 -3.31467029E-01 -9.60598543E-15  1.51159883E+00  2.35833992E-01 -2.59383161E-15
 -8.04287446E-01 -2.57500787E-01 -4.50213272E-01  1.12754905E+00 -4.88802185E-01
  4.79279959E-02 -1.33999558E-15  3.36217469E-02  2.98446282E-01  2.57858609E-15
 -5.08315998E-01 -3.52189823E-01  1.41967100E-15  1.67555921E-01 -5.07670436E-01
 -2.06200220E-01 -3.10577286E-01 -6.58343228E-02  7.93491791E-02 -2.46339341E-01
  3.46194000E-01 -1.15891510E-15  7.20434827E-02  4.05113993E-01  4.86744341E-15
 -1.92414339E-01 -1.08486166E+00 -4.34593162E-15  2.27841586E-01  1.52552503E+00
  4.28798586E-15 -1.06939327E-01 -9.65112241E-01 -6.14225002E-15  1.67508773E-01
  1.91027120E+00  8.40213446E-16 -2.31291194E-01 -5.30290138E-01 -2.05138450E-01
 -1.15891510E-15  6.75127186E-02 -1.73430184E-01 -3.47674529E-16  4.75821652E-01
 -1.15891510E-15 -1.94375177E-01  4.94940728E-01  7.09835498E-16 -1.03005553E+00
  1.33275236E-15 -5.32414810E-02 -1.48117549E-01 -2.08604718E-15 -1.01334216E-01
 -1.73837265E-16  7.83726129E-02 -3.11768937E-01 -4.49079601E-16  3.47674529E-16
 -7.16916299E-02 -5.27874588E-01  1.55015386E+00 -4.93076156E-01 -2.26316417E-01
  4.89200245E-17  4.70997558E-01  5.44619101E-01 -3.89443897E-16 -1.32853275E-01
 -6.12041613E-01  8.08193677E-16  2.28666698E-01 -4.28769719E-01  1.74539974E-01
 -3.85916865E-01 -4.35736425E-01  1.31000732E-02 -7.55052455E-15 -5.94784952E-01
  3.95185236E-01  2.09436186E-14  1.43200387E+00 -6.82349885E-01 -2.33372340E-14
 -1.00175354E+00  1.02861233E+00  9.11429143E-01  1.48550661E+00  1.84644587E+00
 -7.84884413E-01 -7.54520048E-01  8.81330437E-01  3.76700131E-15  9.44417048E-03
  1.48199050E-01 -1.17636181E-14 -2.71907507E-02 -4.15068252E-01  2.22385253E-14
  3.55563329E-02  5.78900663E-01 -2.97064401E-14 -1.64199696E-02 -1.05326731E+00
  3.56378150E-14  3.33654072E-02 -4.78378029E-01 -2.57742195E-15 -1.50834150E-02
 -4.98631853E-01  1.26446880E-01 -2.19741743E-15  9.84952843E-03 -1.18363341E-01
  8.92184520E-16 -3.19002642E-01  7.33573939E-15 -3.77643703E-02  2.79569976E-01
 -1.32175484E-16  7.18128210E-01 -6.06355035E-15 -2.35496594E-03 -2.96614463E-01
  0.00000000E+00 -1.49124811E-01 -2.64350969E-16  1.23105895E-02 -2.19941701E-01
 -1.98263227E-16  5.28701938E-16 -1.17656954E-02  1.73682047E-01 -3.37483154E-01
 -4.58141890E-01 -1.97920362E-02 -3.09524909E-15  6.37243771E-01  4.39868674E-01
  9.00799670E-15 -1.46821252E+00 -7.38591438E-01 -1.64108723E-14  9.78185421E-01
  1.09265169E+00  1.01869757E-15 -1.06370116E-14  8.31351070E-15 -4.93652066E-15
 -2.92581332E-01  1.13260054E-14 -1.03636371E-14  8.37533056E-01 -1.66468327E-14
  1.43200401E-14 -1.31231775E+00  1.13944405E-14 -2.33363616E-14 -9.94874947E-15
 -1.67323766E-14 -2.20360951E-14  3.69549421E-15  2.44997579E-14 -1.64928538E-14
  3.91345576E-01  2.32679265E-15 -7.35677089E-16 -1.12298123E+00 -4.92732562E-15
 -4.79045546E-16  1.88840714E+00  6.70663765E-15  2.01883480E-15 -2.36480697E+00
  3.90079945E-15  5.47480624E-16  2.83713047E+00  1.10180476E-14  1.89051903E-14
 -3.30565581E-01 -1.02652617E-15  5.61167640E-15 -2.77456276E-15 -1.58620830E-01
 -6.21615587E-17  3.37571741E-15 -2.64415730E-03  4.92176367E-15  4.05209787E-01
 -4.09430968E-15 -7.13262371E-15  6.98103503E-03 -1.08199614E-14 -4.52788423E-01
 -8.17431230E-15  7.02678087E-15 -3.73283702E-03  2.74426522E-15 -1.53350863E-02
  6.69955010E-16  4.15491819E-15 -4.47774483E-04  4.27845867E-02 -1.65882485E-15
 -5.48840941E-15  1.35264720E-14  1.12346891E-14 -1.10584975E-15 -3.01226950E-01
 -8.21220937E-15 -7.66472874E-15  8.68261818E-01  2.38154072E-14  1.71772046E-14
 -1.35492147E+00 -1.80668606E-14 -2.13517443E-14  4.07760672E-01 -1.24860740E+00
  7.25048264E-01 -8.93369269E-02 -6.17144707E-16 -3.47893357E-01 -3.53839972E-01
  1.14870000E-15  1.10761029E+00  6.98431720E-01 -8.10847060E-16 -2.11424857E+00
 -9.53793534E-01 -8.11016098E-03 -1.39554652E-02 -2.44145778E-02  4.32878956E-03
  4.28586546E-02 -4.27240445E-02 -8.21658354E-15  1.98170451E-01  5.73621914E-03
  1.46312847E-14 -5.82133399E-01 -1.71391670E-02 -1.57844894E-14  9.88996060E-01
  3.50596548E-02  1.13878965E-14 -9.11668767E-01 -3.67682773E-02 -5.29753413E-15
  2.23093983E+00  5.35557219E-02  2.59471059E-15  3.27391652E-01  2.36603025E-04
 -3.21361813E-03 -1.87395765E-15 -2.28730245E-02  7.18561797E-03  2.79291765E-15
  7.76797566E-03  3.31546354E-15 -2.14474794E-02 -1.76495832E-02 -2.88301177E-15
 -1.71694425E-02 -2.66678589E-15 -7.45915948E-01  1.07037012E-02  3.60376471E-16
  4.70074268E-03  1.44150588E-16  1.33411881E-01  1.03566737E-02 -1.08112941E-16
  0.00000000E+00 -5.90897304E-02 -3.90351989E-01  1.18801075E+00 -6.28482386E-01
  6.86752586E-02  3.22881833E-15 -3.66363461E-01  3.41228144E-01 -5.87170514E-15
  1.13989349E+00 -6.89338195E-01  1.73181526E-15 -2.16787466E+00  9.07553078E-01
 -4.55613947E-01  1.83677897E+00 -1.67120456E+00  3.72705918E-01 -5.35781850E-16
 -3.53173602E-01  4.08132332E-01  1.50625463E-15  8.86272695E-03 -4.09424879E-01
 -3.78080022E-15 -9.41144165E-02  6.45219297E-01 -3.86301768E-01 -6.69053212E-01
 -7.38268684E-01  1.06876042E+00 -1.76463582E+00  1.23093822E+00  6.63156403E-15
  1.27502336E-02 -1.87280604E-01 -1.26161462E-14 -3.97181469E-02  5.72867928E-01
  1.57297464E-14  7.07936957E-02 -1.20849368E+00 -1.60128009E-14 -6.45838946E-02
  2.26301025E+00  1.66193464E-14  7.17579746E-02 -2.05031026E+00 -5.49934578E-15
 -1.37592816E-02  1.94153333E-01  9.77611579E-02  8.08727320E-16  2.78425014E-03
 -1.82729170E-01 -3.23490928E-15 -2.65040970E-01 -3.07316382E-15 -2.40299473E-02
  5.41088523E-01  4.89280029E-15  2.08717472E-01  1.29396371E-15  1.20089687E-03
  4.96169299E-02 -1.61745464E-15 -1.87257866E-01  1.29396371E-15  7.42149955E-03
 -4.29834247E-01  4.04363660E-17 -4.85236392E-16 -3.79323805E-03 -4.50878412E-01
  1.86743515E+00 -1.68378387E+00  3.17039174E-01 -5.47300686E-15  3.70413659E-01
  4.55875988E-01  1.07823580E-14 -8.53655429E-03 -5.05626596E-01 -1.12898758E-14
  7.36764493E-03  7.39493943E-01  6.62174825E-01 -3.52143989E+00  1.33852602E+00
 -1.60899389E+00  4.30589568E-15  5.45962351E-01 -2.13095429E-01 -9.23113252E-15
  7.25835940E-01 -1.18361688E+00  2.16769406E-15  1.24662794E-01  8.16857421E-01
 -5.72915033E-02 -1.10810408E-01 -2.34015954E-01  3.27607725E-01 -7.49289122E-02
  1.11270879E-01 -7.78600314E-15 -1.46318416E-01  8.89922101E-03  1.19739291E-14
  5.03709329E-01 -3.08268743E-02 -1.42743391E-14 -1.43272529E+00  7.02911066E-02
  1.12071257E-14  4.71488994E+00 -1.31232689E-01 -2.80178143E-15 -1.74716066E+00
 -1.97838328E-02  7.07818468E-16  1.03610517E+00 -2.66779971E-02  9.23335568E-04
 -2.35939489E-15  4.23615195E-01  4.18278828E-03  1.17969745E-15 -3.95347680E-03
  5.66254774E-15 -1.33605590E+00 -1.16822400E-03 -4.24691081E-15  2.39569065E-02
 -7.43209391E-15 -1.26271653E+00 -3.80716725E-02  2.83127387E-15  2.75834380E-03
 -2.35939489E-16  3.89954097E-01  9.42844116E-03  2.87551252E-16  9.43757957E-16
 -4.23040026E-01 -6.20477703E-01  3.43763417E+00 -1.48760624E+00  1.55591433E+00
  2.54625712E-15  5.74057917E-01  2.25630957E-01 -7.47201238E-15  5.17301226E-01
  1.07982431E+00 -9.66107694E-16  1.96508606E-01 -7.75787300E-01  4.08009746E-01
 -2.24302708E+00 -9.93350472E-01 -4.96858800E-01 -1.15202476E-15  2.17476328E-01
 -2.38212903E-01  6.45633712E-15  1.65647282E+00 -8.90100265E-01 -6.85740359E-15
 -4.74944556E-01  2.09116274E-01 -7.22685738E-01 -1.46437248E+00 -4.17249748E+00
  7.57952281E+00 -9.89817126E-01  1.97596442E+00 -4.07493056E-15 -3.57763326E-03
  6.39040308E-02  5.12222580E-15  1.14538025E-02 -2.35791611E-01 -7.21681628E-15
  5.39589654E-03  7.86172787E-01 -3.84642978E-15 -2.15247997E-01 -3.44049256E+00
  9.34949022E-15  1.94027061E-01 -1.23773765E-02 -9.90170043E-16 -1.34048558E-01
 -5.06905234E-01 -1.62988068E-02 -2.20884087E-15 -3.89201949E-02  2.34099242E-01
  3.04667706E-16  5.34544474E-02  3.50367861E-15  1.38508870E-01 -7.69204410E-01
 -1.82800623E-15  3.19338916E-01 -3.50367861E-15 -3.51218007E-03 -7.59077835E-01
  2.43734164E-15  2.32827657E-01  1.06633697E-15 -3.10882106E-02  5.63965886E-01
 -9.90170043E-16  1.82800623E-15  2.91042827E-02  4.80346244E-01 -2.76931955E+00
 -4.50927133E-01 -1.00825568E+00 -1.42812987E-16 -3.47326296E-01 -3.13116795E-01
 -1.43497299E-15 -1.63104471E+00 -9.39620303E-01 -4.55097385E-15  4.18958134E-01
  2.93519075E-01  8.53323823E-02 -8.97273377E-01 -3.31405526E+00  8.07271689E+00
  3.01204986E-15 -3.01255528E-01  2.01652474E-01 -1.88546672E-15  1.99374906E+00
 -1.58875310E+00  8.80715211E-16 -1.96352625E+00  1.33871598E+00  1.86970955E-02
  3.90965509E-02  1.23643920E-01 -2.91664902E-01  1.01372035E-01 -3.05273039E-01
  2.25450825E-15 -1.09562099E-01  1.16057469E-03  9.44746312E-16  3.91679602E-01
 -3.31251423E-03 -3.96456042E-15 -9.74612941E-01 -1.19411980E-03  4.49674706E-15
  3.83353119E+00  7.78979922E-02 -5.62400118E-15 -3.59961645E-01  1.66540326E-02
 -2.04899525E-15 -2.92973860E+00  8.52743972E-02  2.56550259E-04 -2.55204199E-15
  5.64131519E-02 -8.16547559E-03 -2.15942014E-15 -1.26100504E-03  4.34337915E-15
 -2.27097176E-01  2.60233719E-02  3.53359660E-15 -3.29499869E-03 -2.15942014E-15
 -1.77009459E+00  1.36349524E-02 -6.52733816E-15 -8.19578096E-03  7.36165958E-16
  7.73349332E-02 -1.67811455E-02  1.39871532E-15  0.00000000E+00 -1.17038081E-01
 -1.20186929E-01  1.13508905E+00  3.19314732E+00 -7.68965735E+00  7.38619844E-15
 -2.64611903E-01 -1.70991518E-01 -1.15578055E-14  2.01909162E+00  1.61360906E+00
  7.06719319E-15 -1.93501114E+00 -1.32361997E+00  7.08504265E-02  3.98167378E-02
  6.34102378E+00 -7.82802443E+00 -2.00486788E-14  2.18687474E-01 -1.45224907E-01
  4.35014144E-14 -1.77198838E+00  1.08961030E+00 -1.96891103E-14  4.39876717E-01
 -1.86086458E-01  8.55408388E-02  1.82017834E-01  6.66880345E-01 -1.83760345E+00
 -3.22813138E+00  1.28818936E+01 -4.11667969E-15  1.76263108E-02 -8.74465162E-02
  1.42918901E-14 -6.48561939E-02  3.15692929E-01 -1.28254693E-14  1.75171117E-01
 -7.64316751E-01  5.66391809E-15 -4.86699340E-01  2.62193908E+00  2.08620797E-15
 -1.38072070E+00  2.88062937E-01  3.07664120E-15 -1.74619164E-01 -3.02460357E+00
 -4.49424175E-03  4.68184530E-16  2.28913210E-02 -4.74586382E-03  1.84152582E-15
  1.77915945E-02 -5.33284474E-15 -6.97060841E-02  3.05771863E-02 -2.03325853E-15
 -2.72618777E-01  6.13544679E-15  4.65666920E-01  8.45167272E-01 -2.30079255E-15
  4.78493923E-03 -8.20437653E-16 -2.35502927E-02 -4.46529972E-02  2.43455956E-15
  1.14147847E-15  2.30237570E-02  3.47701806E-02  1.34064512E-02  3.47353413E+00
 -9.86356934E+00 -3.99517466E-15 -2.36760532E-01 -1.93491476E-01  9.13182779E-15
  1.56821304E+00  1.01658435E+00 -6.84887084E-15 -1.46296582E+00 -1.17931572E+00
 -7.54445723E-02 -4.65956360E-01 -9.81394829E+00 -6.11899549E+00 -8.15101366E-16
  5.41863605E-02 -1.57970951E-01 -4.82446398E-15  9.15170217E-01 -4.50578933E-01
  2.25735362E-14  3.22581756E+00 -3.18683333E+00  2.86751519E-02  6.13243744E-02
  2.23311082E-01 -6.13751637E-01 -7.07532597E-02  2.01259416E+00 -8.07968440E-15
 -1.39961444E-01 -1.14112126E-02  1.66391947E-14  5.17857550E-01  4.16266785E-02
 -1.76806858E-14 -1.40267961E+00 -1.08091575E-01  1.65988355E-14  4.39848881E+00
  4.47524458E-01 -2.19497906E-14  9.07389539E+00 -1.60012781E-01  3.58748302E-16
  5.42448072E-01 -4.51232416E-01  3.32549117E-03  7.61443270E-15 -1.11406737E-01
 -1.34260969E-02 -1.16593198E-16 -9.61320095E-03 -1.69508572E-14  3.43093705E-01
  4.70156830E-02 -1.54261770E-15 -2.17009321E-02  1.41526205E-14 -3.48164596E+00
  7.87110154E-02  1.36324355E-15 -4.48880429E-03  6.45746943E-16  1.85188054E-01
 -1.65256401E-02 -7.08527896E-16 -7.17496603E-17 -1.76899545E-01  6.89295830E-02
  6.51125423E-01  1.09808102E+01  3.32023305E+00 -8.68170890E-15  3.79254517E-03
  1.23578221E-01  8.46645992E-15  1.43845561E+00  7.84546193E-01 -1.00449524E-15
  2.74863642E+00  2.88047497E+00 -9.77423430E-02  1.92695819E-01 -1.15375547E+01
 -5.84187789E+00  8.58183307E-15 -3.87891862E-02  6.42961346E-02 -6.61273775E-15
  8.50285844E-01 -6.22047080E-01  3.56407937E-14  3.90348163E+00 -2.56015495E+00
  1.07933471E-01  2.31515650E-01  7.42733649E-01 -2.81401093E+00  2.76006122E+01
  7.37752192E+00  2.25457869E-15  6.13745828E-03  1.03996956E-01  2.58329933E-15
 -2.31703255E-02 -3.82751089E-01 -1.43762140E-14  6.45040035E-02  9.75322191E-01
  1.66688551E-14 -2.31748537E-01 -2.87487636E+00 -3.51530884E-14 -3.49944432E-01
 -8.54564295E+00  1.08947411E-15 -3.50108970E-02 -7.11153951E-01  8.44702916E-02
  1.85487417E-14 -5.88517158E-04 -1.85766275E-01 -3.08058198E-15 -2.49277893E-01
 -3.21543158E-14  1.17682905E-03  5.59369178E-01  8.46270273E-16  6.89908180E-01
  2.57084254E-14  1.17528438E-01 -2.34761542E+00 -3.77262542E-15  4.80591761E-02
 -1.77163123E-15 -7.04405059E-03  1.45877448E-01  1.02422430E-15 -5.40980249E-15
  5.31278470E-03 -9.86298939E-02  1.10642929E-01 -1.26100780E+01 -6.34861605E+00
 -6.58034455E-15  3.50994947E-02  5.54469388E-02  7.21306999E-15 -9.50663018E-01
 -6.83434674E-01  5.06180350E-15 -4.16769439E+00 -2.79149895E+00
Total SCF Density                          R   N=        2628
  1.06451546E-02  2.62972915E-02  6.51177351E-02  2.77667828E-02  6.98149581E-02
  8.33912331E-02  1.02780254E-02  2.60425454E-02  3.31530450E-02  1.37712584E-02
  5.51454012E-17  1.50468195E-16  3.48862145E-16 -4.10945102E-16  1.61751472E-04
 -2.02530702E-03 -4.95873041E-03 -5.08350121E-03 -1.91508064E-03 -1.41934688E-18
  4.20972921E-04  1.44602867E-03  3.53000837E-03  3.13123806E-03  9.27705579E-04
 -3.74365076E-18 -2.44979516E-04  2.88364299E-04 -1.09144983E-16 -2.36019914E-16
  2.33459077E-16 -6.53688362E-16  2.39450154E-04  3.52260425E-17 -4.79760650E-17
  3.54472053E-04 -8.04230568E-05 -2.03610259E-04 -4.85410095E-04 -3.27647848E-04
 -9.01463955E-17  4.95392712E-05  5.63478466E-05 -1.35283249E-16  5.65812603E-05
  1.78401669E-04  4.29674782E-04  3.91337692E-05 -1.94120169E-04  7.00300318E-17
  9.10870352E-06  1.15436828E-04  8.37396553E-17  7.09877408E-05  1.00572561E-04
 -6.57502811E-17 -1.31051636E-16  2.72787700E-16 -1.36528549E-15  4.28384154E-04
  4.12551305E-17 -2.44200252E-17  6.34162090E-04 -2.26754333E-16  1.96134381E-16
  1.13453671E-03 -2.37784390E-03 -6.02588785E-03 -8.02999415E-03 -3.52329613E-03
  3.94876794E-17  4.91251563E-04 -1.22154613E-04  5.30393171E-17  1.51279914E-04
  1.46178885E-04  1.83070845E-16  9.98993820E-04  6.84812397E-04  1.70664555E-03
  1.52313224E-03  3.57701519E-04 -1.55704441E-16 -7.00619829E-05  1.93191221E-04
 -2.50005268E-16  8.17454099E-05  1.24407352E-04 -4.10453417E-16  3.65685696E-05
  1.82764869E-04 -5.82117224E-03 -1.10893119E-02  1.58177836E-03  2.66408192E-03
  1.24437513E-15  1.53219424E-03 -1.58066066E-03 -2.57101424E-15 -1.03628045E-03
 -1.13103590E-05  3.34696048E-15 -3.97234801E-04 -1.06870139E-03  7.20032594E-01
  9.96530445E-03  2.00542499E-02 -4.37128998E-03 -6.54398829E-03 -8.22791897E-16
 -2.67763231E-03  2.80271115E-03  1.71527684E-15  1.02074356E-03  5.65390417E-04
 -2.19806702E-15  1.68781861E-03  1.31150428E-03 -5.79320836E-01  4.96489285E-01
  1.08157518E-02  2.24700646E-02 -8.84824369E-03 -1.04736684E-02  3.36476256E-16
 -2.97336652E-03  3.31985440E-03 -5.70769560E-16  5.24849097E-04  1.25742962E-03
  9.62498730E-16  3.24620428E-03  1.07500445E-03 -3.90264462E-02  9.58459175E-02
  1.38946903E-01  2.38805771E-02  5.01203032E-02 -1.33908049E-02 -1.93220883E-02
  4.83558444E-16 -6.50909336E-03  6.89482625E-03 -1.02101586E-15  1.01895223E-03
  2.39256776E-03  1.36519892E-15  5.93233437E-03  2.16795585E-03 -1.48107262E-01
  2.49224572E-01  2.83917274E-01  5.87244123E-01 -1.53443079E-03 -8.88863257E-03
 -5.45962377E-02 -3.25420624E-02 -2.31999662E-15  1.33751916E-04  3.74107085E-03
 -4.49030642E-15  2.21264685E-03  3.15166759E-03 -5.50321733E-15  1.04941253E-02
  2.65861565E-03 -7.01520716E-02  1.30531215E-01  1.63819990E-01  3.31658629E-01
  2.51803547E-01 -5.25796516E-03 -1.35360914E-02 -2.13973221E-02 -1.05536251E-02
 -5.27209387E-16  1.30099593E-03  3.09081591E-04 -8.83532821E-16  7.71239776E-04
  9.09772595E-04 -1.13287383E-15  3.44725620E-03  7.39123771E-04 -6.16189052E-03
  1.23860293E-02  1.73355256E-02  3.30936946E-02  4.66822435E-02  1.40349537E-02
 -1.91673332E-17  3.96374085E-17  1.18152900E-15 -2.07498173E-15  7.68546556E-04
  5.58643404E-17 -6.55449785E-17  1.13772437E-03 -4.19766031E-16  3.19977284E-16
  2.03542609E-03  2.09836075E-16 -7.50119550E-16  7.31234011E-17 -3.58765775E-17
  1.82815487E-16 -3.27959720E-17 -1.20976155E-14 -2.49533859E-15  3.65167501E-03
  3.82366889E-03  9.65585328E-03  1.07362751E-02  3.71386187E-03  1.12141779E-17
 -5.34665976E-04  7.08335535E-04 -5.48858220E-17  1.70960010E-04  3.18510867E-04
 -1.68264569E-17 -5.78156750E-04  5.90763492E-04  8.69067382E-06 -1.70161147E-05
 -3.55265205E-05  1.02226075E-05  1.86325217E-04  3.77746054E-05 -7.48631766E-18
  2.42657053E-03 -2.89763494E-03 -7.29721645E-03 -1.01757954E-02 -4.82819880E-03
 -1.12256934E-17  7.24699310E-04  4.76056690E-05 -3.08831046E-17  3.59356550E-04
  4.03191022E-04  9.63597264E-17  1.58011448E-03  3.25583122E-04 -2.28547997E-03
  3.48111064E-03  4.20915958E-03  7.51307139E-03  1.77475363E-02  6.30257895E-03
 -1.21561523E-18  1.17620141E-05  2.93937154E-03 -7.38300511E-17  1.12440169E-16
  4.06747543E-15 -7.27010517E-15  2.68440942E-03  1.93172534E-16 -2.30788041E-16
  3.97388809E-03 -1.46656631E-15  1.11406709E-15  7.10941571E-03  7.34096635E-16
 -2.62353095E-15 -1.17548382E-15  1.03923902E-15  7.42428783E-16  2.36175012E-16
 -4.21292783E-14 -8.71994048E-15  1.27547130E-02 -4.60395883E-17 -8.41187862E-18
  4.45501597E-02  1.29517468E-02  3.27060352E-02  3.63606732E-02  1.25769659E-02
  5.40187533E-17 -1.81138837E-03  2.39935339E-03 -1.62258567E-16  5.78950645E-04
  1.07873660E-03 -1.45269865E-17 -1.95791411E-03  2.00073913E-03  1.78995696E-05
 -3.84720468E-05 -9.89004302E-05  7.92651078E-05  6.52581462E-04  1.28861760E-04
  5.06702532E-17  8.21771611E-03  3.96405785E-05  1.09650480E-16  2.78297564E-02
 -9.87503762E-03 -2.48996608E-02 -3.50056034E-02 -1.66550289E-02 -2.06677159E-17
  2.46781469E-03  1.86625600E-04 -9.53847384E-17  1.23623206E-03  1.39418794E-03
  3.78851042E-16  5.45008416E-03  1.12451033E-03 -6.92830400E-03  1.17143836E-02
  1.54668030E-02  2.77531896E-02  6.20933049E-02  2.17651302E-02  5.98407019E-17
  4.02506817E-05  1.01215990E-02  1.93086570E-16  1.35798343E-04  3.48624510E-02
 -1.63642741E-16  2.60899624E-16  8.94199751E-15 -1.56909873E-14  5.81410426E-03
  4.29852181E-16 -4.97881671E-16  8.60695820E-03 -3.17298984E-15  2.42238630E-15
  1.53981296E-02  1.58864113E-15 -5.67134220E-15  3.23804460E-16 -2.01891992E-16
  1.15500946E-15 -6.93030696E-16 -9.16943483E-14 -1.88676793E-14  2.76251569E-02
 -4.45187371E-17  2.62473109E-18  9.64902267E-02  4.24316028E-16  4.91126055E-16
  2.08986093E-01  2.92405106E-02  7.38419119E-02  8.21098455E-02  2.84030650E-02
  4.38175469E-17 -4.08783275E-03  5.41739323E-03 -4.81693449E-16  1.30813495E-03
  2.43665575E-03 -2.39659249E-16 -4.42076696E-03  4.51908837E-03  7.29621986E-05
 -1.49557711E-04 -3.01260610E-04  1.61756426E-05  1.41066900E-03  2.94403546E-04
 -2.56189346E-16  1.85612892E-02  9.35246396E-05 -1.04701206E-15  6.28588329E-02
  3.19872443E-04 -1.84533544E-15  1.41978767E-01 -2.21437311E-02 -5.57004793E-02
 -7.72306324E-02 -3.65822645E-02 -1.25413781E-16  5.54141980E-03  3.24546449E-04
 -3.19691345E-16  2.71893805E-03  3.05437451E-03  6.25793894E-16  1.19781419E-02
  2.45830054E-03 -1.15278337E-02  2.12494008E-02  3.05962642E-02  5.37279501E-02
  1.33041718E-01  4.77106519E-02 -2.33667979E-16  9.30392638E-05  2.22860075E-02
 -8.59660620E-16  3.13366048E-04  7.67405131E-02 -1.67784333E-15  7.38969200E-04
  1.69025089E-01 -2.22656109E-16  2.79672170E-16  1.13355548E-14 -2.05155027E-14
  7.55208060E-03  5.45996316E-16 -6.45896007E-16  1.11797861E-02 -4.12727451E-15
  3.14108988E-15  2.00010029E-02  2.08660138E-15 -7.38110807E-15  3.35865848E-16
  2.44750060E-16  2.43029814E-15  9.93958920E-16 -1.18162960E-13 -2.44578037E-14
  3.58829843E-02 -1.32964840E-16 -4.85788944E-19  1.25333488E-01  2.96845326E-16
  6.31644341E-16  2.71457090E-01 -2.97194566E-15 -2.21703726E-15  3.52602177E-01
  3.55180652E-02  8.96862967E-02  9.97214534E-02  3.45142450E-02  4.03185519E-16
 -4.97554711E-03  6.56858819E-03 -6.69895805E-17  1.57727062E-03  2.94489755E-03
  6.33886436E-16 -5.38913108E-03  5.46968844E-03  1.00008091E-04 -1.21815403E-04
 -2.34102484E-04  3.11166163E-04  1.55574581E-03  2.34210780E-04  1.34919749E-15
  2.24902074E-02  4.96962519E-05  4.52836016E-15  7.61643720E-02  1.70152829E-04
  1.03184808E-14  1.72031661E-01  4.10958903E-04  1.27078603E-14  2.08447652E-01
 -2.80992975E-02 -7.05970836E-02 -9.71396836E-02 -4.58743527E-02  2.18798871E-16
  7.02588459E-03  3.33390904E-04  1.61594339E-16  3.40024228E-03  3.80936323E-03
  1.78304277E-15  1.50092890E-02  3.05375052E-03 -1.18138954E-02  2.35295142E-02
  3.61298750E-02  6.25855623E-02  1.64340057E-01  5.96441629E-02  1.50188127E-15
  5.80712991E-05  2.79235418E-02  5.18595582E-15  1.94133869E-04  9.61403306E-02
  1.14773824E-14  4.78972069E-04  2.11819608E-01  1.48478524E-14 -3.02461304E-05
  2.65492946E-01  4.04614237E-17  6.52130379E-16  7.86932599E-15 -1.24363180E-14
  4.71158617E-03  3.14062974E-16 -3.95879516E-16  6.97483626E-03 -2.58068756E-15
  1.95101836E-15  1.24782101E-02  1.20832843E-15 -4.59681197E-15 -1.05158365E-15
  6.72125439E-16  5.13897937E-16 -1.23879102E-15 -7.52366960E-14 -1.55591821E-14
  2.23866483E-02  1.25005647E-17 -1.15289395E-16  7.81929592E-02  5.08342044E-16
 -1.06817809E-17  1.69356438E-01 -1.12390739E-15 -2.25865758E-15  2.19981172E-01
  8.81402161E-15  8.17333935E-15  1.37241683E-01  1.29556045E-02  3.27093400E-02
  3.63687146E-02  1.25998850E-02  1.08694124E-15 -1.82088971E-03  2.38860655E-03
  1.36722750E-15  5.68224408E-04  1.06506250E-03  2.71924449E-15 -1.97804025E-03
  1.98328001E-03  2.05258347E-05  2.47725151E-06 -2.07478950E-05  2.61722668E-04
  4.53952967E-04  8.39763251E-06  4.95676865E-15  8.17018856E-03 -2.12171332E-05
  1.72464716E-14  2.76688325E-02 -7.25556756E-05  3.75384845E-14  6.24951698E-02
 -1.49755008E-04  4.85080350E-14  7.57253181E-02 -3.87728286E-04  3.05857809E-14
  2.75102931E-02 -1.23484187E-02 -3.13059106E-02 -4.53553802E-02 -2.17644244E-02
  8.33780733E-16  3.06688189E-03  3.38462912E-04  1.12232279E-15  1.59769264E-03
  1.82019227E-03  2.76658380E-15  7.10056665E-03  1.46394971E-03 -1.11729104E-02
  1.90564592E-02  2.46100122E-02  4.54481370E-02  8.51759155E-02  2.84584248E-02
  4.12463651E-15 -5.46468157E-06  1.31015821E-02  1.43922463E-14 -1.84136459E-05
  4.51585286E-02  3.12445417E-14 -2.74775736E-05  9.92813063E-02  4.06099455E-14
 -3.07107609E-04  1.24301776E-01  2.47828218E-14 -2.81318081E-04  5.86564396E-02
 -9.03386121E-18  5.04280715E-17  9.77285478E-16 -1.74973336E-15  6.40892975E-04
  4.95633983E-17 -4.59630517E-17  9.48751313E-04 -3.43461474E-16  2.75450956E-16
  1.69734712E-03  1.88402676E-16 -6.14675049E-16 -7.27451427E-17  9.69007433E-17
  2.07906992E-16  8.32443154E-17 -9.85570057E-15 -2.00051255E-15  3.04514130E-03
  2.10791158E-17  3.63916999E-17  1.06361884E-02  1.34780274E-16  1.78543651E-16
  2.30366903E-02 -4.60164901E-18  8.79656040E-17  2.99229140E-02  1.37757580E-15
  1.60579242E-15  1.86682843E-02  4.22468765E-15  3.60564568E-15  2.53935126E-03
 -3.24153015E-04 -8.19084621E-04 -9.11755840E-04 -3.14727447E-04  1.82737764E-16
  4.48669547E-05 -6.05196374E-05  2.76692035E-16 -1.49635677E-05 -2.76357298E-05
  4.87834013E-16  4.82897097E-05 -5.09068976E-05 -2.00167564E-05  2.05406793E-05
  1.10804599E-05  1.83808014E-05 -1.88077934E-05 -8.03857110E-06  8.73457162E-16
 -2.08236641E-04 -3.57634322E-06  3.05260134E-15 -7.05202744E-04 -1.22385015E-05
  6.60669553E-15 -1.59284694E-03 -2.77020199E-05  8.58812575E-15 -1.92993459E-03
 -2.99358723E-05  5.34982927E-15 -7.01056736E-04 -1.04730008E-05  7.26003892E-16
  1.78736058E-05 -6.04107219E-04 -1.57508286E-03 -2.63088915E-03 -1.31229907E-03
  3.55651486E-18  1.46641014E-04  4.59574437E-05 -6.84191938E-18  9.38369012E-05
  1.11351356E-04  4.12543270E-17  4.24954481E-04  9.00158567E-05 -1.41903377E-03
  2.24043984E-03  2.55655070E-03  4.99830716E-03  6.16418156E-03  1.73680596E-03
  1.81567834E-17 -6.15192582E-06  7.67821834E-04  6.44577859E-17 -2.06427820E-05
  2.65389357E-03  1.37891191E-16 -4.65078059E-05  5.80378930E-03  1.88515589E-16
 -7.05529006E-05  7.24672561E-03  7.90078069E-17 -3.45596013E-05  3.48634493E-03
  2.48991159E-17 -3.33832790E-09  2.16833792E-04  1.60700714E-04  4.04406011E-04
  5.61442717E-04  2.65967247E-04 -3.35501272E-18 -4.01882514E-05 -2.39825047E-06
 -4.20784710E-18 -1.97835374E-05 -2.21628737E-05 -1.58412483E-17 -8.70282572E-05
 -1.78705922E-05  1.18325168E-04 -1.82227502E-04 -2.24206709E-04 -3.97579336E-04
 -9.69582138E-04 -3.46744869E-04 -1.88530821E-17 -5.44069821E-07 -1.61934267E-04
 -6.56048603E-17 -1.83063827E-06 -5.57566803E-04 -1.43287414E-16 -4.35953130E-06
 -1.22788707E-03 -1.85855398E-16 -1.76445349E-06 -1.53864299E-03 -1.09648482E-16
  1.52957550E-06 -7.21454280E-04 -1.77802343E-17  1.88926735E-07 -4.22132480E-05
  8.92168677E-06 -9.10659373E-17 -2.22146677E-16 -2.33874127E-16  4.58932212E-17
 -3.60109755E-05  1.48490597E-17 -1.44797842E-17 -5.33091508E-05  1.69013572E-17
 -2.03864497E-17 -9.53718136E-05 -1.56806603E-18  2.50907922E-17  5.78100569E-16
 -5.82847664E-16 -2.85124896E-16 -6.18179438E-16  2.71946849E-16  1.04276212E-16
 -1.71102685E-04 -3.46469459E-17  2.08962301E-18 -5.97634138E-04 -1.20946002E-16
  3.01093583E-18 -1.29440284E-03 -2.55624536E-16  3.29852422E-17 -1.68133115E-03
 -3.87996234E-16 -3.58034190E-17 -1.04894757E-03 -3.50532285E-16 -1.95275136E-16
 -1.42682974E-04 -3.79629184E-17 -3.56638956E-18  7.49740684E-19  8.01717805E-06
 -5.70861430E-04 -1.44282623E-03 -1.60804408E-03 -5.55196955E-04 -4.30954867E-18
  7.87652363E-05 -1.06710029E-04  4.25243435E-18 -2.65813731E-05 -4.88801551E-05
 -4.61676520E-18  8.50084376E-05 -9.00374263E-05 -9.03320024E-06  2.08690334E-05
  3.01450943E-05  5.17272579E-05 -2.69683134E-05 -1.52912017E-05 -1.16930922E-17
 -3.68028710E-04 -7.18905023E-06 -3.77847516E-17 -1.24634402E-03 -2.44846384E-05
 -9.03767113E-17 -2.81513504E-03 -5.54385854E-05 -1.05762434E-16 -3.41085108E-03
 -6.11388359E-05 -8.04451442E-17 -1.23898404E-03 -2.18369309E-05 -1.39621888E-17
  3.15901224E-05 -1.20861515E-07  3.82199032E-07  5.78102250E-18  5.58354119E-05
 -1.62821546E-04 -3.96558436E-04 -4.43861294E-04 -1.95378992E-04  2.46018089E-18
  4.23299368E-05 -5.74127948E-06  6.37705245E-18  1.62590202E-05  1.64356835E-05
  1.22909844E-17  6.56847470E-05  1.38760661E-05 -7.37841067E-05 -4.81103292E-05
 -1.95361821E-04 -4.44204182E-04  3.89189540E-04  2.54441040E-04  1.88038790E-17
  5.49871246E-06  1.29815669E-04  6.52898482E-17  1.85516447E-05  4.44096715E-04
  1.43531429E-16  4.23168712E-05  9.87453939E-04  1.83414565E-16  4.78257141E-05
  1.24323617E-03  1.12110834E-16  1.52958076E-05  5.61674944E-04  1.73923269E-17
 -6.16866330E-07  2.97597049E-05 -7.17296914E-06 -1.13631725E-19 -1.16548995E-06
  6.84444114E-06  2.38025129E-17  6.09054153E-17  7.84291658E-17  3.36132999E-17
 -4.22970535E-07 -4.17349736E-18  2.37574040E-18 -6.26147994E-07 -4.08714797E-19
 -2.37081921E-19 -1.12019923E-06 -7.97294576E-18  1.60408703E-18  1.18986475E-16
 -1.05979517E-16 -3.02750757E-17 -6.80822041E-17 -7.30015792E-17 -2.11182457E-17
 -2.00970380E-06  1.01901401E-17 -1.01317167E-17 -7.01957189E-06  3.44649002E-17
 -3.48558974E-17 -1.52035388E-05  7.80474531E-17 -7.57030736E-17 -1.97482442E-05
  9.38524910E-17 -9.55236190E-17 -1.23205192E-05  3.17562172E-17 -4.82675954E-17
 -1.67589723E-06 -1.35002554E-18 -2.92981351E-18  5.67296113E-19  9.41665713E-08
 -1.52397144E-18 -4.03945171E-19  1.10604294E-09  9.97737696E-04  2.50338921E-03
  3.41069327E-03  1.60326709E-03  1.58733868E-17 -2.48719688E-04 -7.69546576E-06
  2.86099644E-17 -1.17947833E-04 -1.31487325E-04 -5.78702672E-20 -5.23297108E-04
 -1.04533370E-04  3.32833944E-04 -7.13949668E-04 -1.16490040E-03 -1.98244878E-03
 -5.62329789E-03 -2.07092761E-03  5.86115802E-17  3.36262803E-06 -9.72250558E-04
  2.06944129E-16  1.14913905E-05 -3.34685323E-03  4.39253815E-16  2.44863096E-05
 -7.37652683E-03  5.73136119E-16  5.10841789E-05 -9.24750844E-03  3.95263034E-16
  3.17611206E-05 -4.32405069E-03  3.66425085E-17  5.89837443E-07 -2.51285282E-04
  5.35789848E-05 -4.26242020E-18  1.33516707E-06 -4.35378906E-05  3.26873041E-18
  3.22185557E-04  8.82541712E-17  1.89867039E-16 -1.52714478E-16  6.36273086E-16
 -2.14933258E-04 -3.13035761E-17  3.28695582E-17 -3.18178258E-04  1.18755300E-16
 -8.53808297E-17 -5.69231305E-04 -6.90552287E-17  2.17676111E-16 -1.66313870E-16
  2.22610437E-16  1.55692000E-16  4.47450250E-16  3.56754368E-15  6.94687828E-16
 -1.02123469E-03  3.35909260E-17 -7.53089771E-18 -3.56700840E-03  9.25337629E-17
 -4.23989156E-17 -7.72570629E-03  3.12508383E-16  2.83686329E-18 -1.00351067E-02
 -8.49371302E-17 -5.03004932E-16 -6.26069456E-03 -1.27969648E-15 -1.17979200E-15
 -8.51610269E-04 -2.46947048E-16 -4.79917017E-18  5.72083248E-18  4.78509169E-05
 -1.43829945E-18 -6.15904254E-18  5.62037758E-07 -1.32716017E-17  2.85600524E-04
 -2.61118074E-03 -6.59605320E-03 -7.34022008E-03 -2.53726320E-03  4.32474984E-18
  3.63347278E-04 -4.85346811E-04  5.52364929E-17 -1.18519452E-04 -2.19761249E-04
  4.29718272E-17  3.92569284E-04 -4.06519899E-04 -2.99603083E-05  5.04552857E-05
  6.48198328E-05  8.11957204E-05 -1.26972072E-04 -4.22092948E-05  6.16725984E-17
 -1.66675845E-03 -1.72129816E-05  2.29165005E-16 -5.64456076E-03 -5.87363934E-05
  4.58106863E-16 -1.27493703E-02 -1.33817405E-04  6.47040018E-16 -1.54477774E-02
 -1.28420832E-04  3.38168753E-16 -5.61166060E-03 -3.46199803E-05  3.25496978E-17
  1.43046330E-04  2.43602268E-06  8.80134630E-07  2.10178426E-17  2.52820857E-04
 -4.33189522E-06 -7.00759332E-18  8.11703010E-07 -3.87670963E-17  1.14491039E-03
 -9.36393678E-04 -2.19032242E-03 -1.67592677E-03 -5.83935028E-04 -1.79662952E-17
  2.44405772E-04 -1.03698234E-04 -3.46076188E-18  5.12657320E-05  3.79490938E-05
 -2.51610933E-17  1.99816463E-04  2.71370791E-05  2.44608034E-03 -3.80623438E-03
 -3.91763491E-03 -8.36965858E-03 -2.15526997E-03  6.45583179E-04 -4.06410503E-17
  9.54308989E-06  4.32349415E-04 -1.49459765E-16  3.15368568E-05  1.45822774E-03
 -2.97954449E-16  7.47005720E-05  3.33499641E-03 -4.19351043E-16  7.36246270E-05
  4.25826684E-03 -2.53183399E-16  1.68257823E-05  1.72863258E-03 -2.86154703E-17
 -1.63601477E-06  6.22377833E-05 -2.40928595E-05  1.27744674E-17 -3.35849625E-06
  3.19531716E-05 -6.72286219E-19 -1.51547064E-04  2.63699860E-18 -9.76105509E-06
  2.21898324E-04 -1.92551828E-18 -1.31479822E-17 -8.88793954E-17 -3.60961519E-17
 -4.07012431E-06 -1.42755167E-18  4.46306353E-18 -6.02524279E-06  3.58839564E-18
  1.41134841E-18 -1.07793563E-05  1.24504034E-17  5.16764712E-18  2.74031569E-16
 -8.55503957E-17  2.73090175E-16  5.21765176E-16  4.20552740E-16  6.74698251E-17
 -1.93388040E-05 -6.54184853E-18  1.78560941E-17 -6.75473296E-05 -2.25205201E-17
  6.35688994E-17 -1.46299299E-04 -4.90293907E-17  1.36829684E-16 -1.90031697E-04
 -6.81579173E-17  1.58994983E-16 -1.18556827E-04 -4.84356401E-17  6.90960423E-17
 -1.61266790E-05 -4.06374586E-18  7.09832919E-18 -8.72213156E-19  9.06137943E-07
  1.08636146E-18 -7.48747467E-20  1.06431344E-08 -5.99070121E-18  5.40832836E-06
  4.23009694E-18 -4.87440460E-18  1.02415834E-07  1.60626317E-03  4.04022236E-03
  5.59403467E-03  2.64635553E-03 -6.04261367E-17 -4.01004671E-04 -2.16243654E-05
 -7.98160758E-17 -1.95636974E-04 -2.19506263E-04 -2.29224324E-16 -8.65055066E-04
 -1.75859284E-04  8.03352019E-04 -1.50809441E-03 -2.20116370E-03 -3.86102209E-03
 -9.58690120E-03 -3.43996483E-03 -3.13193684E-16 -1.13826657E-06 -1.60698099E-03
 -1.09078753E-15 -3.72996043E-06 -5.53354926E-03 -2.37578178E-15 -1.06763223E-05
 -1.21881676E-02 -3.08338815E-15  2.20030592E-05 -1.52743180E-02 -1.86028566E-15
  2.95622318E-05 -7.15882190E-03 -2.81500143E-16  1.52063521E-06 -4.18443278E-04
  8.85402085E-05  1.29757166E-17  3.15409014E-06 -7.12030724E-05  5.65924656E-18
  5.31939545E-04  9.21802538E-17  5.82570677E-06 -2.40694060E-04 -8.13745684E-18
  8.78886045E-04 -8.92225146E-17 -2.45599517E-16 -7.00513979E-16  8.86542391E-16
 -3.48138210E-04 -7.95595727E-19  1.66987191E-17 -5.15369331E-04  1.93087803E-16
 -1.42849734E-16 -9.22012581E-04 -7.78836365E-17  3.39460222E-16  8.06612383E-16
 -8.37521519E-16 -4.96412346E-16 -9.20393460E-16  5.18267349E-15  1.17493695E-15
 -1.65414520E-03 -1.54407646E-18  3.43593937E-17 -5.77766295E-03 -3.97499683E-17
  8.71902415E-17 -1.25137151E-02  7.84598440E-17  3.72453540E-16 -1.62543671E-02
 -6.58190568E-16 -3.36349961E-16 -1.01407619E-02 -2.26329963E-15 -1.73728781E-15
 -1.37939599E-03 -3.95326585E-16 -4.88915683E-18  6.64483464E-18  7.75065373E-05
  5.86675129E-18 -5.78886205E-18  9.10360831E-07 -3.89179426E-17  4.62601535E-04
 -2.48553162E-17  4.07737357E-17  8.76014152E-06  1.22589698E-16  7.49298978E-04
 -1.97478561E-03 -4.98643748E-03 -5.54644025E-03 -1.92124122E-03 -2.58352288E-16
  2.77100538E-04 -3.64444938E-04 -3.45434600E-16 -8.70021376E-05 -1.62888493E-04
 -6.59980527E-16  3.01052377E-04 -3.03030333E-04 -3.43290951E-05  2.97254385E-05
  1.49630900E-05 -1.21373506E-05 -6.56420857E-05 -4.81964358E-06 -1.19576048E-15
 -1.24780480E-03  1.17927155E-06 -4.16633630E-15 -4.22576287E-03  4.04266387E-06
 -9.05217001E-15 -9.54467870E-03  6.87648228E-06 -1.17195555E-14 -1.15652067E-02
  3.88472092E-05 -7.36080832E-15 -4.20148893E-03  3.44022618E-05 -1.01110194E-15
  1.07073821E-04  4.91884536E-06 -1.18977750E-07  7.40394111E-17  1.89233297E-04
 -2.46630572E-06 -4.60748565E-18 -4.12901232E-06  3.18173511E-16  8.57062647E-04
 -3.43972761E-06  9.72143245E-18 -3.35990581E-06  5.44297962E-16  6.41673510E-04
 -2.89485076E-04 -6.19466702E-04  4.81183351E-05  1.65320707E-04  2.01374038E-16
  7.80457442E-05 -7.53206382E-05  3.16908108E-16 -7.97357186E-06 -2.26433941E-05
  5.33570452E-16 -5.01523456E-05 -2.10582384E-05  1.61205070E-03 -2.70348960E-03
 -3.06534432E-03 -6.35248273E-03 -3.46456157E-03 -3.04431699E-04  9.82669057E-16
 -1.27081431E-06 -5.53963306E-05  3.42841599E-15 -4.79359122E-06 -2.11307221E-04
  7.43891416E-15 -9.01039529E-06 -3.84537506E-04  9.64188642E-15 -1.46832883E-05
 -4.29995844E-04  6.03456673E-15 -7.31695731E-06 -3.77619715E-04  8.18565324E-16
 -1.25169675E-07 -4.76595476E-05  2.87322663E-06 -3.92227880E-17 -4.38899742E-07
  6.03242202E-06  1.08222406E-19  1.28179193E-05 -2.79696094E-16 -1.74873444E-07
  9.54517663E-05 -1.07331585E-17  2.75807556E-05 -4.34583675E-16  7.93906301E-07
  6.89540699E-05 -3.33500752E-17 -5.88842445E-17  9.11468371E-17  5.32205947E-17
  3.23458946E-07  1.72297721E-17 -5.01384288E-18  4.78835174E-07  5.94818004E-18
  4.11447865E-18  8.56651781E-07 -5.89625597E-18  9.42714751E-18 -5.22868600E-16
  6.34629394E-17 -7.21629108E-16 -1.42061130E-15 -6.42636522E-16 -5.36498088E-18
  1.53688405E-06  4.27148000E-17  2.02001822E-17  5.36808863E-06  1.44570263E-16
  6.28901428E-17  1.16266270E-05  3.26869137E-16  1.55107583E-16  1.51021069E-05
  3.95049824E-16  2.04483623E-16  9.42189070E-06  1.44459566E-16  5.71892505E-17
  1.28161162E-06 -3.36360366E-18 -2.66436430E-18 -1.15681372E-18 -7.20121553E-08
 -6.70067704E-18  3.21286026E-18 -8.45826015E-10 -7.45063631E-18 -4.29808050E-07
 -2.96632386E-17  2.71165985E-17 -8.13914147E-09 -1.12279767E-17 -6.96181720E-07
 -2.23158036E-17  1.60905568E-17  6.46829905E-10 -4.24159233E-06 -3.80093109E-05
 -2.77884988E-04 -1.66115275E-04 -3.46069142E-18 -7.35929018E-07  1.93243112E-05
 -1.01499609E-17  1.08625089E-05  1.54995901E-05 -6.01213949E-18  5.27950398E-05
  1.28905237E-05 -4.52884138E-04  7.56663375E-04  8.70451445E-04  1.77273002E-03
  1.31015368E-03  2.34426512E-04 -2.15844638E-17 -1.62429790E-06  8.77366216E-05
 -7.45207948E-17 -5.38347135E-06  3.07254961E-04 -1.64241365E-16 -1.25123085E-05
  6.56410420E-04 -2.08201527E-16 -1.58216873E-05  8.09607411E-04 -1.37674938E-16
 -6.24096912E-06  4.23724653E-04 -1.68639711E-17  1.33074002E-07  3.12008861E-05
 -4.78913090E-06 -6.01761176E-19  2.67913455E-07  1.75473310E-06 -4.13232646E-19
 -2.76574330E-05  7.02585402E-18  1.14713427E-06 -1.29270214E-05  1.95172331E-18
 -4.73005818E-05  8.00835229E-18  9.81756579E-07 -1.85832803E-05 -3.45718147E-18
  6.84149379E-06  1.66860914E-17  4.64433392E-17  1.26691380E-16 -8.04215542E-17
  4.10754758E-05 -1.31947699E-18 -3.75503159E-18  6.08064266E-05 -2.42447398E-17
  1.45402032E-17  1.08784685E-04  1.25068880E-18 -4.17125595E-17 -2.35192937E-16
  1.67131545E-16 -3.03164975E-17 -5.24888903E-17 -7.60193815E-16 -1.71853499E-16
  1.95166171E-04  8.15626924E-20 -1.74074508E-17  6.81684021E-04  4.34008555E-18
 -5.70673270E-17  1.47644467E-03 -1.00247832E-17 -1.45798270E-16  1.91778968E-03
  7.68945376E-17 -8.72610650E-17  1.19646913E-03  2.66879285E-16  1.42247326E-16
  1.62749578E-04  4.66615252E-17 -3.57315034E-18 -5.10511033E-20 -9.14469544E-06
 -6.68678643E-19  3.11214857E-19 -1.07409940E-07  8.97555668E-18 -5.45805593E-05
  3.01909619E-18 -4.76678668E-18 -1.03357509E-06 -7.11596876E-18 -8.84068776E-05
 -6.41868666E-17  5.29110018E-17  8.21397784E-08 -1.69032974E-18  1.04307843E-05
  5.94722756E-05  1.50727387E-04  1.68036283E-04  5.69411258E-05  1.03870765E-17
 -7.68679503E-06  1.17522509E-05  1.42252401E-17  3.37976379E-06  5.88189797E-06
  2.69003117E-17 -7.79276338E-06  1.04016717E-05  4.77227195E-06 -8.11458934E-06
 -8.67640030E-06 -1.83310772E-05  1.25796047E-05  8.24468466E-06  4.85100934E-17
  4.12252869E-05  4.14319379E-06  1.69075333E-16  1.39609198E-04  1.41690262E-05
  3.67227241E-16  3.15348226E-04  3.16455234E-05  4.75623589E-16  3.81990682E-04
  3.88964736E-05  2.98275831E-16  1.38703452E-04  1.68839416E-05  4.09660307E-17
 -3.54251097E-06  7.72824634E-07 -2.27314155E-07 -2.83281909E-18 -6.26310614E-06
  3.06459674E-07  1.34891843E-19 -1.27278723E-06 -1.30651913E-17 -2.83346222E-05
  1.21919558E-06 -3.68357907E-19 -2.18795016E-06 -2.19607951E-17 -2.11881513E-05
  2.16645890E-07  8.46363342E-19  1.22051465E-08  2.57769149E-18  7.07110347E-07
  5.26294260E-04  1.26267437E-03  1.24376425E-03  5.10335986E-04 -7.24329592E-18
 -1.35203919E-04  3.63214310E-05 -1.86557868E-17 -4.06636984E-05 -3.82045099E-05
 -3.51627004E-17 -1.69900577E-04 -2.93681996E-05 -7.63376791E-04  1.20348616E-03
  1.21258740E-03  2.67804803E-03 -2.59545805E-04 -6.19765826E-04 -5.44326733E-17
 -2.88027845E-06 -3.38152493E-04 -1.87106452E-16 -9.45056548E-06 -1.15296341E-03
 -4.16047468E-16 -2.28824054E-05 -2.58503209E-03 -5.28127727E-16 -1.75896286E-05
 -3.26872908E-03 -3.25719345E-16 -3.22324232E-07 -1.43302837E-03 -4.95964406E-17
  7.06505753E-07 -6.93829887E-05  1.87317820E-05 -1.64708812E-18  1.47605515E-06
 -1.97424193E-05  9.06036679E-19  1.15040961E-04  1.89762148E-17  3.72553224E-06
 -1.08911950E-04  1.12377801E-18  1.86483147E-04  1.42749923E-17  4.97769839E-07
 -3.23609401E-05 -1.13739386E-17 -4.36496115E-07 -9.02549376E-19 -6.80940336E-07
  6.10217009E-05 -4.12838018E-19 -8.25371042E-19  1.62835899E-17  1.00663990E-17
  7.95846018E-07 -6.36955330E-19 -2.46995615E-18  1.17813736E-06 -1.56782688E-18
 -2.37241334E-18  2.10772624E-06 -5.35118841E-18 -2.96540164E-18 -4.67577437E-16
  3.35048654E-16 -6.38532512E-17 -8.02718193E-17 -1.14434487E-16 -2.90114452E-17
  3.78138578E-06 -5.15066750E-18 -1.05713371E-17  1.32077719E-05 -1.73675715E-17
 -3.75242099E-17  2.86064272E-05 -3.96043577E-17 -8.36639035E-17  3.71575800E-05
 -4.61376554E-17 -1.03437887E-16  2.31818421E-05 -1.20294391E-17 -4.52825870E-17
  3.15330745E-06  1.36321803E-18 -2.96336631E-18  5.63554710E-19 -1.77180405E-07
  7.77497542E-19 -2.65221689E-19 -2.08109028E-09  3.70759300E-18 -1.05750986E-06
  3.62098668E-18 -1.01813738E-18 -2.00257356E-08  5.69570046E-18 -1.71290192E-06
  1.40475263E-18  1.79169890E-18  1.59147555E-09 -4.81157976E-19  2.02098648E-07
 -4.89887021E-20  9.30390622E-19  3.91570398E-09  1.32546281E-17  2.33418421E-17
 -1.06270493E-16  3.01914021E-16 -1.02430694E-04 -9.75227184E-18  7.92445911E-18
 -1.51634141E-04  5.43795978E-17 -4.44405497E-17 -2.71278435E-04 -3.57520260E-17
  9.86620666E-17  5.91867684E-17 -7.65654460E-17 -8.54950354E-17 -1.20636124E-16
  1.48703305E-15  3.01486874E-16 -4.86689588E-04  2.59678029E-18 -1.31451416E-17
 -1.69992839E-03 -1.34447671E-18 -5.40256569E-17 -3.68183811E-03  4.63705227E-17
 -6.89681331E-17 -4.78242855E-03 -1.64785588E-16 -3.24809690E-16 -2.98365780E-03
 -6.55030319E-16 -6.10888401E-16 -4.05851715E-04 -1.16543520E-16 -6.39172291E-18
  3.24309259E-18  2.28043007E-05  1.32991570E-18 -2.97494738E-18  2.67850208E-07
 -3.50123767E-18  1.36108577E-04 -9.29461518E-18  5.00353056E-18  2.57744583E-06
  4.89610819E-17  2.20461910E-04  1.58516566E-16 -1.29723057E-16 -2.04833526E-07
  2.23035305E-18 -2.60114449E-05 -6.45144136E-18  8.20989465E-18 -5.03977238E-07
  6.48652342E-05 -5.25976974E-04 -1.32844397E-03 -1.47898649E-03 -5.12217102E-04
 -8.96600601E-18  7.35588261E-05 -9.72483712E-05 -3.48409745E-18 -2.34023756E-05
 -4.36524439E-05 -1.73163798E-17  7.99959780E-05 -8.11122527E-05 -4.43495691E-06
  8.00151955E-06  1.16835948E-05  1.23416155E-05 -1.46480712E-05 -3.02433783E-06
 -3.42831062E-17 -3.33664446E-04 -7.67420339E-07 -1.17004703E-16 -1.12997235E-03
 -2.56900636E-06 -2.61026316E-16 -2.55226183E-03 -6.41298575E-06 -3.28683577E-16
 -3.09251508E-03 -8.64496772E-08 -2.18250362E-16 -1.12344773E-03  4.78442585E-06
 -3.23346269E-17  2.86332589E-05  1.12977226E-06  2.83202092E-08  6.40681030E-18
  5.06054222E-05 -7.34459316E-07 -1.38551138E-18 -7.33405862E-07  5.26367022E-18
  2.29186472E-04 -1.38008888E-06  1.10160340E-18 -3.03301577E-07  1.61975188E-17
  1.71580375E-04  3.21744538E-08 -5.91296219E-18  2.80273996E-07 -1.90378037E-18
 -5.66810577E-06  3.70394597E-07  6.67309619E-19  4.34364024E-18  4.58808555E-05
 -1.42971910E-03 -4.21265577E-03 -6.24798400E-03 -1.49669149E-03  1.54328643E-17
 -3.46238880E-04 -7.94002702E-04  5.64302850E-17 -6.26532668E-04 -8.34834662E-04
 -2.45041898E-17 -5.50258248E-04 -1.19306211E-03 -6.06129891E-03  1.03899816E-02
  1.13560643E-02  2.47462046E-02 -1.78867818E-03 -5.40117050E-03 -1.94108762E-17
 -3.88809430E-03 -2.95921989E-03 -1.08397890E-17 -1.31644905E-02 -1.00831043E-02
 -2.04893786E-16 -2.97483498E-02 -2.26283330E-02 -3.41933930E-17 -3.59558339E-02
 -2.85285423E-02 -1.47036050E-16 -1.30085175E-02 -1.24187020E-02 -9.63501486E-17
  3.37698080E-04 -5.85749763E-04  1.63790817E-04  1.91009767E-17  5.98910283E-04
 -1.82679137E-04 -8.55503130E-18  9.95903111E-04 -1.09369866E-17  2.68612516E-03
 -9.86288715E-04  1.96545646E-17  1.62352520E-03 -7.54248750E-17  1.99069804E-03
 -2.95486423E-04 -1.71773765E-16  2.81487265E-06  1.52709115E-17 -7.16245323E-05
  5.44217136E-04  1.59216569E-17  8.16170217E-18  5.34437985E-04  1.10056003E-02
 -4.20006070E-03 -1.19124200E-02 -1.59492247E-02 -3.65221641E-03  1.02718334E-16
 -6.98126727E-04 -2.11379967E-03  2.60661704E-16 -1.56569216E-03 -2.10787474E-03
  1.14476654E-16 -1.39570719E-03 -3.00506563E-03 -1.13168678E-02  2.05290560E-02
  2.32133467E-02  5.09775377E-02 -9.79861662E-03 -1.37646092E-02  2.93685585E-16
 -9.71564084E-03 -7.36953535E-03  1.15895634E-15 -3.28965387E-02 -2.51435880E-02
  2.08537723E-15 -7.43343347E-02 -5.62840645E-02  3.25234643E-15 -8.98545677E-02
 -7.08684503E-02  1.74121414E-15 -3.25137330E-02 -3.11472629E-02  4.44515885E-17
  8.43303658E-04 -1.51561931E-03  4.07585578E-04  4.44326374E-17  1.49523976E-03
 -4.40729004E-04 -2.06786595E-17  2.47015471E-03 -1.31975539E-16  6.70991037E-03
 -2.27802363E-03  3.89665323E-17  4.03785052E-03 -3.22550099E-16  4.97489169E-03
 -6.19388903E-04 -4.02043493E-16 -2.19889973E-05  5.60088176E-17 -1.78392619E-04
  1.28867998E-03  4.02764342E-17 -2.35174592E-17  1.33524856E-03  2.68548915E-02
  6.57030546E-02 -6.10092822E-03 -1.56802264E-02 -1.15303367E-02  3.22042829E-04
  2.21789801E-15 -3.29148673E-04 -3.13274778E-03  3.63433702E-15 -1.98529415E-03
 -2.76415194E-03  5.63645382E-15 -2.90302546E-03 -3.68241942E-03  1.99518085E-03
 -4.93979556E-03 -9.23172949E-03 -1.49695381E-02 -5.66801333E-02 -2.16409637E-02
  1.06050025E-14 -1.06583038E-02 -1.02150006E-02  3.71561383E-14 -3.60933944E-02
 -3.51436070E-02  8.01259381E-14 -8.15409840E-02 -7.75515841E-02  1.04455030E-13
 -9.85724932E-02 -9.70119582E-02  6.51247261E-14 -3.56686180E-02 -4.50541492E-02
  8.59540721E-15  9.24090063E-04 -2.56864738E-03  5.62638192E-04 -3.64905082E-16
  1.63647721E-03 -4.87266496E-04 -1.66473784E-17  3.35819282E-03 -3.06732500E-15
  7.35472449E-03 -1.72292545E-03 -8.16748538E-17  5.56801980E-03 -4.92184123E-15
  5.45542772E-03  7.61886895E-05 -2.76961283E-16 -2.66145181E-04  6.25679386E-16
 -1.95268856E-04  1.25140237E-03  7.12191316E-17 -1.37633537E-15  1.46285010E-03
  2.78740290E-02  6.93480313E-02  8.21859968E-02 -1.44585769E-03 -3.55814472E-03
  2.31823093E-04  2.36322094E-03  1.28970966E-15 -2.67407259E-04 -1.23310591E-03
  2.08265069E-15 -8.41469185E-04 -1.15740832E-03  3.28311678E-15 -1.73144748E-03
 -1.43659270E-03  2.61256723E-03 -6.50517484E-03 -1.04217845E-02 -1.94898522E-02
 -3.29039923E-02 -1.05529558E-02  6.19343174E-15 -3.67980563E-03 -4.80596597E-03
  2.16705789E-14 -1.24621269E-02 -1.65787560E-02  4.68236739E-14 -2.81523661E-02
 -3.64242132E-02  6.09141917E-14 -3.40139176E-02 -4.54957898E-02  3.80737650E-14
 -1.22957635E-02 -2.14950813E-02  5.06280551E-15  3.19699066E-04 -1.27990286E-03
  2.64417837E-04 -2.34569196E-16  5.66031611E-04 -2.09167201E-04 -2.16121746E-18
  1.57358255E-03 -1.77244476E-15  2.54104978E-03 -5.99747803E-04 -5.97471955E-17
  2.61798040E-03 -2.84273215E-15  1.88093006E-03  1.71214184E-04 -7.22600111E-17
 -1.60209827E-04  3.59701225E-16 -6.85785330E-05  5.10664429E-04  3.41539105E-17
 -8.05179547E-16  5.04456650E-04  1.02759120E-02  2.57712713E-02  3.25913783E-02
  1.34846995E-02  6.40911497E-18  3.56078552E-17  2.94765805E-16 -4.36154154E-16
  1.67674708E-04  9.94647255E-18 -1.39254216E-17  2.48218666E-04 -9.24006774E-17
  6.90061873E-17  4.44071308E-04  4.09790197E-17 -1.64015403E-16  3.85089637E-17
 -3.28274936E-17  2.25389860E-17 -4.11114732E-17 -2.69344675E-15 -5.61635182E-16
  7.96690240E-04  6.10986250E-19 -8.13749777E-18  2.78271078E-03  1.86545952E-17
 -1.40715527E-17  6.02701304E-03 -3.87341451E-17 -1.10489430E-16  7.82863296E-03
  3.15308116E-16  2.53191316E-16  4.88412144E-03  1.08913506E-15  8.64480846E-16
  6.64362066E-04  1.90376560E-16  1.82123396E-18 -3.67986947E-18 -3.73296744E-05
 -2.87852052E-18  3.77515858E-18 -4.38459446E-07  1.53801918E-17 -2.22803976E-04
  1.19353566E-17 -9.77909029E-18 -4.21916966E-06 -6.40343147E-17 -3.60886808E-04
 -2.62053890E-16  2.14688765E-16  3.35303805E-07 -4.98354074E-18  4.25796335E-05
  1.06117620E-17 -1.10602248E-17  8.24989391E-07 -1.06181641E-04 -7.79073993E-18
 -7.34729669E-19  7.30397019E-17  2.33077834E-15  1.36078732E-15  1.73814848E-04
  3.58999932E-04  7.47053427E-04  3.89767068E-04  2.94955628E-04  5.16277516E-18
 -1.91229459E-04 -6.67226776E-05  1.54449946E-18 -1.27305538E-04 -1.52074761E-04
 -1.15387168E-17 -2.43532688E-04 -1.93073319E-04 -1.58464887E-03  2.75909342E-03
  3.06158352E-03  6.66352294E-03 -2.16781585E-04 -1.34800566E-03 -1.22255683E-17
 -5.40530516E-04 -7.46826101E-04 -3.17618525E-17 -1.82980719E-03 -2.54324902E-03
 -1.05321711E-16 -4.13659080E-03 -5.71212634E-03 -9.04710235E-17 -4.98923580E-03
 -7.21556135E-03 -7.20294751E-17 -1.79877831E-03 -3.13563308E-03 -2.54865294E-17
  4.74254539E-05 -1.47252404E-04  4.13670755E-05 -1.62871220E-18  8.43606284E-05
 -4.57867718E-05 -3.21909040E-19  2.53008695E-04  5.35328242E-18  3.75274104E-04
 -2.54501256E-04  4.17252150E-18  4.10850826E-04 -1.73535492E-17  2.75742955E-04
 -7.93748956E-05 -3.67641417E-17  1.50181813E-06  3.54002939E-18 -1.06127188E-05
  1.39689239E-04  3.01062684E-18  3.27130829E-18  7.42847888E-05  2.09744118E-03
  5.07001288E-03  5.11424159E-03  1.92292998E-03 -1.37994021E-18  4.38067566E-04
 -8.16221347E-04 -2.18539002E-03 -3.24698164E-03 -1.28590417E-03  4.54360709E-18
  7.13883083E-05 -1.28521912E-04  6.07979643E-18 -4.35060471E-05 -7.11850274E-05
  2.53939047E-17  2.25413166E-04 -1.54657863E-04 -1.63121577E-03  2.88715591E-03
  3.42519975E-03  7.06016002E-03  3.76371561E-03  3.12092214E-04  9.30929488E-18
 -7.26293480E-04  5.04327003E-05  4.25076340E-17 -2.45908660E-03  1.96991589E-04
  6.11500071E-17 -5.55635739E-03  3.42855886E-04  1.25144919E-16 -6.72810065E-03
  3.89698768E-04  2.79382563E-17 -2.44184918E-03  3.88369452E-04  4.33033003E-19
  6.25914783E-05  5.29320444E-05 -2.61122139E-06  2.54958971E-18  1.10873984E-04
 -8.75999804E-06 -3.73250480E-18 -1.27888051E-05 -6.59450572E-18  5.00066975E-04
 -1.10343927E-04  8.13918718E-18 -2.62346468E-05 -1.44428908E-17  3.73295667E-04
 -7.63541238E-05 -3.05491812E-17  2.09756171E-05 -9.81077726E-20 -1.26150717E-05
  3.78121589E-05  6.00144339E-19 -3.06517901E-18  1.00025431E-04  1.50323726E-03
  3.62385212E-03  3.13765316E-03  9.24663899E-04  1.04895040E-18  2.52579453E-04
  3.02838776E-04  2.81908084E-18  3.57117933E-17  3.68634508E-16 -6.63074566E-16
  2.39268902E-04  2.06093337E-17 -1.10053678E-17  3.54203734E-04 -1.23977942E-16
  1.09200514E-16  6.33682060E-04  7.92370631E-17 -2.21872572E-16  2.34108502E-16
 -1.55086460E-16  1.08798146E-16  5.90273864E-17 -3.53849207E-15 -6.92601644E-16
  1.13686316E-03  2.89416650E-17  3.87938672E-17  3.97088005E-03  1.21675445E-16
  1.53897645E-16  8.60044315E-03  1.59497615E-16  2.26187243E-16  1.11713236E-02
  7.09097917E-16  8.42129168E-16  6.96955665E-03  1.64765205E-15  1.45801171E-15
  9.48033154E-04  2.69206168E-16  1.55821477E-17 -8.02827031E-18 -5.32687983E-05
 -8.45702816E-18  7.63256479E-18 -6.25674030E-07  5.25441551E-18 -3.17937412E-04
 -2.40833850E-18 -6.13945066E-18 -6.02068198E-06 -1.18998513E-16 -5.14979221E-04
 -3.88266124E-16  3.05518754E-16  4.78472719E-07 -5.65832191E-18  6.07603990E-05
  1.56878405E-17 -2.17110916E-17  1.17724556E-06 -1.51519361E-04 -1.49625612E-17
 -9.70118341E-17 -1.34579633E-16  3.02767805E-15  1.81658464E-15  2.48030776E-04
 -2.11192591E-17 -6.06842950E-18  3.53935619E-04  6.18281380E-04  1.56808430E-03
  2.02432602E-03  8.56767412E-04  2.52184342E-16 -1.20042022E-04  4.70770531E-05
  3.64857866E-16 -2.81970809E-05 -2.06125189E-05  6.49950836E-16 -2.27897105E-04
  9.11405632E-06  1.15853011E-03 -1.17948644E-03 -6.56268807E-04 -1.29418509E-03
 -2.21901159E-03 -7.28399552E-04  1.18180842E-15  1.95778952E-04 -3.35735137E-04
  4.12490224E-15  6.63003368E-04 -1.15591979E-03  8.94005918E-15  1.49718694E-03
 -2.53696589E-03  1.16057947E-14  1.82112862E-03 -3.17819011E-03  7.26072587E-15
  6.65901511E-04 -1.50799501E-03  9.83319915E-16 -1.65435899E-05 -9.08427623E-05
  1.84880607E-05 -5.74803492E-17 -2.91195925E-05 -1.40224509E-05  1.48582333E-18
  1.10912423E-04 -3.27440434E-16 -1.33519011E-04 -4.10301705E-05 -8.73193727E-18
  1.83347480E-04 -5.38127121E-16 -1.01518332E-04  1.10076899E-05  1.76903598E-18
 -1.13623503E-05  6.48999053E-17  2.89689204E-06  3.56301536E-05  1.49334471E-18
 -1.55744575E-16 -2.70263298E-05 -1.86513814E-06  2.11094023E-06  2.92204801E-04
  2.53743538E-04  2.58946095E-16  3.50638204E-05 -6.99043656E-05  3.66274899E-16
  5.56013395E-05 -8.11654335E-04 -2.06613835E-03 -2.71297191E-03 -1.14368156E-03
  1.54902235E-16  1.49748311E-04 -6.73846514E-05  2.27985703E-16  2.80483271E-05
  1.97403004E-05  4.33055558E-16  2.95105984E-04 -2.58200192E-05  7.78855161E-05
  4.48155214E-04  1.16130743E-03  2.16563797E-03  3.01554675E-03  9.03852496E-04
  7.39467240E-16 -2.98380534E-04  4.05149795E-04  2.58410656E-15 -1.01041963E-03
  1.40028584E-03  5.59297491E-15 -2.28202610E-03  3.06985637E-03  7.27776645E-15
 -2.77289305E-03  3.84568584E-03  4.50790464E-15 -1.01225192E-03  1.83875701E-03
  6.18369932E-16  2.52870586E-05  1.12938467E-04 -2.23041999E-05 -3.08578216E-17
  4.46445795E-05  1.55712419E-05 -3.05175992E-18 -1.34204555E-04 -2.10910396E-16
  2.03905932E-04  4.02251562E-05  7.15949521E-19 -2.22045621E-04 -3.31101423E-16
  1.54354026E-04 -1.98217523E-05 -5.96724125E-18  1.54144265E-05  3.67977658E-17
 -4.57994876E-06 -3.95267547E-05 -6.51834400E-19 -1.00738609E-16  4.11695387E-05
  1.35180463E-04  3.20674215E-04 -7.64465460E-05 -2.27111222E-04  1.59949428E-16
 -1.94875056E-05  1.10665331E-04  2.31939461E-16 -7.07283768E-05  9.58454554E-05
 -1.37091110E-16 -2.79102767E-16  4.24669687E-16 -1.25100905E-15  4.35456741E-04
  5.81168564E-17 -5.80240843E-17  6.44632053E-04 -2.38028153E-16  1.77440284E-16
  1.15326782E-03  1.35203075E-16 -4.33403208E-16  3.61329152E-16 -4.69159861E-16
 -3.12914693E-16 -9.04603139E-16 -7.20379917E-15 -1.39796843E-15  2.06903080E-03
 -3.85631842E-17  1.96812428E-17  7.22679156E-03 -8.75978225E-17  1.01152069E-16
  1.56523514E-02 -4.07546452E-16  2.80755107E-17  2.03312177E-02  4.45337657E-16
  1.06089061E-15  1.26842243E-02  2.69188329E-15  2.40916554E-15  1.72537017E-03
  4.97781379E-16  1.07155588E-17 -1.18332899E-17 -9.69463942E-05 -1.56775180E-18
  1.27403954E-17 -1.13869363E-06  2.54942075E-17 -5.78629266E-04  5.82696337E-17
 -4.42955041E-18 -1.09573226E-05 -1.89130378E-16 -9.37234931E-04 -6.59778353E-16
  5.66671058E-16  8.70795029E-07 -1.41511731E-17  1.10580711E-04  2.69774676E-17
 -3.90355307E-17  2.14252463E-06 -2.75757220E-04 -1.47185105E-17 -2.99073973E-17
  1.37533873E-16  6.06979442E-15  3.53930051E-15  4.51402888E-04 -1.86374706E-17
  4.50595509E-18  6.44144098E-04  6.65322637E-16  4.24279032E-16  1.17230817E-03
  6.08097501E-04  1.55703262E-03  3.08448365E-03  1.82613239E-03  7.18435515E-16
 -2.46815083E-04 -2.11585388E-04  1.10270845E-15 -2.35259165E-04 -2.99991917E-04
  1.84483951E-15 -7.43109452E-04 -3.17598716E-04  4.32247417E-04 -1.73271649E-03
 -3.28306083E-03 -6.03708698E-03 -1.07717225E-02 -3.52884696E-03  3.41941994E-15
 -5.62630906E-04 -1.61509042E-03  1.19516671E-14 -1.90542680E-03 -5.57046518E-03
  2.58611166E-14 -4.30536262E-03 -1.22449269E-02  3.36038353E-14 -5.18346313E-03
 -1.53158328E-02  2.10145170E-14 -1.86236355E-03 -7.22974087E-03  2.82482312E-15
  4.96315911E-05 -4.29887529E-04  8.89055229E-05 -1.52019539E-16  8.80617870E-05
 -6.95387991E-05  1.29220111E-18  5.31430314E-04 -9.60657431E-16  3.91099523E-04
 -2.08216078E-04 -2.87701987E-17  8.81672673E-04 -1.56407157E-15  2.85498141E-04
  5.15747416E-05 -1.28082130E-17 -5.29776839E-05  1.92661147E-16 -1.16264651E-05
  1.74486215E-04  1.16279395E-17 -4.48563459E-16  7.68584826E-05  2.40619330E-03
  6.03359179E-03  8.01503529E-03  3.50964993E-03  7.49844716E-16  5.04731778E-04
  1.15195181E-04  1.03555846E-15  1.39260198E-04 -1.58942671E-04  1.93709701E-15
  1.02383230E-03 -1.21274797E-03 -3.08414319E-03 -3.80650536E-03 -1.49042457E-03
  5.61594039E-16  1.97001251E-04 -1.55949231E-04  8.46976293E-16 -9.33385861E-07
 -3.07950912E-05  1.51270940E-15  3.27729955E-04 -1.06829234E-04 -1.04520595E-03
  1.29370375E-03  1.08555147E-03  2.14086524E-03  2.61528686E-03  7.45648579E-04
  2.68819958E-15 -6.03757352E-04  3.32209745E-04  9.39565754E-15 -2.04457727E-03
  1.14732387E-03  2.03338823E-14 -4.61800226E-03  2.50712375E-03  2.64345135E-14
 -5.60178395E-03  3.14422375E-03  1.64526618E-14 -2.03892682E-03  1.52092338E-03
  2.23925099E-15  5.15873420E-05  9.59982614E-05 -1.82884885E-05 -1.18703183E-16
  9.11019846E-05  1.17851240E-05 -5.33793341E-18 -1.10353911E-04 -7.59474772E-16
  4.13921193E-04  2.51771839E-05 -9.75662944E-18 -1.82124205E-04 -1.21534793E-15
  3.11254782E-04 -2.00779733E-05 -9.96129803E-18  1.39142401E-05  1.41731970E-16
 -9.87279697E-06 -2.97191055E-05  3.07006901E-18 -3.60425298E-16  8.31422829E-05
  7.05431997E-04  1.74010519E-03  1.52022384E-03  3.55210999E-04  5.84990409E-16
  6.90563147E-05  2.02449769E-04  8.33348851E-16 -8.86149821E-05  1.22697489E-04
  1.53181512E-15 -4.73095705E-05  1.91658366E-04
Total MP2 Density                          R   N=        2628
  1.08910072E-02  2.71155626E-02  6.88902281E-02  2.81092698E-02  7.22746740E-02
  9.16615357E-02  1.07994364E-02  2.74230318E-02  3.65567876E-02  1.66606282E-02
  5.47746670E-17  1.50688829E-16  3.38585017E-16 -4.29253286E-16  2.75954884E-04
 -2.01405366E-03 -5.01246179E-03 -4.57231075E-03 -1.92394884E-03 -8.45788867E-19
  5.30609465E-04  1.42763660E-03  3.52763194E-03  2.68135063E-03  8.35045921E-04
 -4.45711768E-18 -2.49219048E-04  3.97335397E-04 -1.09621186E-16 -2.45214517E-16
  2.01429512E-16 -6.48162577E-16  2.96580418E-04  3.44172692E-17 -4.84226237E-17
  5.87748629E-04  2.12734928E-05 -2.02662100E-04 -9.80857622E-04 -2.03248826E-04
 -9.06624404E-17  1.49907485E-05  1.21729630E-04 -1.27775589E-16  3.53293821E-04
  6.98705949E-05  3.16756969E-04  1.34183346E-04 -4.81745556E-04  7.08657558E-17
  7.32245563E-05  1.20879900E-04  8.13619217E-17  2.63411640E-05  3.37531884E-04
 -6.77267829E-17 -1.43527213E-16  3.86124205E-16 -1.51253740E-15  5.39655202E-04
  4.80435425E-17 -3.02424992E-17  7.96850195E-04 -2.55662381E-16  2.19229038E-16
  1.72169376E-03 -2.24209002E-03 -5.69504198E-03 -8.69675998E-03 -4.08407253E-03
  4.66790752E-17  4.17616562E-04 -4.22098469E-05  5.64826391E-17  2.08919329E-04
  1.82075534E-04  1.87981326E-16  1.23216929E-03  4.01787291E-04  9.87278563E-04
  8.36278750E-04 -5.95858673E-05 -1.65447920E-16  7.71359329E-06  1.88026922E-04
 -2.53980194E-16  9.42936114E-05  1.92738582E-04 -4.67761371E-16  1.30643686E-04
  3.13912850E-04 -5.77310646E-03 -1.07472231E-02  1.79742234E-03  3.10535621E-03
  1.24254757E-15  1.52208158E-03 -1.58351769E-03 -2.57404507E-15 -1.09282746E-03
  4.10450057E-05  3.35172768E-15 -3.72057656E-04 -1.38111645E-03  7.20106758E-01
  9.88378992E-03  1.94379761E-02 -4.71919781E-03 -7.26343988E-03 -8.18729166E-16
 -2.66789842E-03  2.81133298E-03  1.71992627E-15  1.13143421E-03  4.61927384E-04
 -2.20664186E-15  1.62120947E-03  1.87548557E-03 -5.79705976E-01  4.97432944E-01
  1.08576680E-02  2.20769724E-02 -8.82079974E-03 -1.09743976E-02  3.54658538E-16
 -3.04732375E-03  3.37054694E-03 -5.81539636E-16  6.07071173E-04  1.10926571E-03
  9.67357751E-16  3.09012592E-03  1.71970943E-03 -4.11157867E-02  9.99522015E-02
  1.52526767E-01  2.33730518E-02  4.76147094E-02 -1.45068437E-02 -2.07740530E-02
  4.80386407E-16 -6.40389417E-03  6.83710049E-03 -9.75516439E-16  1.42983686E-03
  2.04081458E-03  1.36073723E-15  5.64717966E-03  3.63463172E-03 -1.46716637E-01
  2.46963792E-01  2.83542474E-01  5.77573859E-01 -1.73584406E-03 -1.03976110E-02
 -6.25823719E-02 -3.92410434E-02 -2.37385579E-15 -7.96626725E-05  3.96948327E-03
 -4.43454776E-15  2.60469494E-03  3.26290929E-03 -6.86160968E-15  1.21642227E-02
  4.16189400E-03 -6.95600304E-02  1.29112765E-01  1.60295456E-01  3.25074089E-01
  2.74778171E-01 -5.72417394E-03 -1.48241804E-02 -2.50563514E-02 -1.39251754E-02
 -5.57060440E-16  1.37741816E-03  4.30992663E-04 -9.44917014E-16  8.01946794E-04
  1.23189134E-03 -1.59092241E-15  4.24685099E-03  1.31601488E-03 -7.27205921E-03
  1.42682490E-02  1.89995752E-02  3.72236307E-02  5.77026785E-02  1.91593741E-02
 -2.23532595E-17  6.16047600E-17  1.21638738E-15 -2.04350714E-15  7.69191738E-04
  5.48656769E-17 -6.68657252E-17  1.08912462E-03 -4.37809268E-16  3.35070564E-16
  2.31168800E-03  2.05332129E-16 -7.46832605E-16  7.26750010E-17 -3.07620907E-17
  2.04921822E-16 -6.52234818E-17 -1.20474870E-14 -2.53448548E-15  3.67939298E-03
  3.79674108E-03  9.56176025E-03  1.04439892E-02  3.71816067E-03  1.18463471E-17
 -5.25922031E-04  7.03920517E-04 -5.83204516E-17  2.32448044E-04  2.67886845E-04
 -1.67076624E-17 -4.70151445E-04  5.22661631E-04  6.42058766E-06 -1.34386071E-05
 -3.04084290E-05  1.82695473E-05  1.72447559E-04  4.22090693E-05 -7.23442422E-18
  2.52375447E-03 -2.87374362E-03 -7.23497973E-03 -9.90033962E-03 -5.06546086E-03
 -8.80519358E-18  7.16861477E-04  5.31859242E-05 -3.52675556E-17  2.88070060E-04
  4.29961963E-04  1.01900758E-16  1.51910842E-03  5.37018458E-04 -2.19113346E-03
  3.32552423E-03  4.04429440E-03  7.00690065E-03  1.71862748E-02  6.73463979E-03
 -1.04567941E-18  1.06023654E-05  3.00207051E-03 -8.63285264E-17  1.91879930E-16
  4.21117208E-15 -7.18466229E-15  2.68304025E-03  1.90163893E-16 -2.36791017E-16
  3.81143746E-03 -1.53790579E-15  1.17383210E-15  8.07356863E-03  7.18740420E-16
 -2.61773671E-15 -1.17886433E-15  1.06169503E-15  8.32693952E-16  1.18060640E-16
 -4.20453381E-14 -8.84714500E-15  1.29032007E-02 -4.60205371E-17 -7.15535054E-18
  4.53974024E-02  1.28969926E-02  3.24638192E-02  3.55836388E-02  1.26429891E-02
  5.64337679E-17 -1.77600282E-03  2.38124501E-03 -1.74700365E-16  7.71445183E-04
  9.30079940E-04 -6.25369813E-18 -1.62357502E-03  1.79223362E-03  1.18237102E-05
 -2.77601125E-05 -8.17342063E-05  1.05913844E-04  6.12138006E-04  1.44952821E-04
  4.97093290E-17  8.60364813E-03  3.58322326E-05  1.03457604E-16  2.94457154E-02
 -9.81666327E-03 -2.47341270E-02 -3.42258695E-02 -1.74931750E-02 -1.29422825E-17
  2.43611350E-03  2.10032805E-04 -1.13903967E-16  1.01320352E-03  1.47691777E-03
  4.03245303E-16  5.26978997E-03  1.83795251E-03 -6.65826460E-03  1.12240961E-02
  1.50297800E-02  2.58872128E-02  6.03405979E-02  2.32680593E-02  5.92820098E-17
  3.64561412E-05  1.03896269E-02  1.94253135E-16  1.23417996E-04  3.60919553E-02
 -1.91777825E-16  4.58227430E-16  9.23924614E-15 -1.55363315E-14  5.81976079E-03
  4.21687772E-16 -5.09458789E-16  8.19792454E-03 -3.34280384E-15  2.56134116E-15
  1.74188182E-02  1.57514548E-15 -5.66109023E-15  3.17367778E-16 -1.51492580E-16
  1.35744644E-15 -9.90063598E-16 -9.11852266E-14 -1.89623234E-14  2.78639801E-02
 -4.45724180E-17  9.58730251E-19  9.77649851E-02  4.08483034E-16  4.78579790E-16
  2.12252829E-01  2.90156224E-02  7.30482499E-02  7.94241952E-02  2.83313059E-02
  4.96367880E-17 -4.06705079E-03  5.42878438E-03 -5.12700035E-16  1.80990788E-03
  2.00734638E-03 -2.57279890E-16 -3.53193826E-03  3.96597235E-03  5.98783767E-05
 -1.24918511E-04 -2.64525529E-04  8.72064517E-05  1.28668556E-03  3.23461551E-04
 -2.49524895E-16  1.93487110E-02  8.33245257E-05 -1.03356094E-15  6.60071243E-02
  2.86632090E-04 -1.80949086E-15  1.49459181E-01 -2.19567155E-02 -5.51727540E-02
 -7.46787820E-02 -3.82782335E-02 -1.06729118E-16  5.52750878E-03  3.34399501E-04
 -3.58443882E-16  2.11645610E-03  3.26293779E-03  6.52933765E-16  1.14363039E-02
  4.06520693E-03 -1.09731567E-02  2.01748187E-02  2.92280873E-02  4.98191034E-02
  1.28010276E-01  5.08569005E-02 -2.36094406E-16  8.27661250E-05  2.28079374E-02
 -8.65591561E-16  2.79794329E-04  7.89829885E-02 -1.72862163E-15  6.51902207E-04
  1.74485100E-01 -2.34197153E-16  3.64427022E-16  1.13005738E-14 -1.95033327E-14
  7.50229704E-03  5.30829531E-16 -6.37336630E-16  1.06696883E-02 -4.09762596E-15
  3.13201690E-15  2.27446399E-02  1.93643260E-15 -7.15411666E-15  3.36483835E-16
  2.55067495E-16  2.47607055E-15  9.06293697E-16 -1.16062538E-13 -2.53736253E-14
  3.47756806E-02 -1.30840080E-16  5.04919828E-18  1.21571459E-01  2.77235614E-16
  6.20847478E-16  2.63377976E-01 -2.88926695E-15 -2.14606553E-15  3.35827992E-01
  3.44514282E-02  8.63721185E-02  9.46512047E-02  3.40123548E-02  4.10931461E-16
 -4.66737905E-03  6.33477513E-03 -8.66901816E-17  2.28425444E-03  2.34301190E-03
  7.89737823E-16 -4.33234328E-03  4.70190216E-03  9.07436087E-05 -1.02238297E-04
 -1.71998821E-04  3.07587312E-04  1.39540090E-03  2.70608174E-04  1.32001849E-15
  2.24460072E-02  4.03879057E-05  4.43364432E-15  7.62697499E-02  1.37878031E-04
  1.00530154E-14  1.72216989E-01  3.23935747E-04  1.22886970E-14  2.03932322E-01
 -2.72565376E-02 -6.83183437E-02 -9.27793955E-02 -4.75935370E-02  2.36270578E-16
  6.76025169E-03  4.87374910E-04  1.25987913E-16  2.59884299E-03  4.15156062E-03
  1.92146515E-15  1.42161282E-02  5.07357169E-03 -1.08943488E-02  2.17616417E-02
  3.31105985E-02  5.72835330E-02  1.57299838E-01  6.30710914E-02  1.50926724E-15
  4.87710636E-05  2.73869373E-02  5.23650383E-15  1.61755435E-04  9.44649412E-02
  1.15493185E-14  3.92734366E-04  2.08274396E-01  1.45377887E-14 -3.91549616E-05
  2.55120986E-01  4.84157711E-17  5.80132296E-16  7.94412839E-15 -1.15401945E-14
  4.80013301E-03  3.11656412E-16 -3.91967407E-16  7.01028503E-03 -2.47159934E-15
  1.88240207E-15  1.49467819E-02  1.00481336E-15 -4.47622011E-15 -1.06329710E-15
  6.78563723E-16  4.48190095E-16 -8.46104259E-16 -7.67068061E-14 -1.78694702E-14
  2.17003808E-02  1.44559237E-17 -1.12154470E-16  7.59143853E-02  5.18707191E-16
 -2.01840392E-17  1.63483725E-01 -1.11087876E-15 -2.23664812E-15  2.12498335E-01
  8.85268486E-15  8.08634827E-15  1.39731229E-01  1.25680524E-02  3.15506422E-02
  3.50506876E-02  1.26641663E-02  1.11888190E-15 -1.63989270E-03  2.24131427E-03
  1.38258598E-15  8.25098818E-04  8.79437450E-04  3.26252764E-15 -1.68189659E-03
  1.73024579E-03  7.57031266E-06  2.72374273E-05  3.15782262E-05  2.92657453E-04
  4.99670484E-04  4.74243504E-05  4.91271907E-15  7.94353915E-03 -1.05051480E-05
  1.71258116E-14  2.69901972E-02 -3.75696005E-05  3.71534338E-14  6.06375922E-02
 -7.22264545E-05  4.74545282E-14  7.27368033E-02 -2.46407378E-04  3.09417009E-14
  2.68349890E-02 -1.19694667E-02 -3.04720586E-02 -4.42121968E-02 -2.29388536E-02
  8.51627072E-16  2.86495931E-03  4.98877469E-04  1.12796331E-15  1.28319427E-03
  2.03148858E-03  3.22766668E-15  6.84088932E-03  2.54268378E-03 -1.11227321E-02
  1.88908664E-02  2.34354722E-02  4.51804903E-02  8.41318946E-02  3.05006698E-02
  4.11207604E-15  1.31933379E-06  1.26176896E-02  1.43847580E-14  1.99624639E-06
  4.35713096E-02  3.10971024E-14  2.15348702E-05  9.53884853E-02  3.99995589E-14
 -2.02342363E-04  1.18491715E-01  2.54527057E-14 -1.88231679E-04  5.80136928E-02
 -1.04931879E-17  4.35958880E-17  1.23215079E-15 -2.01687472E-15  8.14186925E-04
  6.09401689E-17 -5.83849976E-17  1.20262789E-03 -4.06638528E-16  3.25807935E-16
  2.49250730E-03  1.94243112E-16 -7.40322080E-16 -7.07850634E-17  9.65506997E-17
  2.27643311E-16  1.35898487E-16 -1.25576565E-14 -2.88514836E-15  3.65980098E-03
  2.06274617E-17  3.73393945E-17  1.27818481E-02  1.49985024E-16  1.92419442E-16
  2.75918424E-02 -4.82240616E-17  5.33843744E-17  3.59763510E-02  1.66240826E-15
  1.87625320E-15  2.36275803E-02  5.28572644E-15  4.53734087E-15  3.88760305E-03
 -2.91522900E-04 -6.76378665E-04 -7.11256571E-04 -3.36539238E-04  1.93414218E-16
  4.21507174E-05 -5.78673654E-05  2.87286893E-16 -4.41976010E-05  1.06734394E-06
  6.00870757E-16  5.43717287E-05 -3.78712345E-05 -2.45679419E-05  2.88086862E-05
  2.02889604E-05  4.23433530E-05 -1.56841282E-06 -3.50315137E-06  8.76685751E-16
 -1.81814848E-04 -1.05092924E-06  3.06783970E-15 -6.17876853E-04 -3.52348213E-06
  6.61615311E-15 -1.38850531E-03 -8.41312328E-06  8.55510625E-15 -1.70354861E-03
 -6.88360476E-06  5.56481902E-15 -6.28255914E-04  4.73847590E-08  9.37252149E-16
  4.02433086E-05 -7.28575155E-04 -1.96938226E-03 -3.44359389E-03 -1.66135888E-03
  7.65373405E-18  1.50137825E-04  8.08250870E-05  3.58910827E-18  1.39831773E-04
  1.24732830E-04  9.35565173E-17  5.24237867E-04  1.92045094E-04 -1.73130348E-03
  2.79894181E-03  3.19638163E-03  6.44655418E-03  7.87661227E-03  2.21419910E-03
  3.20447559E-17 -4.37818248E-06  9.26534808E-04  1.08508875E-16 -1.47560753E-05
  3.21148236E-03  2.07290926E-16 -3.30221207E-05  6.96132304E-03  5.01548061E-16
 -5.34882691E-05  8.68915473E-03  5.07698537E-16 -2.73880901E-05  4.47082128E-03
  1.02819312E-16  6.43600882E-08  3.89835398E-04  1.63773439E-04  4.07218185E-04
  5.86684639E-04  3.04985412E-04 -3.50322563E-18 -4.23980199E-05 -6.90031046E-06
 -4.21101250E-18 -2.34689159E-05 -2.89495844E-05 -1.61298026E-17 -9.63344623E-05
 -3.30452358E-05  1.19528401E-04 -1.83942935E-04 -2.30895077E-04 -3.81341305E-04
 -9.98874316E-04 -4.07738828E-04 -1.95286081E-17 -4.75539838E-07 -1.64283984E-04
 -6.81819185E-17 -1.55194801E-06 -5.58383500E-04 -1.50243618E-16 -3.64715552E-06
 -1.19687969E-03 -1.81568071E-16 -1.56619345E-06 -1.50711679E-03 -1.04864818E-16
  1.08759889E-06 -6.87302464E-04 -2.05550040E-17  3.80770218E-08 -4.87247348E-05
  1.68945844E-04 -9.15220813E-17 -2.27823200E-16 -2.20181550E-16  7.40210513E-17
 -4.01083500E-05  1.42416822E-17 -1.40881025E-17 -5.09935214E-05  1.78913502E-17
 -2.04473577E-17 -1.22833350E-04 -1.31267226E-17  3.44088307E-17  5.77759020E-16
 -5.82418190E-16 -2.89874276E-16 -6.02228446E-16  2.50647446E-16  7.57246710E-17
 -1.72254971E-04 -3.48036603E-17  2.59072007E-18 -5.95694807E-04 -1.22173944E-16
  5.07319564E-18 -1.26169994E-03 -2.57061913E-16  3.74390516E-17 -1.64955941E-03
 -3.81711555E-16 -3.29651064E-17 -1.04229287E-03 -3.56345887E-16 -1.86208313E-16
 -1.76817866E-04 -4.02779108E-17  8.83730393E-19  9.89549147E-19  1.86004204E-04
 -5.75397959E-04 -1.45618537E-03 -1.57604497E-03 -5.66905194E-04 -4.09141795E-18
  8.49808352E-05 -1.07060426E-04  2.73252576E-18 -3.01408242E-05 -3.45620209E-05
 -3.64903973E-18  6.99072025E-05 -7.90702353E-05 -8.48960849E-06  1.99668595E-05
  3.14593502E-05  4.54456844E-05 -2.62669794E-05 -1.71460545E-05 -1.19059611E-17
 -3.66729777E-04 -7.22523075E-06 -3.83761807E-17 -1.23816461E-03 -2.46835290E-05
 -9.29851282E-17 -2.77331663E-03 -5.62962009E-05 -1.02581511E-16 -3.23885096E-03
 -5.90336852E-05 -8.06979125E-17 -1.14445063E-03 -2.21963598E-05 -1.51520661E-17
  3.15978658E-05 -4.40378100E-07  5.41246968E-07  5.35077407E-18  2.00795513E-04
 -1.76976352E-04 -4.31825624E-04 -4.62340516E-04 -2.23423965E-04  2.28205160E-18
  4.56575495E-05 -1.26113075E-05  7.17451379E-18  1.68296601E-05  1.72719517E-05
  1.34731414E-17  6.68587321E-05  1.60903250E-05 -7.34741532E-05 -4.87180481E-05
 -1.59281758E-04 -5.16240203E-04  3.44451886E-04  2.96761136E-04  1.89961368E-17
  5.55377733E-06  1.24321763E-04  6.60086926E-17  1.87997142E-05  4.24120550E-04
  1.44193880E-16  4.32746061E-05  9.54326354E-04  1.80655302E-16  4.57065707E-05
  1.12303435E-03  1.17454413E-16  1.45349679E-05  4.61322455E-04  2.18802317E-17
 -5.47126051E-07  2.62406690E-05 -2.59173426E-05 -1.50735906E-20 -1.54715151E-06
  1.72465780E-04  2.40289787E-17  6.09924814E-17  7.99406815E-17  2.53802981E-17
  4.18875851E-06 -4.09674991E-18  1.92547991E-18  7.49699641E-07 -1.47359976E-18
  7.94717330E-19  8.02511572E-06 -7.11967325E-18 -9.23837186E-19  1.18363288E-16
 -1.04717137E-16 -2.85150827E-17 -6.33192989E-17 -7.21184878E-17 -1.06936319E-17
 -2.02000000E-06  1.07917199E-17 -1.03789834E-17 -7.13891003E-06  3.65443242E-17
 -3.60146995E-17 -1.56303086E-05  8.35942195E-17 -7.88250785E-17 -1.87237049E-05
  9.23107976E-17 -9.45222629E-17 -1.18205910E-05  3.24358333E-17 -4.65607881E-17
 -2.06739383E-06 -1.12837604E-19 -6.02300371E-18  9.60544919E-19  3.82842129E-07
 -1.41543105E-18 -6.56205061E-19  1.66100737E-04  9.88536876E-04  2.44320203E-03
  3.39059921E-03  1.78184802E-03  1.50868469E-17 -2.78053789E-04 -6.04953426E-05
  2.71963738E-17 -1.34068868E-04 -1.89415400E-04  7.40159718E-18 -5.45796976E-04
 -1.90576959E-04  3.04854896E-04 -6.63163779E-04 -1.08866734E-03 -1.80652910E-03
 -5.57975583E-03 -2.36672458E-03  5.93614820E-17  3.86945746E-06 -9.58848638E-04
  2.10781021E-16  1.31066212E-05 -3.31116765E-03  4.45800224E-16  2.94743671E-05
 -7.21804194E-03  5.62132859E-16  5.08101438E-05 -8.89414056E-03  3.87099800E-16
  2.72494326E-05 -4.06358751E-03  4.79222448E-17 -1.86525205E-07 -2.80829409E-04
  2.90288642E-04 -3.48443321E-18  1.34477599E-06 -6.19544930E-05  4.94707108E-18
  1.29988786E-03  9.13546845E-17  1.81361795E-16 -7.13067592E-17  7.50858494E-16
 -2.61158506E-04 -3.19456498E-17  3.36032180E-17 -3.27516349E-04  1.25383286E-16
 -8.99951976E-17 -6.91477768E-04 -1.15562100E-16  2.51243113E-16 -1.64457306E-16
  2.18034019E-16  1.42159146E-16  4.69551374E-16  3.32938666E-15  5.61051637E-16
 -9.97655614E-04  3.43317381E-17 -8.85500197E-18 -3.48782326E-03  9.59083870E-17
 -4.41213660E-17 -7.50955593E-03  3.18632793E-16 -4.18188477E-18 -9.59094587E-03
 -7.92445050E-17 -5.02123651E-16 -6.00620093E-03 -1.28323066E-15 -1.10554345E-15
 -1.02530725E-03 -2.48814720E-16  1.62573524E-17  5.49276168E-18  3.02137616E-04
 -2.36646089E-18 -6.16957241E-18  7.72127645E-07 -1.34848648E-17  1.27456191E-03
 -2.57673097E-03 -6.46090976E-03 -6.78689282E-03 -2.43885120E-03  6.21138577E-18
  3.87862012E-04 -4.60321641E-04  4.97991315E-17 -1.24278833E-04 -1.48650262E-04
  5.53944588E-17  2.70914187E-04 -2.99892340E-04 -2.81511459E-05  4.71980463E-05
  5.95930532E-05  7.35099905E-05 -1.16596176E-04 -4.50081255E-05  6.33884125E-17
 -1.61006118E-03 -1.70447757E-05  2.36275554E-16 -5.46952747E-03 -5.84218191E-05
  4.73240470E-16 -1.22724457E-02 -1.32505755E-04  6.50770648E-16 -1.43124653E-02
 -1.26356901E-04  3.29840644E-16 -5.12113985E-03 -4.16236864E-05  4.76842596E-17
  1.39656902E-04  2.26041714E-07  1.09731756E-06  1.98308638E-17  4.74641694E-04
 -4.37744406E-06 -5.53753136E-18  1.78868933E-06 -3.85406386E-17  2.02427060E-03
 -9.67604216E-04 -2.25307878E-03 -1.58582627E-03 -6.19091982E-04 -1.88276576E-17
  2.31067117E-04 -1.55130782E-04 -1.13040316E-18  4.03526176E-05  1.98645883E-05
 -3.63248423E-17  1.66901789E-04  3.60178737E-05  2.45822949E-03 -3.84610588E-03
 -4.05188289E-03 -8.39377296E-03 -2.18474610E-03  7.07828875E-04 -3.76509271E-17
  9.81375280E-06  3.92400084E-04 -1.40165284E-16  3.26836485E-05  1.32208135E-03
 -2.71915423E-16  7.71840250E-05  3.04485536E-03 -4.03994296E-16  7.42430396E-05
  3.60350013E-03 -2.67941218E-16  1.92962062E-05  1.25325055E-03 -4.09265555E-17
 -1.70475789E-06  2.24324288E-05 -4.24176104E-05  1.28119259E-17 -3.54885471E-06
  2.80111225E-04 -1.59303775E-18 -1.56116434E-04 -3.42384881E-19 -1.01355027E-05
  1.20597232E-03 -1.77470780E-18 -1.60846124E-17 -1.02760371E-16 -1.11918808E-16
  5.87384921E-05 -2.22929706E-20  3.00154220E-18  5.09798849E-05 -1.21917875E-18
  4.17108419E-18  2.71302372E-05  2.68224721E-17 -6.62733946E-18  2.73430501E-16
 -8.45980174E-17  2.76949967E-16  5.24212411E-16  4.61981243E-16  1.60399141E-16
 -1.90459531E-05 -6.53858512E-18  1.95118791E-17 -6.62017130E-05 -2.30224028E-17
  6.77202421E-17 -1.45320403E-04 -4.80597486E-17  1.49335027E-16 -1.81349921E-04
 -7.88824425E-17  1.57428740E-16 -1.14354372E-04 -3.58313014E-17  4.57931777E-17
 -1.96072659E-05  3.27585032E-18 -7.87640417E-18 -1.44467988E-18  1.14248321E-06
  7.23995612E-19  9.96635439E-20  2.47758481E-04 -7.26866098E-18  6.15450102E-06
  6.30840479E-18 -6.02438316E-18  1.02019575E-03  1.57304364E-03  3.91066476E-03
  5.75286253E-03  3.04011172E-03 -6.14417518E-17 -4.01725430E-04 -9.04784316E-05
 -7.81850360E-17 -2.05069194E-04 -2.66831916E-04 -2.55899789E-16 -9.58769590E-04
 -3.33238569E-04  8.00874731E-04 -1.49815790E-03 -2.10366923E-03 -3.78232247E-03
 -1.00341166E-02 -4.07398172E-03 -3.15346477E-16 -1.24542518E-06 -1.54749037E-03
 -1.10287576E-15 -3.95577387E-06 -5.33594687E-03 -2.39958855E-15 -1.07083688E-05
 -1.16913911E-02 -3.02439680E-15  1.50184428E-05 -1.45550954E-02 -1.85232847E-15
  2.01922503E-05 -6.79761095E-03 -3.40504866E-16 -1.55358408E-07 -4.71743310E-04
  1.43962198E-04  1.39233369E-17  2.62614966E-06 -6.67509996E-05  5.20095971E-18
  9.91250298E-04  9.12472109E-17  5.13021700E-06 -2.04051862E-04 -9.25827856E-18
  1.57673986E-03 -8.97879747E-17 -2.43993430E-16 -6.77383830E-16  9.07522078E-16
 -4.00968264E-04 -2.45470220E-18  1.75124991E-17 -5.15984721E-04  1.89352173E-16
 -1.39883638E-16 -1.24980488E-03 -9.31279111E-17  3.55699905E-16  8.07759345E-16
 -8.39643965E-16 -5.08457189E-16 -9.17391972E-16  5.22875262E-15  1.25976620E-15
 -1.59807502E-03 -2.69367788E-18  3.24053215E-17 -5.58827917E-03 -4.48000150E-17
  8.43650497E-17 -1.20171640E-02  6.90019982E-17  3.61629401E-16 -1.57417326E-02
 -6.75480730E-16 -3.46235039E-16 -1.02570066E-02 -2.30869155E-15 -1.76788815E-15
 -1.74496394E-03 -4.13946597E-16 -1.74861847E-17  6.98777427E-18  1.52238391E-04
  4.56298435E-18 -5.24207896E-18  5.14297965E-07 -3.69099232E-17  9.66414901E-04
 -2.55050743E-17  4.21855882E-17  7.15203708E-06  1.23842435E-16  1.62739546E-03
 -1.89239040E-03 -4.52769796E-03 -4.81097033E-03 -1.86207965E-03 -2.63312528E-16
  2.44661820E-04 -3.19319419E-04 -3.49595079E-16 -1.43720986E-04 -7.95816984E-05
 -7.84577969E-16  2.20241450E-04 -1.70572370E-04 -3.35834868E-05  2.82215382E-05
  4.43445892E-06 -4.79174545E-07 -5.95341961E-05 -3.74373723E-06 -1.17280020E-15
 -1.16227120E-03 -7.31443667E-07 -4.09322932E-15 -3.93491383E-03 -2.25583084E-06
 -8.85805376E-15 -8.83044977E-03 -6.88192190E-06 -1.13700206E-14 -1.07499603E-02
  1.29335305E-05 -7.42291771E-15 -3.91994292E-03  1.98970891E-05 -1.26223327E-15
  1.58507764E-04  2.28797862E-06 -8.88715040E-08  7.29284843E-17  2.28131330E-04
 -1.91800479E-06 -3.32096409E-18 -3.33731433E-06  3.10263644E-16  1.18614336E-03
 -3.70386470E-06  9.74563303E-18 -3.64699161E-06  5.49633435E-16  1.34750509E-03
 -3.23420855E-04 -6.20469987E-04  2.68968145E-04  7.43713585E-05  2.02595163E-16
  7.36362601E-05 -1.14718397E-04  3.13221637E-16 -2.03896349E-05  1.07314438E-05
  6.25056780E-16 -1.05368452E-04 -4.25310607E-05  1.69460487E-03 -2.85528706E-03
 -3.30605726E-03 -6.66508680E-03 -3.83280429E-03 -8.73130443E-05  9.84173585E-16
  1.94279225E-07 -8.77013988E-05  3.44343352E-15 -1.37010309E-07 -3.42043337E-04
  7.45565666E-15  2.81641615E-06 -6.06675792E-04  9.44397636E-15 -1.09798743E-06
 -7.76088826E-04  6.05267565E-15 -3.97910074E-06 -8.67941794E-04  1.01716458E-15
  1.81311521E-07 -1.80091206E-04 -7.38358085E-06 -3.72359664E-17 -6.60915678E-07
  7.39848787E-05 -3.41062632E-19 -3.43856528E-05 -2.64426548E-16 -9.99421459E-07
  5.62153450E-04 -1.58109084E-17  1.56615909E-05 -4.28349926E-16  1.28385468E-06
  8.42232262E-04 -3.21782140E-17 -6.02130962E-17  4.81684057E-17 -4.11576254E-17
  5.22624986E-05  1.85097895E-17 -5.63344043E-18  2.35999183E-05  5.06619958E-18
  4.89103091E-18  1.10307476E-04  2.25576687E-17 -1.18233606E-17 -5.21887153E-16
  6.06241865E-17 -7.44059083E-16 -1.40069899E-15 -5.37974400E-16  9.19966436E-17
  1.00875349E-06  4.39621131E-17  1.94506030E-17  3.67701030E-06  1.49538854E-16
  5.86993971E-17  7.00402083E-06  3.39394333E-16  1.48210523E-16  1.28646375E-05
  3.86291863E-16  1.81418199E-16  1.42343714E-05  1.57759997E-16  1.66048780E-17
  2.54467342E-06  7.90770140E-18 -2.16149706E-17 -8.29792872E-19 -2.91198540E-07
 -5.97809068E-18  3.24636834E-18  7.07442000E-05 -7.75509112E-18 -1.22646101E-06
 -2.22597672E-17  2.53250243E-17  5.12629183E-04 -1.05083911E-17 -2.89557501E-06
 -2.14058297E-17  8.23897248E-18  7.85837781E-04 -3.60804834E-06 -4.48423163E-05
 -3.02632293E-04 -1.79553572E-04 -3.43881721E-18  3.96312437E-06  2.86720812E-05
 -9.51450901E-18  4.16867881E-05  4.79003288E-05 -8.08231404E-18  4.89918687E-05
  2.25068763E-05 -4.35657948E-04  7.28702862E-04  8.34070127E-04  1.72053502E-03
  1.21891154E-03  2.70992982E-04 -2.14567879E-17 -1.54389677E-06  8.22219379E-05
 -7.42699856E-17 -5.08698579E-06  2.87513019E-04 -1.63561685E-16 -1.24507215E-05
  6.11778683E-04 -2.03196354E-16 -1.47736421E-05  7.50869577E-04 -1.35974260E-16
 -5.93136467E-06  3.93553645E-04 -2.10081353E-17  3.55677895E-07  3.93558054E-05
 -9.22665197E-06 -5.25832189E-19  3.25701195E-07  2.06187907E-06 -5.92216533E-19
 -7.84690728E-05  7.10659816E-18  1.71430468E-06 -3.73314725E-05  1.83984099E-18
 -5.40072693E-05  8.81587750E-18  1.57271020E-06  1.95984692E-05 -2.46544744E-18
  1.99809792E-04  1.70633676E-17  4.88320717E-17  1.21517341E-16 -8.01222096E-17
  4.87701142E-05 -1.66490933E-18 -3.54667799E-18  6.97259000E-05 -2.36923732E-17
  1.40366059E-17  1.29861497E-04  2.91699856E-18 -4.40842282E-17 -2.34845762E-16
  1.66546128E-16 -3.17233386E-17 -5.33659587E-17 -7.50889253E-16 -1.74929078E-16
  1.90784410E-04  2.11297654E-19 -1.79200152E-17  6.67106509E-04  4.79626086E-18
 -5.94882966E-17  1.43833266E-03 -8.77600877E-18 -1.51177195E-16  1.83644017E-03
  7.73204829E-17 -8.72063733E-17  1.16329109E-03  2.66740078E-16  1.40822875E-16
  1.99722328E-04  4.66897408E-17 -4.41292212E-18 -5.99963625E-20 -1.64355476E-05
 -5.63227001E-19  2.29537763E-19 -1.19002505E-07  8.55127949E-18 -9.56333711E-05
  2.95319467E-18 -4.31253193E-18 -9.12833810E-07 -7.35141306E-18 -1.30635398E-04
 -6.38959050E-17  5.19389004E-17  3.36280947E-07 -1.44907861E-18  2.10876199E-04
  6.06038317E-05  1.58426020E-04  1.15271837E-04  2.68310980E-05  1.04942970E-17
 -2.25078397E-05 -5.25560694E-06  1.44959257E-17 -2.62029780E-05 -1.71664295E-05
  3.15273481E-17  5.89726541E-06  4.63546014E-06  5.00284071E-06 -8.60715122E-06
 -9.38146897E-06 -1.96894716E-05  1.07257046E-05  8.89677133E-06  4.75500894E-17
  3.84155093E-05  3.96950488E-06  1.66243896E-16  1.27916110E-04  1.34588404E-05
  3.59603098E-16  2.97479442E-04  3.13611924E-05  4.58691072E-16  3.14500386E-04
  3.53386736E-05  2.96873608E-16  1.19210040E-04  1.52060555E-05  5.04177290E-17
  2.24397767E-06  9.97688978E-07 -5.28632969E-07 -2.86942466E-18 -1.09457828E-05
  1.76105314E-07  2.56373708E-19 -2.11260924E-06 -1.30785265E-17 -7.99998917E-05
  9.82743850E-07  2.02666324E-19 -1.17641749E-06 -2.20287966E-17 -7.38563104E-07
  6.94953646E-07  6.43842836E-19 -1.13901186E-07  2.56291761E-18  1.88744993E-04
  5.20536998E-04  1.23605334E-03  1.24542906E-03  5.51605226E-04 -7.54038945E-18
 -1.31453961E-04  4.06733596E-05 -1.70551956E-17 -3.99423684E-05 -3.85500096E-05
 -4.06278244E-17 -1.79459108E-04 -4.36835230E-05 -7.40213204E-04  1.16988093E-03
  1.18912509E-03  2.62624298E-03 -5.21686264E-04 -6.70418230E-04 -5.57650126E-17
 -2.72524648E-06 -3.38779606E-04 -1.92509101E-16 -9.08734836E-06 -1.15690767E-03
 -4.27811281E-16 -2.19020539E-05 -2.59343939E-03 -5.21724619E-16 -1.76884916E-05
 -3.11794736E-03 -3.19325889E-16 -2.49878000E-06 -1.27955444E-03 -5.93433874E-17
  8.88185513E-07 -8.39041390E-05  2.13425847E-05 -1.71424026E-18  1.59634675E-06
 -2.64556036E-05  1.18183385E-18  1.24948763E-04  1.81973531E-17  4.68574912E-06
 -1.55686275E-04  1.36562898E-18  1.77598190E-04  1.33829101E-17  1.84407317E-06
 -1.78342118E-05 -1.01476053E-17 -7.76143762E-06 -7.60553560E-19 -1.04308781E-06
  2.43322959E-04 -6.79853830E-19 -8.38201518E-19  1.96518177E-17  1.97968895E-17
 -1.78462988E-05 -8.11321016E-19 -2.12651474E-18 -4.52120087E-05 -2.20812514E-18
 -2.11038408E-18  1.03937789E-05 -7.77445380E-18 -7.02959538E-19 -4.68651553E-16
  3.37081781E-16 -6.07348202E-17 -7.67514041E-17 -1.20572100E-16 -3.98676203E-17
  3.47855902E-06 -5.00167909E-18 -1.12808924E-17  1.19316305E-05 -1.69689958E-17
 -3.97044733E-17  2.72573596E-05 -3.82925492E-17 -8.98571936E-17  3.20244344E-05
 -4.35997308E-17 -1.01442835E-16  2.05117890E-05 -1.40440614E-17 -3.84016853E-17
  3.77108514E-06  6.63820726E-20 -1.65520225E-18  6.49628868E-19 -4.11933849E-07
  8.12806826E-19 -2.25496915E-19 -3.41253329E-06  3.25380062E-18 -1.60713477E-06
  3.14722908E-18 -7.60840709E-19 -5.86011012E-05  5.03587914E-18 -1.06172086E-06
  1.02727072E-18  3.14908087E-18  7.92340821E-06 -4.83221716E-19  3.33975392E-07
 -2.42386541E-19  7.12904378E-19  1.92560914E-04  1.39649840E-17  2.13028132E-17
 -9.12562772E-17  3.03143961E-16 -1.14591433E-04 -9.31771534E-18  7.62929554E-18
 -1.80842325E-04  5.41274463E-17 -4.46614403E-17 -3.07771341E-04 -3.90641690E-17
  9.87031469E-17  5.90085007E-17 -7.67236119E-17 -8.75062465E-17 -1.12212750E-16
  1.42799662E-15  2.93109851E-16 -4.75696615E-04  2.38297930E-18 -1.31884818E-17
 -1.66222167E-03 -1.62174388E-18 -5.36104882E-17 -3.59744931E-03  4.33734258E-17
 -6.95303965E-17 -4.55301677E-03 -1.60510501E-16 -3.16100239E-16 -2.86702726E-03
 -6.45212528E-16 -5.92416433E-16 -4.95891285E-04 -1.16112311E-16 -9.10347763E-18
  3.15828736E-18  2.30613425E-05  1.03508222E-18 -2.79814562E-18  5.12936795E-07
 -3.13103086E-18  1.57064506E-04 -1.10042281E-17  3.84439460E-18  3.15347163E-06
  4.75617829E-17  1.88425512E-04  1.53523916E-16 -1.25868572E-16 -5.65737324E-07
  2.18318834E-18 -2.34748236E-05 -6.22897594E-18  8.31017030E-18 -5.49754513E-07
  2.51575813E-04 -5.15651949E-04 -1.33426141E-03 -1.46323201E-03 -4.81332635E-04
 -9.19313645E-18  6.94837951E-05 -1.05307297E-04 -3.28151918E-18 -2.71350804E-05
 -6.40452047E-05 -2.13501118E-17  4.94433781E-05 -7.47747727E-05 -4.41173061E-06
  7.96812642E-06  1.16586665E-05  1.12014898E-05 -1.18212073E-05 -4.20181587E-06
 -3.33384009E-17 -3.37290208E-04 -6.39699871E-07 -1.13687116E-16 -1.14204199E-03
 -2.39912180E-06 -2.52995278E-16 -2.59023727E-03 -4.84818444E-06 -3.16666020E-16
 -2.94820231E-03 -2.81379146E-07 -2.20519086E-16 -1.00595582E-03  1.94921053E-06
 -3.96687288E-17  8.25354441E-06  1.16927040E-06  1.48512745E-08  6.62521283E-18
  5.35551196E-05 -9.79862777E-07 -1.37137063E-18 -7.61646852E-07  5.20504397E-18
  2.32074750E-04 -2.10634403E-06  1.12964787E-18  7.54665364E-07  1.70473898E-17
  1.00050242E-04 -3.43248084E-07 -5.88215537E-18  2.22545866E-07 -1.76419907E-18
 -5.03760957E-07  7.39347572E-07  8.43646573E-19  4.12144252E-18  2.28282879E-04
 -1.41724837E-03 -4.21901433E-03 -6.17587573E-03 -1.30850391E-03  1.53982867E-17
 -3.55194698E-04 -7.77300911E-04  5.66392344E-17 -6.48136467E-04 -8.13889567E-04
 -2.28349629E-17 -6.81536576E-04 -1.27149401E-03 -6.01487197E-03  1.03108785E-02
  1.14020112E-02  2.42278912E-02 -1.94696439E-03 -5.88211909E-03 -1.98986006E-17
 -3.86091861E-03 -2.93469387E-03 -1.25726119E-17 -1.31092292E-02 -1.00227791E-02
 -2.08015952E-16 -2.95220616E-02 -2.24358274E-02 -2.96689260E-17 -3.48762917E-02
 -2.76749560E-02 -1.50929975E-16 -1.26337050E-02 -1.20551356E-02 -9.89478320E-17
  3.01441681E-04 -7.14305755E-04  1.66814229E-04  1.77523312E-17  6.03576571E-04
 -1.97291943E-04 -7.91689261E-18  9.86894061E-04 -1.01771138E-17  2.65053918E-03
 -1.01826219E-03  2.00075634E-17  1.58997477E-03 -7.55738750E-17  1.90823040E-03
 -3.32635680E-04 -1.67931711E-16  3.28182049E-06  1.53579381E-17 -7.22784220E-05
  5.38587041E-04  1.54095684E-17  8.25138961E-18  5.24494037E-04  1.12498484E-02
 -4.20375424E-03 -1.21501026E-02 -1.58846786E-02 -3.13198894E-03  1.02626369E-16
 -6.87244318E-04 -2.07699640E-03  2.51853298E-16 -1.59536272E-03 -2.03984027E-03
  1.52896799E-16 -1.77655010E-03 -3.25093946E-03 -1.09769739E-02  1.99143386E-02
  2.28276120E-02  4.83922343E-02 -1.12369956E-02 -1.50783958E-02  2.90570815E-16
 -9.61814347E-03 -7.30414078E-03  1.15210110E-15 -3.26436776E-02 -2.49678911E-02
  2.06243695E-15 -7.35101700E-02 -5.57256744E-02  3.16836272E-15 -8.64721805E-02
 -6.85438137E-02  1.70395142E-15 -3.13797075E-02 -3.03584375E-02  1.03255157E-16
  6.88556856E-04 -1.91939733E-03  4.09926766E-04  4.11232098E-17  1.50827672E-03
 -4.76881483E-04 -2.04614996E-17  2.40736423E-03 -1.28499283E-16  6.55982273E-03
 -2.33459155E-03  2.83734449E-17  3.90572510E-03 -3.22727496E-16  4.50297464E-03
 -6.21842938E-04 -4.01201029E-16 -3.11153572E-05  5.60758209E-17 -1.83197053E-04
  1.25807361E-03  4.08403519E-17 -2.26331124E-17  1.34124634E-03  2.76577424E-02
  6.94754044E-02 -6.02505621E-03 -1.56005847E-02 -1.00914694E-02  1.84696238E-03
  2.26648659E-15 -3.20914675E-04 -3.08058404E-03  3.58670709E-15 -2.27424663E-03
 -2.73695660E-03  6.76129606E-15 -3.69007444E-03 -4.34720316E-03  2.17852122E-03
 -5.23518353E-03 -9.14600465E-03 -1.59809083E-02 -6.47911264E-02 -2.54133293E-02
  1.05306957E-14 -1.03614477E-02 -9.93093150E-03  3.69776469E-14 -3.53045880E-02
 -3.43365684E-02  7.95080546E-14 -7.88020317E-02 -7.49163250E-02  1.02068921E-13
 -9.34899522E-02 -9.26103793E-02  6.55958202E-14 -3.44294443E-02 -4.39536751E-02
  1.08233241E-14  7.10662803E-04 -3.38932715E-03  5.87643665E-04 -3.72225655E-16
  1.60116208E-03 -5.04404426E-04 -1.55269111E-17  3.34034035E-03 -2.97224768E-15
  6.79784394E-03 -1.63394932E-03 -9.57317493E-17  5.74165311E-03 -4.97028350E-15
  4.72646299E-03  2.94216754E-04 -3.02051853E-16 -2.92649260E-04  6.21102998E-16
 -1.41227699E-04  1.25372677E-03  7.23850287E-17 -1.33553100E-15  1.44665899E-03
  2.81814893E-02  7.17846973E-02  9.06458157E-02 -1.26399506E-03 -3.05086255E-03
  1.72064549E-03  4.03523621E-03  1.35051366E-15 -3.71366959E-04 -1.28512419E-03
  2.15222728E-15 -9.57281445E-04 -1.32421228E-03  4.14016379E-15 -2.24769329E-03
 -1.84720308E-03  3.04138118E-03 -7.20308801E-03 -1.09078612E-02 -2.08729536E-02
 -3.96691124E-02 -1.39643481E-02  6.19823957E-15 -3.68942939E-03 -5.04433807E-03
  2.17055308E-14 -1.25469821E-02 -1.74206304E-02  4.66523909E-14 -2.81155469E-02
 -3.81244990E-02  6.09162174E-14 -3.35735744E-02 -4.72478304E-02  4.03681579E-14
 -1.24182210E-02 -2.26934341E-02  6.69298218E-15  3.36439492E-04 -1.62835834E-03
  3.03444319E-04 -2.24342068E-16  5.80387675E-04 -2.38265394E-04 -7.58496635E-18
  1.75404632E-03 -1.68075448E-15  2.44912269E-03 -6.40357911E-04 -1.04408937E-16
  3.01747035E-03 -2.97652021E-15  1.82458210E-03  7.66875895E-05 -1.15413256E-16
 -1.73192413E-04  3.62188253E-16 -3.94717604E-05  5.54724818E-04  3.89956379E-17
 -7.90578079E-16  4.75180325E-04  1.08072658E-02  2.71537775E-02  3.60724767E-02
  1.64134612E-02  6.37634520E-18  3.91694205E-17  3.05411576E-16 -4.20947334E-16
  1.75346165E-04  9.74516417E-18 -1.39655304E-17  2.44142657E-04 -9.40711603E-17
  7.08170051E-17  5.34675897E-04  3.76955383E-17 -1.65063974E-16  3.90470351E-17
 -3.33066752E-17  2.33237387E-17 -4.40287589E-17 -2.77179502E-15 -6.27565399E-16
  7.96582775E-04  3.47088933E-19 -8.52676216E-18  2.77825189E-03  1.79418288E-17
 -1.55879564E-17  6.02837511E-03 -4.14876262E-17 -1.15733364E-16  7.76521929E-03
  3.18445782E-16  2.58764911E-16  4.96453649E-03  1.11382554E-15  8.96722670E-16
  8.42127098E-04  1.97634408E-16  1.19544394E-17 -3.64920032E-18 -4.16286741E-05
 -2.72823928E-18  3.98409732E-18 -5.39028987E-06  1.60495975E-17 -2.70168224E-04
  1.25572036E-17 -9.42391344E-18 -6.87651757E-05 -6.51954372E-17 -4.13163635E-04
 -2.65936817E-16  2.19016286E-16 -5.17040653E-05 -4.94174810E-18  5.03129215E-05
  1.04393912E-17 -1.15035755E-17  1.95424063E-05 -1.18332931E-04 -7.96536376E-18
 -4.60218527E-19  7.67857133E-17  2.38310386E-15  1.43608634E-15  2.92874342E-04
  3.67035910E-04  7.34134554E-04  3.75288912E-04  3.98501530E-04  4.21593909E-18
 -1.91065047E-04 -6.41231145E-05  2.91926433E-18 -8.77733929E-05 -1.55798533E-04
 -1.25305987E-17 -2.57697155E-04 -2.05304507E-04 -1.57424605E-03  2.74927141E-03
  3.13980595E-03  6.54701796E-03  1.30818953E-05 -1.42495923E-03 -1.29010178E-17
 -5.31306573E-04 -7.38403291E-04 -3.41664925E-17 -1.79290273E-03 -2.50931863E-03
 -1.10486103E-16 -4.11133582E-03 -5.69463629E-03 -8.99893205E-17 -4.67470707E-03
 -6.93685916E-03 -6.55646278E-17 -1.62331274E-03 -2.93367513E-03 -2.60213774E-17
  4.36205999E-05 -1.52295914E-04  4.37866378E-05 -1.20622721E-18  9.10067219E-05
 -4.92782324E-05 -2.37024077E-19  2.82944712E-04  8.05793748E-18  3.96862544E-04
 -2.37968545E-04  2.79170471E-18  4.10058182E-04 -1.49764390E-17  2.41403686E-04
 -7.41279354E-05 -3.55867777E-17 -3.80274331E-06  3.47329883E-18 -2.47190901E-05
  1.34510594E-04  3.33481483E-18  3.08272217E-18  6.96925403E-05  2.08618125E-03
  5.12402735E-03  4.59740161E-03  1.93506497E-03 -1.22617947E-18  5.50315618E-04
 -7.98426838E-04 -2.14763663E-03 -3.19153138E-03 -1.33800118E-03  4.16828508E-18
  6.87474720E-05 -1.22762387E-04  7.11899492E-18 -5.76809961E-05 -4.62364900E-05
  2.60675608E-17  2.14733636E-04 -1.00841953E-04 -1.63291993E-03  2.89374739E-03
  3.47509196E-03  6.99027352E-03  4.00331021E-03  4.35081810E-04  8.85141726E-18
 -7.21688623E-04  5.62246793E-05  4.10732583E-17 -2.44011284E-03  2.20806091E-04
  5.96844619E-17 -5.56773640E-03  3.55632969E-04  1.21115477E-16 -6.48429927E-03
  5.43645364E-04  2.63188198E-17 -2.28945695E-03  5.39985940E-04  2.16536020E-18
  6.01539057E-05  8.71180662E-05 -7.48967029E-06  2.18387743E-18  1.11320214E-04
 -1.60731337E-05 -3.76962535E-18 -6.74543945E-05 -7.08044649E-18  4.71240460E-04
 -1.61384514E-04  8.74179750E-18 -9.51539352E-05 -1.38710334E-17  3.24907333E-04
 -1.16168135E-04 -2.92357509E-17  2.98559419E-05 -1.11807660E-19  5.28149385E-06
  4.12806215E-05  3.70747838E-19 -3.04689036E-18  1.07791166E-04  1.48493213E-03
  3.62135890E-03  2.68238354E-03  8.32783007E-04  8.96964010E-19  2.55394343E-04
  4.15156276E-04  3.22212065E-18  3.45543610E-17  3.73880888E-16 -6.05699086E-16
  2.35340522E-04  1.99626953E-17 -1.06080421E-17  3.31274434E-04 -1.17146986E-16
  1.04859200E-16  7.54026071E-04  6.68500267E-17 -2.09406900E-16  2.35452835E-16
 -1.58587290E-16  1.00560457E-16  6.30600829E-17 -3.59972743E-15 -8.06414381E-16
  1.08804996E-03  2.95362325E-17  3.90166100E-17  3.80774108E-03  1.24355535E-16
  1.54142284E-16  8.18966194E-03  1.65129910E-16  2.30765260E-16  1.06549597E-02
  7.02943034E-16  8.23514050E-16  7.00394320E-03  1.65162054E-15  1.47291125E-15
  1.20195422E-03  2.76499803E-16  4.10507803E-17 -7.51247503E-18 -5.08587422E-05
 -8.25185096E-18  8.00074948E-18 -1.89001406E-06  4.31800671E-18 -3.26386651E-04
 -2.20734470E-18 -5.19784223E-18 -6.18317890E-05 -1.17883296E-16 -5.11458638E-04
 -3.86898495E-16  3.08383589E-16 -1.86989679E-05 -5.40204999E-18  6.95393916E-05
  1.51415032E-17 -2.17999689E-17  4.74418229E-05 -1.80792761E-04 -1.46952291E-17
 -9.69401769E-17 -1.35496860E-16  3.03521383E-15  1.91819951E-15  3.03252208E-04
 -2.02844696E-17 -5.87088428E-18  5.89329776E-04  6.38808808E-04  1.59796021E-03
  2.31098901E-03  9.70830431E-04  2.55284934E-16 -8.07908432E-05  6.01966864E-05
  3.50630084E-16 -4.24511108E-05 -1.35456808E-06  7.58112499E-16 -2.68955947E-04
 -1.80684877E-05  1.21331341E-03 -1.28763466E-03 -7.30231408E-04 -1.71419294E-03
 -2.62599310E-03 -7.62075028E-04  1.17862009E-15  2.54980434E-04 -2.65611162E-04
  4.12531299E-15  8.47977621E-04 -9.36785669E-04  8.93095667E-15  1.98236393E-03
 -1.94327981E-03  1.12941197E-14  2.50427098E-03 -2.38427165E-03  7.16200055E-15
  9.11473864E-04 -1.19780722E-03  1.20602471E-15 -4.57164661E-05 -1.36106656E-04
  2.22613837E-05 -6.10804228E-17 -3.31914332E-05 -1.42046515E-05  9.88802116E-19
  1.27456191E-04 -3.28855618E-16 -1.37906007E-04 -3.02813236E-05 -1.55033013E-17
  1.91705549E-04 -5.40696810E-16 -1.53657525E-04  2.03988630E-05 -5.46807641E-18
 -4.31659198E-05  6.45175673E-17 -2.65306731E-05  3.39213704E-05  1.93020867E-18
 -1.51987687E-16 -3.16673931E-05 -1.00230586E-04  3.03328858E-05  8.32743717E-04
  1.37412427E-04  2.64577726E-16  1.40448233E-06 -1.33513077E-04  3.62293518E-16
  3.60125288E-04 -7.90879306E-04 -1.99866719E-03 -2.68768007E-03 -1.30445564E-03
  1.55898571E-16  1.51965554E-04 -4.31703791E-05  2.21980172E-16  9.48533027E-06
  6.71660425E-05  5.01345469E-16  3.09220866E-04  2.02905025E-05  1.30473085E-04
  3.43678103E-04  1.01444315E-03  1.80425851E-03  3.11569000E-03  1.21584990E-03
  7.33688046E-16 -2.48856591E-04  4.30693240E-04  2.57085013E-15 -8.65873205E-04
  1.47896610E-03  5.55254855E-15 -1.86028921E-03  3.26958734E-03  7.06895443E-15
 -2.17706709E-03  4.17191001E-03  4.47375410E-15 -8.27609308E-04  2.03896858E-03
  7.62130714E-16 -2.76458175E-06  1.25967892E-04 -2.90483675E-05 -3.06468820E-17
  2.97406025E-05  1.68406540E-05 -4.73404860E-18 -1.90449327E-04 -2.02906124E-16
  1.32536248E-04  2.30653344E-05 -8.71525181E-18 -2.63288713E-04 -3.26770835E-16
  7.31695721E-05  1.43073385E-05 -1.41751489E-17  4.72766407E-05  3.57897236E-17
  1.92458468E-05 -4.08820809E-05  7.40897149E-19 -9.87402486E-17  6.13396026E-05
  2.87639229E-05  2.28926483E-04  4.96868530E-05 -5.05845676E-04  1.63483468E-16
 -8.19460103E-05  1.15462075E-04  2.31937733E-16 -2.29745967E-05  3.36021754E-04
 -1.37690501E-16 -2.83574582E-16  5.55149537E-16 -1.34309506E-15  5.23576047E-04
  6.30265998E-17 -6.35748947E-17  7.64089450E-04 -2.64393715E-16  2.01297598E-16
  1.63340265E-03  1.28314860E-16 -4.88046443E-16  3.66193216E-16 -4.77293346E-16
 -3.22361997E-16 -8.76794439E-16 -8.58285616E-15 -1.92116429E-15  2.34175453E-03
 -4.18677868E-17  1.75777511E-17  8.17853384E-03 -9.15744704E-17  9.80893373E-17
  1.76465959E-02 -4.56602711E-16 -1.12603012E-17  2.30348264E-02  5.83519973E-16
  1.17634505E-15  1.51284563E-02  3.22577858E-15  2.88848169E-15  2.52399830E-03
  6.05614419E-16  6.33912895E-17 -1.25577653E-17 -1.24462355E-04 -1.28536830E-18
  1.51937116E-17 -1.07619657E-05  3.22387471E-17 -7.00623500E-04  6.68837130E-17
 -1.12596621E-17 -5.25322810E-05 -2.17544106E-16 -1.26304966E-03 -7.84253863E-16
  6.65359254E-16 -1.05739764E-04 -1.55390927E-17  1.31618423E-04  3.12538060E-17
 -4.32880564E-17 -5.09915804E-06 -3.12429401E-04 -1.84052637E-17 -2.83100735E-17
  1.76148069E-16  7.17201604E-15  4.41939139E-15  5.65518669E-04 -1.70314286E-17
  6.54352021E-18  8.05363164E-04  7.71989660E-16  4.94813001E-16  1.76243938E-03
  7.34569752E-04  1.92982913E-03  3.85953066E-03  2.34395300E-03  7.39411118E-16
 -2.61255248E-04 -2.02474200E-04  1.10781053E-15 -2.77039237E-04 -3.16138180E-04
  2.25043546E-15 -8.74800142E-04 -4.33077113E-04  4.04424075E-04 -1.66182438E-03
 -3.12035664E-03 -5.73761783E-03 -1.24665430E-02 -4.34686460E-03  3.39412317E-15
 -4.55446160E-04 -1.55118686E-03  1.18817507E-14 -1.57490962E-03 -5.38077706E-03
  2.56098233E-14 -3.41783125E-03 -1.16782023E-02  3.30459577E-14 -4.14662076E-03
 -1.45002677E-02  2.15744260E-14 -1.59262171E-03 -6.96898547E-03  3.61290612E-15
  5.45255267E-05 -5.32612779E-04  9.82616661E-05 -1.51438675E-16  7.27916535E-05
 -7.02241267E-05  6.01299042E-19  5.54591993E-04 -9.18642609E-16  2.70904542E-04
 -1.74366730E-04 -3.64683516E-17  9.76349101E-04 -1.60246694E-15  2.07610119E-04
  1.08731802E-04 -2.23347673E-17 -4.93846073E-05  1.91645211E-16  1.95746203E-06
  1.83810469E-04  1.22678138E-17 -4.35834132E-16  4.61366861E-05  2.26934565E-03
  5.70687570E-03  8.74249726E-03  4.09817556E-03  7.73910313E-16  4.29926020E-04
  3.34473370E-05  1.06053789E-15  2.02184982E-04 -1.90880036E-04  2.34197480E-15
  1.26994379E-03 -1.28809532E-03 -3.32186070E-03 -4.45777175E-03 -1.90065526E-03
  5.77229009E-16  2.07128374E-04 -1.02535586E-04  8.48922606E-16  2.50167526E-05
  1.71914282E-05  1.82694774E-15  4.37791041E-04 -1.55311370E-05 -1.35754296E-03
  1.85691947E-03  1.72890596E-03  3.60470818E-03  4.10680667E-03  1.31730895E-03
  2.67170880E-15 -5.31944791E-04  5.44862388E-04  9.35525040E-15 -1.82458489E-03
  1.86428914E-03  2.01763386E-14 -4.03417504E-03  4.12615565E-03  2.59733102E-14
 -4.80374079E-03  5.16613677E-03  1.68017355E-14 -1.77958730E-03  2.58924122E-03
  2.84468846E-15  3.88157502E-05  1.97071354E-04 -3.37381309E-05 -1.19663562E-16
  7.89632005E-05  1.41892464E-05 -5.29237173E-18 -1.96490452E-04 -7.32408011E-16
  3.02687475E-04  3.41690430E-05 -8.21251838E-18 -3.37753508E-04 -1.23629302E-15
  1.76434392E-04 -4.01847852E-05 -1.35597256E-17  2.32131313E-05  1.39828506E-16
 -2.76329164E-06 -4.45081088E-05  2.16604663E-18 -3.52444736E-16  7.64127724E-05
  4.16219977E-04  1.01527382E-03  8.55577636E-04 -5.17755938E-05  6.01086813E-16
 -1.17178385E-05  1.96627503E-04  8.48928006E-16 -9.74495991E-05  1.92027014E-04
  1.83846686E-15 -1.38854522E-04  3.25491938E-04
Grdnt Energy                               R     -7.635062210747377E+01
Grdnt NVar                                 I                0
Grdnt IGetFC                               I                4
Quartic Cent Dist                          R   N=          10
  1.10665960E-02  2.57177733E-02 -3.47118623E-02 -5.41712423E-03  9.13741404E-03
  6.20577795E-04 -2.65123176E-02  2.79642468E-02  5.41712423E-03 -5.22300909E-03
Sextic Cent Dist                           R   N=          14
  3.06600650E-05 -1.07429287E-04 -1.70224053E-04  2.47900341E-04 -1.53279084E-05
 -5.42248752E-05  6.45727263E-05  1.82529639E-05  2.53066129E-05 -3.88946325E-05
 -3.75787923E-06 -7.20822970E-06  6.20355055E-06 -8.11967869E-06
Mulliken Charges                           R   N=           3
  3.06341617E-01 -6.13769097E-01  3.07427480E-01
APT Charges                                R   N=           3
  2.52645207E-01 -5.05248792E-01  2.52603585E-01
Optimization MaxStp                        I                2
Optimization MaxJob                        I                1
Optimization Job offset                    I                0
Optimization Num results per geometry      I                8
Optimization Num geometry variables        I                9
Optimization Reference Energy              R     -7.600000000000000E+01
Optimization Number of geometries          I   N=           1
           1
Opt point       1 Results for each geome   R   N=           8
 -3.50622107E-01  0.00000000E+00  2.44432657E-05  1.34781887E-05  1.43276276E-04
  8.11117479E-05  0.00000000E+00  0.00000000E+00
Opt point       1 Geometries               R   N=           9
 -1.76985648E-32  1.43587816E+00 -8.87574125E-01  0.00000000E+00 -3.44321939E-50
  2.21893531E-01 -1.75844359E-16 -1.43587816E+00 -8.87574125E-01
Opt point       1 Gradient at each geome   R   N=           9
  3.90901180E-17  2.44432657E-05  8.56356288E-06  2.43514513E-16  2.41375835E-15
 -1.71271258E-05 -2.82604631E-16 -2.44432657E-05  8.56356288E-06
ONIOM Charges                              I   N=          16
           0           0           0           0           0           0
           0           0           0           0           0           0
           0           0           0           0
ONIOM Multiplicities                       I   N=          16
           1           0           0           0           0           0
           0           0           0           0           0           0
           0           0           0           0
Atom Layers                                I   N=           3
           1           1           1
Atom Modifiers                             I   N=           3
           0           0           0
Int Atom Modified Types                    I   N=           3
           0           0           0
Atom Modified Types                        C   N=           3
                                    
Link Atoms                                 I   N=           3
           0           0           0
Atom Modified MM Charges                   R   N=           3
  0.00000000E+00  0.00000000E+00  0.00000000E+00
Link Distances                             R   N=          12
  0.00000000E+00  0.00000000E+00  0.00000000E+00  0.00000000E+00  0.00000000E+00
  0.00000000E+00  0.00000000E+00  0.00000000E+00  0.00000000E+00  0.00000000E+00
  0.00000000E+00  0.00000000E+00
Cartesian Gradient                         R   N=           9
  3.90901180E-17  2.44432657E-05  8.56356288E-06  2.43514513E-16  2.41375835E-15
 -1.71271258E-05 -2.82604631E-16 -2.44432657E-05  8.56356288E-06
Cartesian Force Constants                  R   N=          45
  3.08431770E-05 -2.16383764E-17  3.73465298E-01 -4.35373095E-17 -2.33786209E-01
  2.16275852E-01 -2.33250029E-05 -6.24997899E-17  4.89401998E-18  4.66518680E-05
  1.27602239E-17 -3.43119745E-01  2.65100549E-01 -1.08501384E-15  6.86239488E-01
  1.08448213E-17  2.02471868E-01 -2.27678279E-01 -7.45727981E-16 -5.88498233E-10
  4.55356556E-01 -7.51817417E-06  8.41381663E-17  3.86432896E-17 -2.33268628E-05
  1.07225361E-15  7.34883159E-16  3.08450370E-05  8.87815246E-18 -3.03455534E-02
 -3.13143400E-02  1.14751363E-15 -3.43119744E-01 -2.02471868E-01 -1.15639178E-15
  3.73465297E-01  3.26924882E-17  3.13143405E-02  1.14024269E-02  7.40833961E-16
 -2.65100548E-01 -2.27678278E-01 -7.73526449E-16  2.33786208E-01  2.16275851E-01
Cartesian 3rd/4th derivatives              R   N=         270
  1.03876054E-02  3.87990771E-12 -1.81013755E-01 -3.01735275E-12  1.02673964E-02
  1.26030157E-01 -5.01110567E-02 -3.13830422E-12  3.16637435E-12  1.00222113E-01
 -3.98173056E-12  2.48214830E-01 -9.64427012E-03  4.22603092E-12 -4.96429661E-01
  3.16016771E-12 -1.08905221E-02 -1.18228868E-01 -1.03879522E-12 -1.44910273E-09
  2.36457735E-01  3.97234513E-02 -7.41603493E-13 -1.49021597E-13 -5.01110561E-02
 -2.44300363E-13 -2.12137249E-12  1.03876048E-02  1.01822850E-13 -6.72010750E-02
 -6.23126234E-04 -1.08772671E-12  2.48214831E-01  1.08905236E-02  9.85903856E-13
 -1.81013756E-01 -1.42814956E-13  6.23125747E-04 -7.80128853E-03 -2.12757913E-12
  9.64427159E-03 -1.18228866E-01  2.27039408E-12 -1.02673973E-02  1.26030155E-01
 -2.08236885E-01 -6.24531434E-12  8.65991301E-01  4.44029125E-12 -7.57310250E-01
  4.01245616E-01  1.93886664E-01  4.25472433E-12 -5.80713336E-12 -3.87773340E-01
  7.56482637E-12 -8.22723623E-01  7.87526816E-01 -1.60126237E-12  1.64544730E+00
 -5.42202321E-12  7.27093682E-01 -4.14997552E-01  8.75336648E-12  4.98067847E-08
  8.29995129E-01  1.43502211E-02  1.99059000E-12  1.36684211E-12  1.93886676E-01
 -5.96356399E-12 -3.33134327E-12 -2.08236897E-01 -1.31951203E-12 -4.32676784E-02
 -3.02165659E-02 -2.65346196E-12 -8.22723674E-01 -7.27093731E-01  3.97297399E-12
  8.65991353E-01  9.81731961E-13  3.02165686E-02  1.37519361E-02 -2.94623312E-12
 -7.87526866E-01 -4.14997577E-01  1.96450116E-12  7.57310297E-01  4.01245641E-01
 -2.21070248E-01  2.60893657E-12  8.24457972E-01 -4.04274629E-12 -7.92303449E-01
  4.40726035E-01  2.21070248E-01 -2.68370609E-12  5.17677587E-12 -5.09225594E-09
 -1.83240305E-12 -8.24457971E-01  8.08150624E-01 -6.36763675E-12  4.80102456E-08
  4.32536872E-12  8.08150621E-01 -4.40726035E-01 -1.09726931E-11 -1.61630120E+00
  2.50466894E-08  6.56019525E-10  7.47695257E-14 -1.13402959E-12 -2.21070243E-01
  8.20003980E-12  6.64732441E-12  2.21070242E-01 -7.76533517E-13 -3.20981921E-10
 -1.58471749E-02  9.05134284E-12  8.24457923E-01  8.08150579E-01 -8.27480933E-12
 -8.24457923E-01 -2.82622438E-13 -1.58471721E-02 -6.14850177E-10  5.79591726E-12
  8.08150576E-01  4.40726009E-01 -5.51329482E-12 -7.92303404E-01 -4.40726009E-01
  1.58358012E-02  3.19464504E-10 -2.43735015E-01 -5.89623552E-10  3.92525948E-01
 -3.22104669E-01 -1.71794828E-02 -2.64861721E-10  5.54810698E-10  3.43589398E-02
 -2.43739904E-10  2.59389819E-01 -4.66698106E-01  1.01420420E-09 -5.18779641E-01
  5.78325438E-10 -3.18353789E-01  3.79441372E-01 -7.46162481E-11  4.74634340E-09
 -7.58882750E-01  1.34368153E-03 -5.46027824E-11  3.48128533E-11 -1.71794799E-02
 -7.70464299E-10 -5.03709190E-10  1.58357985E-02 -7.57246000E-11 -1.56548039E-02
  7.41721579E-02 -7.49342481E-10  2.59389815E-01  3.18353785E-01  8.25067081E-10
 -2.43735011E-01  1.12981136E-11 -7.41721587E-02 -5.73367036E-02 -4.80194450E-10
  4.66698101E-01  3.79441373E-01  4.68896337E-10 -3.92525943E-01 -3.22104669E-01
 -7.28738797E-01 -8.04250878E-10  1.89065514E+00  5.38154162E-10 -1.93981967E+00
  8.13277491E-01  6.93469486E-01  6.10167054E-10 -6.44727780E-10 -1.38693905E+00
  8.99723847E-10 -1.85066713E+00  1.98149603E+00 -4.30314317E-10  3.70133450E+00
 -6.45489184E-10  1.89814330E+00 -8.47933729E-01  5.92716936E-10  2.54836891E-07
  1.69586759E+00  3.52693115E-02  1.94083824E-10  1.06573618E-10  6.93469548E-01
 -4.69409530E-10  5.27722476E-11 -7.28738859E-01 -9.54729687E-11 -3.99880103E-02
 -4.16763604E-02 -1.79852738E-10 -1.85066736E+00 -1.89814355E+00  2.75325706E-10
  1.89065537E+00  1.07335022E-10  4.16763690E-02  3.46562377E-02  5.20108439E-11
 -1.98149628E+00 -8.47933849E-01 -1.59345866E-10  1.93981991E+00  8.13277611E-01
 -7.67001048E-01 -6.52599826E-11  1.80631499E+00 -4.15192122E-12 -2.07521491E+00
  9.54775734E-01  7.73516903E-01  2.15252434E-10  1.67178040E-11 -1.54703373E+00
  8.44651255E-11 -1.81531337E+00  2.07882296E+00  2.22186226E-10  3.63062648E+00
 -4.89878162E-11  2.07160686E+00 -9.55046293E-01  2.77289511E-10 -2.67437059E-07
  1.91009244E+00 -6.51585524E-03 -1.49992451E-10 -1.25658828E-11  7.73516808E-01
 -3.06651351E-10 -2.28301695E-10 -7.67000953E-01 -1.92051428E-11  8.99837496E-03
 -3.60804701E-03 -4.37438660E-10 -1.81531312E+00 -2.07160659E+00  4.56643803E-10
  1.80631475E+00  5.31397374E-11  3.60804855E-03  2.70559068E-04 -2.94007315E-10
 -2.07882269E+00 -9.55046158E-01  2.40867577E-10  2.07521464E+00  9.54775599E-01
Dipole Moment                              R   N=           3
 -5.80519463E-17  3.17726996E-17 -7.38855265E-01
Dipole Derivatives                         R   N=          27
  3.32977357E-01 -4.36922635E-16 -4.92658081E-16  9.18660185E-18  2.51616068E-01
  7.02946852E-02  3.38314244E-17  6.28661715E-02  1.73284571E-01 -6.65954719E-01
  7.21927278E-16  6.80926497E-16 -1.20544024E-15 -5.03232137E-01 -1.33841763E-09
 -9.14238516E-16 -1.43402013E-09 -3.46569144E-01  3.32977362E-01 -2.85004643E-16
 -1.88268416E-16  1.19625364E-15  2.51616070E-01 -7.02946839E-02  8.80407092E-16
 -6.28661701E-02  1.73284573E-01
Polarizability                             R   N=           6
  8.85199885E+00 -8.65449424E-17  9.58846140E+00  1.03339183E-16 -2.45066820E-09
  9.00749506E+00
Quadrupole Moment                          R   N=           6
 -1.16800796E+00  1.33017239E+00 -1.62164430E-01  8.92192873E-17  4.27689907E-17
 -2.29330971E-17
NDeriv for static properties               I                3
ND12 for static properties                 I               -2
Dipole Moment num derivs                   R   N=          18
 -1.02286283E-16 -9.96950590E-11 -2.68349254E-01  1.10046439E-15  9.22777979E-09
  6.99478731E-02 -1.10398002E-15 -2.51928939E-01  7.77871751E-10 -1.66804550E-13
 -8.88697360E-10  1.28447829E-01 -7.85699520E-12  6.77447746E-10  1.04765184E-01
  2.41173494E-12 -5.92316213E-09 -6.22146094E-02
Dipole Derivatives num derivs              R   N=         162
 -6.16149203E-02  1.12175517E-12 -1.11397306E-12 -2.31950172E-12 -1.19095334E-01
 -1.44671119E-02  1.58830037E-12  9.67888278E-02 -9.58516902E-02  1.23229828E-01
 -1.19879179E-12  1.18843826E-12  2.39551521E-12  2.38190666E-01 -3.31527711E-09
 -1.78402473E-12 -2.73417998E-09  1.91703379E-01 -6.16149072E-02  7.70366214E-14
 -7.44652011E-14 -7.60134942E-14 -1.19095332E-01  1.44671157E-02  1.95724360E-13
 -9.67888253E-02 -9.58516887E-02  9.88440424E-02 -2.73163939E-12  2.80095497E-12
  4.89569212E-12  8.98766876E-02 -3.30235011E-02 -4.00429311E-12  7.41577169E-03
  7.70179671E-02 -1.97688069E-01  9.94840523E-13 -4.38963101E-12 -1.09436608E-12
 -1.79753368E-01  7.27298455E-09  6.61163393E-12 -4.66207076E-09 -1.54035932E-01
  9.88440268E-02  1.73679887E-12  1.58867603E-12 -3.80132604E-12  8.98766799E-02
  3.30234939E-02 -2.60734082E-12 -7.41576699E-03  7.70179650E-02  5.23912834E-02
  7.86146828E-13 -7.78068403E-13 -1.33107780E-12 -3.32785749E-02  3.61016903E-02
  8.61587720E-13 -1.61870001E-01 -2.24166984E-02 -1.62219249E-08 -1.34815896E-12
  2.85544915E-13  2.62693413E-12 -4.28498626E-09 -7.22033950E-02  2.65448377E-13
  3.23740002E-01 -1.40190113E-08 -5.23912672E-02  5.62012131E-13  4.92523487E-13
 -1.29585633E-12  3.32785792E-02  3.61017047E-02 -1.12703610E-12 -1.61870001E-01
  2.24167124E-02  9.27527273E-03 -4.08868223E-12  1.08116007E-13  9.46716681E-13
  1.41358070E-01  2.64864849E-02 -2.42284249E-11  2.59554526E-03  9.16939161E-02
 -1.85505641E-02 -1.15590955E-10 -2.90063157E-11  3.44528599E-10 -2.82716139E-01
 -3.23379334E-09  2.75887552E-10  1.31781353E-09 -1.83387839E-01  9.27529109E-03
  1.19679637E-10  2.88981997E-11 -3.45475316E-10  1.41358069E-01 -2.64864843E-02
 -2.51659127E-10 -2.59554470E-03  9.16939222E-02  3.03004110E-02 -3.13032652E-10
  3.03527762E-10  6.09160704E-10 -7.51074383E-02  9.47627601E-02 -4.47185011E-10
  8.27718335E-02 -2.98054080E-03 -6.06007779E-02  1.00845396E-10 -4.29136243E-10
 -1.31977574E-10  1.50214883E-01 -2.32215812E-08  8.54892819E-10 -6.90899087E-09
  5.96107363E-03  3.03003668E-02  2.12187256E-10  1.25608481E-10 -4.77183130E-10
 -7.51074450E-02 -9.47627367E-02 -4.07707807E-10 -8.27718288E-02 -2.98053302E-03
  6.71518194E-02  1.17387141E-10 -1.50858003E-10 -1.51005090E-10 -2.51279401E-02
  2.86703498E-02  1.03297909E-10 -1.13443313E-01 -6.89745595E-02 -1.34303572E-01
 -2.45157375E-10  1.50436944E-10  5.41737153E-10  5.02558015E-02  7.12213205E-08
  1.65196139E-10 -3.29536510E-08  1.37949203E-01  6.71517528E-02  1.27770234E-10
  4.21059254E-13 -3.90732063E-10 -2.51278615E-02 -2.86704210E-02 -2.68494048E-10
  1.13443346E-01 -6.89746436E-02
Polarizability num derivs                  R   N=          36
  2.97083620E-01  1.10990578E-12 -7.71513169E-01 -8.48277994E-14 -1.58879697E-09
  1.32510148E+00 -2.25999874E+00  1.91702128E-12 -7.53704095E+00  5.23507128E-13
 -1.03078466E-07 -4.75816596E+00 -5.50706718E-08  1.19287794E-12 -2.12371443E-07
 -3.56465812E-13  3.88351079E+00 -1.67526549E-07 -2.43316657E-01 -1.50755157E-11
  2.83603228E+00 -9.68229681E-11 -8.38498117E-09  2.38761228E+00 -2.88572515E-01
 -9.26892887E-11  6.93775878E+00  8.92736536E-11  1.19970759E-07  2.05680643E+00
 -4.16798757E-01  5.08875775E-11  3.48890008E+00  6.25006095E-11  1.45066999E-07
  2.24438376E+00
Quadrupole Moment num derivs               R   N=          36
  1.09234266E-01 -1.31390316E+00  1.20466889E+00 -9.35226873E-14 -1.12590332E-14
  1.31299782E-10  6.15286749E-01 -6.84711292E-01  6.94245432E-02 -2.61525537E-13
 -1.10032778E-13 -2.31277831E-08  1.81912378E-08 -2.00223725E-08  1.83115822E-09
 -1.99908627E-13 -1.02400646E-13  7.82936668E-01 -2.42041282E-01  9.40209494E-02
  1.48020333E-01  2.28806142E-12  7.48385671E-12 -2.86829645E-11 -5.51276768E-02
 -3.07418761E-02  8.58695528E-02  2.85050205E-11 -5.57593680E-12  1.47675477E-08
 -2.03313210E-01  2.41954014E-01 -3.86408040E-02  6.01525534E-13 -7.24659895E-12
 -1.40849584E-08
QEq coupling tensors                       R   N=          18
  2.74877284E-01 -3.08747407E-18 -2.40328167E-01  1.25857972E-18  3.34382071E-01
 -3.45491172E-02  1.69210523E+00 -1.66867512E-17 -1.50122320E+00 -1.09761311E-17
 -3.12749576E-17 -1.90882031E-01  2.74877284E-01 -5.94343325E-17 -2.40328167E-01
 -4.45913081E-17 -3.34382071E-01 -3.45491172E-02
NDeriv for magnetic props                  I                3
ND12 for magnetic props                    I               -2
QEq coupling tensors num derivs            R   N=         108
 -1.93510873E-02  4.44159374E-14  2.41105915E-01 -5.04748765E-14  1.09376589E-02
 -2.21754827E-01  3.47938153E-01  8.08974646E-15  8.07375037E-01 -3.25152616E-14
 -2.39873900E-10 -1.15531319E+00 -1.93510876E-02 -2.04950443E-14  2.41105915E-01
  2.32493416E-14 -1.09376585E-02 -2.21754827E-01  6.46518721E-01 -6.55488229E-14
 -5.80773062E-01  3.42754788E-14  8.63455379E-01 -6.57456593E-02 -9.46638671E-01
 -1.13382455E-12  4.08418968E-01 -2.44554050E-13  3.97294400E-08  5.38219702E-01
  6.46518760E-01  6.34409745E-14 -5.80773094E-01  4.09956979E-14 -8.63455432E-01
 -6.57456659E-02  6.65958071E-01  2.56719361E-14 -5.53577803E-01 -1.60277204E-14
  8.93993758E-01 -1.12380268E-01 -2.80869265E-08  1.39637274E-13  1.19438594E-08
 -5.39913899E-13 -1.33891599E+00  1.61430634E-08 -6.65958032E-01 -2.42926555E-14
  5.53577768E-01  4.97972876E-15  8.93993707E-01  1.12380264E-01 -2.51531950E-01
  4.63126241E-12  1.19650248E-01 -1.83071362E-12 -4.95109859E-01  1.31881702E-01
  1.27970839E-01  3.11451648E-11  5.32183873E-01  4.21269329E-11  7.90528391E-10
 -6.60154713E-01 -2.51531950E-01 -1.53565660E-11  1.19650247E-01 -1.10662314E-11
  4.95109859E-01  1.31881702E-01  1.51559694E+00 -1.64776106E-13 -1.34059489E+00
  7.96782958E-13  2.11415306E+00 -1.75002053E-01 -5.01894415E-02  3.01191694E-11
  5.24669813E-01  2.97765294E-11  2.48293477E-08 -4.74480369E-01  1.51559712E+00
 -1.10329524E-11 -1.34059504E+00 -8.96391498E-12 -2.11415331E+00 -1.75002083E-01
  1.59290955E+00  5.24840620E-12 -1.26819042E+00 -2.67995859E-12  2.21733496E+00
 -3.24719135E-01 -3.10930040E-01 -2.63510246E-11  1.19970416E-01  8.14380222E-11
 -2.22016769E-08  1.90959623E-01  1.59290937E+00 -7.17432958E-12 -1.26819026E+00
 -6.12959123E-12 -2.21733470E+00 -3.24719105E-01
Number of Normal Modes                     I                3
Vib-LE2Fix                                 I               14
Vib-NDFDPol                                I                0
Vib-NumROA                                 I                0
Vib-NDim                                   I                3
Vib-NDim0                                  I                3
Vib-LFlags                                 I                8
Vib-IFlags                                 I   N=          24
           0           0           1           0           0           0
           0           0           0           0           2           0
           0           0           0           0           0           0
           3           0           0           0           0           0
Vib-AtMass                                 R   N=           3
  1.00782504E+00  1.59949146E+01  1.00782504E+00
Vib-E2                                     R   N=          42
  1.64290075E+03  3.82236134E+03  3.93711763E+03  1.08304033E+00  1.04482753E+00
  1.08197100E+00  1.72233446E+00  8.99411196E+00  9.88149378E+00  7.02024119E+01
  4.76980118E+00  6.18738818E+01  0.00000000E+00  0.00000000E+00  0.00000000E+00
  0.00000000E+00  0.00000000E+00  0.00000000E+00  0.00000000E+00  0.00000000E+00
  0.00000000E+00  0.00000000E+00  0.00000000E+00  0.00000000E+00  0.00000000E+00
  0.00000000E+00  0.00000000E+00  0.00000000E+00  0.00000000E+00  0.00000000E+00
  0.00000000E+00  0.00000000E+00  0.00000000E+00  0.00000000E+00  0.00000000E+00
  0.00000000E+00  0.00000000E+00  0.00000000E+00  0.00000000E+00  0.00000000E+00
  0.00000000E+00  0.00000000E+00
Vib-Modes                                  R   N=          27
  7.06339059E-17  4.25987013E-01  5.62161657E-01 -5.61407529E-18 -1.30280669E-11
 -7.08425903E-02  1.84655426E-17 -4.25987013E-01  5.62161657E-01  4.62995156E-18
  5.85914032E-01 -3.94297145E-01  3.93768229E-18  2.04611155E-09  4.96886113E-02
 -6.71238268E-17 -5.85914065E-01 -3.94297171E-01  1.26403361E-25  5.58151244E-01
 -4.31269705E-01 -4.30691141E-18 -7.03372031E-02  1.50993734E-09  6.83538092E-17
  5.58151209E-01  4.31269681E-01
Anharmonic Number of Normal Modes          I                9
Anharmonic Vib-LE2Fix                      I               14
Anharmonic Vib-NDFDPol                     I                0
Anharmonic Vib-NumROA                      I                0
Anharmonic Vib-NDim                        I                3
Anharmonic Vib-NDim0                       I                3
Anharmonic Vib-LFlags                      I                8
Anharmonic Vib-IFlags                      I   N=          72
           1           0           2           0           0           0
           0           0           1           0           1           0
           0           0           0           0           1           0
           3           0           0           0           0           0
           2           0           2           0           0           0
           0           0           3           0           2           1
           0           0           0           0           2           0
           1           0           0           0           0           0
           3           0           3           2           0           0
           0           0           3           0           3           1
           0           0           0           0           2           0
           3           0           0           0           0           0
Anharmonic Vib-AtMass                      R   N=           3
  1.00782504E+00  1.59949146E+01  1.00782504E+00
Anharmonic Vib-E2                          R   N=         126
  1.59161483E+03  3.64731680E+03  3.74857842E+03  3.14902629E+03  5.22427199E+03
  7.20916805E+03  5.32068775E+03  7.23139689E+03  7.40061953E+03  0.00000000E+00
  0.00000000E+00  0.00000000E+00  0.00000000E+00  0.00000000E+00  0.00000000E+00
  0.00000000E+00  0.00000000E+00  0.00000000E+00  0.00000000E+00  0.00000000E+00
  0.00000000E+00  0.00000000E+00  0.00000000E+00  0.00000000E+00  0.00000000E+00
  0.00000000E+00  0.00000000E+00  7.08995709E+01  3.33641031E+00  5.66647222E+01
  5.79809670E-01  8.75470286E-02  4.29950334E-01  3.94505200E+00  3.05709179E+00
  2.95078736E-03  0.00000000E+00  0.00000000E+00  0.00000000E+00  0.00000000E+00
  0.00000000E+00  0.00000000E+00  0.00000000E+00  0.00000000E+00  0.00000000E+00
  0.00000000E+00  0.00000000E+00  0.00000000E+00  0.00000000E+00  0.00000000E+00
  0.00000000E+00  0.00000000E+00  0.00000000E+00  0.00000000E+00  0.00000000E+00
  0.00000000E+00  0.00000000E+00  0.00000000E+00  0.00000000E+00  0.00000000E+00
  0.00000000E+00  0.00000000E+00  0.00000000E+00  1.77710477E+02  3.64933195E+00
  6.03050341E+01  7.34541894E-01  6.68533284E-02  2.37925256E-01  2.95796045E+00
  1.68652850E+00  1.59065956E-03  0.00000000E+00  0.00000000E+00  0.00000000E+00
  0.00000000E+00  0.00000000E+00  0.00000000E+00  0.00000000E+00  0.00000000E+00
  0.00000000E+00  0.00000000E+00  0.00000000E+00  0.00000000E+00  0.00000000E+00
  0.00000000E+00  0.00000000E+00  0.00000000E+00  0.00000000E+00  0.00000000E+00
  0.00000000E+00  0.00000000E+00  0.00000000E+00  0.00000000E+00  0.00000000E+00
  0.00000000E+00  0.00000000E+00  0.00000000E+00  0.00000000E+00  0.00000000E+00
  0.00000000E+00  0.00000000E+00  0.00000000E+00  0.00000000E+00  0.00000000E+00
  0.00000000E+00  0.00000000E+00  0.00000000E+00  0.00000000E+00  0.00000000E+00
  0.00000000E+00  0.00000000E+00  0.00000000E+00  0.00000000E+00  0.00000000E+00
  0.00000000E+00  0.00000000E+00  0.00000000E+00  0.00000000E+00  0.00000000E+00
  0.00000000E+00  0.00000000E+00  0.00000000E+00  0.00000000E+00  0.00000000E+00
  0.00000000E+00
Anharmonic Vib-Modes                       R   N=          81
 -4.01380696E-16 -4.06065349E-01 -5.42377782E-01  3.23666436E-17  2.39208848E-11
  6.83494625E-02 -1.12301424E-16  4.06065349E-01 -5.42377783E-01 -2.22934909E-17
 -5.74153289E-01  3.84497311E-01 -2.29450553E-17 -2.00170797E-09 -4.84536539E-02
  3.86448168E-16  5.74153321E-01  3.84497336E-01  5.33693429E-18 -5.36591868E-01
  4.14611307E-01  2.40695682E-17  6.76203299E-02 -1.45161387E-09 -3.87338446E-16
 -5.36591835E-01 -4.14611284E-01 -8.22206557E-16 -9.20565201E-01 -1.04431122E+00
  6.23197519E-17 -2.73324300E-10  1.31602202E-01 -1.66853127E-16  9.20565206E-01
 -1.04431122E+00 -4.10967713E-16 -9.70405447E-01 -1.38424191E-01  8.26052583E-18
 -1.98958932E-09  1.74439635E-02  2.79867174E-16  9.70405478E-01 -1.38424167E-01
 -4.14462335E-17 -1.14510460E+00  7.73220179E-01 -4.61422726E-17 -4.00351387E-09
 -9.74398048E-02  7.73757581E-16  1.14510466E+00  7.73220228E-01 -3.96467862E-16
 -9.15518152E-01 -1.49061740E-01  5.49412676E-17  6.37888533E-02  6.80725639E-02
 -4.75489922E-16 -9.68572366E-02 -9.31299245E-01 -1.51329093E-17 -1.19984506E+00
  8.69933574E-01  5.08914170E-18  7.89677663E-02 -4.86110016E-02 -6.56354623E-17
 -5.34306963E-02 -9.84417044E-02  1.25234776E-17 -1.13302404E+00  8.78108768E-01
  4.52218324E-17  1.35240660E-01 -6.16054740E-03 -7.30226772E-16 -1.01334336E+00
 -7.80336411E-01
Anharmonic number of displacements         I                3
Anharmonic displacement N1                 I                0
Anharmonic displacement flags              I   N=           3
           1           2           3
Anharmonic displacements                   R   N=          27
 -6.78720407E-17 -4.09330442E-01 -5.40180503E-01  5.39455863E-18  1.25186548E-11
  6.80725653E-02 -1.77435192E-17  4.09330442E-01 -5.40180503E-01 -4.52954046E-18
 -5.73207145E-01  3.85745909E-01 -3.85228463E-18 -2.00173693E-09 -4.86109999E-02
  6.56680929E-17  5.73207176E-01  3.85745933E-01 -1.21520842E-25 -5.36591868E-01
  4.14611307E-01  4.14055092E-18  6.76203299E-02 -1.45161390E-09 -6.57135474E-17
 -5.36591835E-01 -4.14611284E-01
ClPar MaxAn                                I              200
ClPar NIntPar                              I               12
ClPar NRealPar                             I               16
ClPar NBits                                I               30
ClPar LenBitVec                            I                1
ClPar Read BitMap                          I   N=         200
           0           0           0           0           0           0
           0           0           0           0           0           0
           0           0           0           0           0           0
           0           0           0           0           0           0
           0           0           0           0           0           0
           0           0           0           0           0           0
           0           0           0           0           0           0
           0           0           0           0           0           0
           0           0           0           0           0           0
           0           0           0           0           0           0
           0           0           0           0           0           0
           0           0           0           0           0           0
           0           0           0           0           0           0
           0           0           0           0           0           0
           0           0           0           0           0           0
           0           0           0           0           0           0
           0           0           0           0           0           0
           0           0           0           0           0           0
           0           0           0           0           0           0
           0           0           0           0           0           0
           0           0           0           0           0           0
           0           0           0           0           0           0
           0           0           0           0           0           0
           0           0           0           0           0           0
           0           0           0           0           0           0
           0           0           0           0           0           0
           0           0           0           0           0           0
           0           0           0           0           0           0
           0           0           0           0           0           0
           0           0           0           0           0           0
           0           0           0           0           0           0
           0           0           0           0           0           0
           0           0           0           0           0           0
           0           0
ClPar Default BitMap                       I   N=         200
      516096      516096      516096      516096      516096      516096
      516096      516096      516096      516096      516096      516096
      516096      516096      516096      516096      516096      516096
      516096      516096      516096      516096      516096      516096
      516096      516096      516096      516096      516096      516096
      516096      516096      516096      516096      516096      516096
      516096      516096      516096      516096      516096      516096
      516096      516096      516096      516096      516096      516096
      516096      516096      516096      516096      516096      516096
      516096      516096      516096      516096      516096      516096
      516096      516096      516096      516096      516096      516096
      516096      516096      516096      516096      516096      516096
      516096      516096      516096      516096      516096      516096
      516096      516096      516096      516096      516096      516096
      516096      516096      122880      122880      122880      122880
      122880      122880      122880      122880      122880      122880
      122880      122880      122880      122880      122880      122880
      122880      122880      122880      122880      122880      122880
      122880      122880      122880      122880      122880      122880
      122880      122880      122880      122880      122880      122880
      122880      122880      122880      122880      122880      122880
      122880      122880      122880      122880      122880      122880
      122880      122880      122880      122880      122880      122880
      122880      122880      122880      122880      122880      122880
      122880      122880      122880      122880      122880      122880
      122880      122880      122880      122880      122880      122880
      122880      122880      122880      122880      122880      122880
      122880      122880      122880      122880      122880      122880
      122880      122880      122880      122880      122880      122880
      122880      122880      122880      122880      122880      122880
      122880      122880      122880      122880      122880      122880
      122880      122880      122880      122880      122880      122880
      122880      122880      122880      122880      122880      122880
      122880      122880
ClPar Int Params                           I   N=        2400
           0           0           0           0           0           0
           0           0           0           0           0           0
           0           0           0           0           0           0
           0           0           0           0           0           0
           0           0           0           0           0           0
           0           0           0           0           0           0
           0           0           0           0           0           0
           0           0           0           0           0           0
           0           0           0           0           0           0
           0           0           0           0           0           0
           0           0           0           0           0           0
           0           0           0           0           0           0
           0           0           0           0           0           0
           0           0           0           0           0           0
           0           0           0           0           0           0
           0           0           0           0           0           0
           0           0           0           0           0           0
           0           0           0           0           0           0
           0           0           0           0           0           0
           0           0           0           0           0           0
           0           0           0           0           0           0
           0           0           0           0           0           0
           0           0           0           0           0           0
           0           0           0           0           0           0
           0           0           0           0           0           0
           0           0           0           0           0           0
           0           0           0           0           0           0
           0           0           0           0           0           0
           0           0           0           0           0           0
           0           0           0           0           0           0
           0           0           0           0           0           0
           0           0           0           0           0           0
           0           0           0           0           0           0
           0           0           0           0           0           0
           0           0           0           0           0           0
           0           0           0           0           0           0
           0           0           0           0           0           0
           0           0           0           0           0           0
           0           0           0           0           0           0
           0           0           0           0           0           0
           0           0           0           0           0           0
           0           0           0           0           0           0
           0           0           0           0           0           0
           0           0           0           0           0           0
           0           0           0           0           0           0
           0           0           0           0           0           0
           0           0           0           0           0           0
           0           0           0           0           0           0
           0           0           0           0           0           0
           0           0           0           0           0           0
           0           0           0           0           0           0
           0           0           0           0           0           0
           0           0           0           0           0           0
           0           0           0           0           0           0
           0           0           0           0           0           0
           0           0           0           0           0           0
           0           0           0           0           0           0
           0           0           0           0           0           0
           0           0           0           0           0           0
           0           0           0           0           0           0
           0           0           0           0           0           0
           0           0           0           0           0           0
           0           0           0           0           0           0
           0           0           0           0           0           0
           0           0           0           0           0           0
           0           0           0           0           0           0
           0           0           0           0           0           0
           0           0           0           0           0           0
           0           0           0           0           0           0
           0           0           0           0           0           0
           0           0           0           0           0           0
           0           0           0           0           0           0
           0           0           0           0           0           0
           0           0           0           0           0           0
           0           0           0           0           0           0
           0           0           0           0           0           0
           0           0           0           0           0           0
           0           0           0           0           0           0
           0           0           0           0           0           0
           0           0           0           0           0           0
           0           0           0           0           0           0
           0           0           0           0           0           0
           0           0           0           0           0           0
           0           0           0           0           0           0
           0           0           0           0           0           0
           0           0           0           0           0           0
           0           0           0           0           0           0
           0           0           0           0           0           0
           0           0           0           0           0           0
           0           0           0           0           0           0
           0           0           0           0           0           0
           0           0           0           0           0           0
           0           0           0           0           0           0
           0           0           0           0           0           0
           0           0           0           0           0           0
           0           0           0           0           0           0
           0           0           0           0           0           0
           0           0           0           0           0           0
           0           0           0           0           0           0
           0           0           0           0           0           0
           0           0           0           0           0           0
           0           0           0           0           0           0
           0           0           0           0           0           0
           0           0           0           0           0           0
           0           0           0           0           0           0
           0           0           0           0           0           0
           0           0           0           0           0           0
           0           0           0           0           0           0
           0           0           0           0           0           0
           0           0           0           0           0           0
           0           0           0           0           0           0
           0           0           0           0           0           0
           0           0           0           0           0           0
           0           0           0           0           0           0
           0           0           0           0           0           0
           0           0           0           0           0           0
           0           0           0           0           0           0
           0           0           0           0           0           0
           0           0           0           0           0           0
           0           0           0           0           0           0
           0           0           0           0           0           0
           0           0           0           0           0           0
           0           0           0           0           0           0
           0           0           0           0           0           0
           0           0           0           0           0           0
           0           0           0           0           0           0
           0           0           0           0           0           0
           0           0           0           0           0           0
           0           0           0           0           0           0
           0           0           0           0           0           0
           0           0           0           0           0           0
           0           0           0           0           0           0
           0           0           0           0           0           0
           0           0           0           0           0           0
           0           0           0           0           0           0
           0           0           0           0           0           0
           0           0           0           0           0           0
           0           0           0           0           0           0
           0           0           0           0           0           0
           0           0           0           0           0           0
           0           0           0           0           0           0
           0           0           0           0           0           0
           0           0           0           0           0           0
           0           0           0           0           0           0
           0           0           0           0           0           0
           0           0           0           0           0           0
           0           0           0           0           0           0
           0           0           0           0           0           0
           0           0           0           0           0           0
           0           0           0           0           0           0
           0           0           0           0           0           0
           0           0           0           0           0           0
           0           0           0           0           0           0
           0           0           0           0           0           0
           0           0           0           0           0           0
           0           0           0           0           0           0
           0           0           0           0           0           0
           0           0           0           0           0           0
           0           0           0           0           0           0
           0           0           0           0           0           0
           0           0           0           0           0           0
           0           0           0           0           0           0
           0           0           0           0           0           0
           0           0           0           0           0           0
           0           0           0           0           0           0
           0           0           0           0           0           0
           0           0           0           0           0           0
           0           0           0           0           0           0
           0           0           0           0           0           0
           0           0           0           0           0           0
           0           0           0           0           0           0
           0           0           0           0           0           0
           0           0           0           0           0           0
           0           0           0           0           0           0
           0           0           0           0           0           0
           0           0           0           0           0           0
           0           0           0           0           0           0
           0           0           0           0           0           0
           0           0           0           0           0           0
           0           0           0           0           0           0
           0           0           0           0           0           0
           0           0           0           0           0           0
           0           0           0           0           0           0
           0           0           0           0           0           0
           0           0           0           0           0           0
           0           0           0           0           0           0
           0           0           0           0           0           0
           0           0           0           0           0           0
           0           0           0           0           0           0
           0           0           0           0           0           0
           0           0           0           0           0           0
           0           0           0           0           0           0
           0           0           0           0           0           0
           0           0           0           0           0           0
           0           0           0           0           0           0
           0           0           0           0           0           0
           0           0           0           0           0           0
           0           0           0           0           0           0
           0           0           0           0           0           0
           0           0           0           0           0           0
           0           0           0           0           0           0
           0           0           0           0           0           0
           0           0           0           0           0           0
           0           0           0           0           0           0
           0           0           0           0           0           0
           0           0           0           0           0           0
           0           0           0           0           0           0
           0           0           0           0           0           0
           0           0           0           0           0           0
           0           0           0           0           0           0
           0           0           0           0           0           0
           0           0           0           0           0           0
           0           0           0           0           0           0
           0           0           0           0           0           0
           0           0           0           0           0           0
           0           0           0           0           0           0
           0           0           0           0           0           0
           0           0           0           0           0           0
           0           0           0           0           0           0
           0           0           0           0           0           0
           0           0           0           0           0           0
           0           0           0           0           0           0
           0           0           0           0           0           0
           0           0           0           0           0           0
           0           0           0           0           0           0
           0           0           0           0           0           0
           0           0           0           0           0           0
           0           0           0           0           0           0
           0           0           0           0           0           0
           0           0           0           0           0           0
           0           0           0           0           0           0
           0           0           0           0           0           0
           0           0           0           0           0           0
           0           0           0           0           0           0
           0           0           0           0           0           0
           0           0           0           0           0           0
           0           0           0           0           0           0
           0           0           0           0           0           0
           0           0           0           0           0           0
           0           0           0           0           0           0
           0           0           0           0           0           0
           0           0           0           0           0           0
           0           0           0           0           0           0
           0           0           0           0           0           0
           0           0           0           0           0           0
           0           0           0           0           0           0
           0           0           0           0           0           0
           0           0           0           0           0           0
           0           0           0           0           0           0
           0           0           0           0           0           0
           0           0           0           0           0           0
           0           0           0           0           0           0
           0           0           0           0           0           0
           0           0           0           0           0           0
           0           0           0           0           0           0
           0           0           0           0           0           0
           0           0           0           0           0           0
           0           0           0           0           0           0
           0           0           0           0           0           0
           0           0           0           0           0           0
           0           0           0           0           0           0
           0           0           0           0           0           0
           0           0           0           0           0           0
           0           0           0           0           0           0
           0           0           0           0           0           0
           0           0           0           0           0           0
           0           0           0           0           0           0
           0           0           0           0           0           0
           0           0           0           0           0           0
           0           0           0           0           0           0
           0           0           0           0           0           0
           0           0           0           0           0           0
           0           0           0           0           0           0
           0           0           0           0           0           0
           0           0           0           0           0           0
           0           0           0           0           0           0
           0           0           0           0           0           0
           0           0           0           0           0           0
           0           0           0           0           0           0
           0           0           0           0           0           0
           0           0           0           0           0           0
           0           0           0           0           0           0
           0           0           0           0           0           0
           0           0           0           0           0           0
           0           0           0           0           0           0
           0           0           0           0           0           0
           0           0           0           0           0           0
           0           0           0           0           0           0
           0           0           0           0           0           0
           0           0           0           0           0           0
           0           0           0           0           0           0
           0           0           0           0           0           0
           0           0           0           0           0           0
           0           0           0           0           0           0
           0           0           0           0           0           0
           0           0           0           0           0           0
           0           0           0           0           0           0
           0           0           0           0           0           0
           0           0           0           0           0           0
           0           0           0           0           0           0
           0           0           0           0           0           0
           0           0           0           0           0           0
           0           0           0           0           0           0
           0           0           0           0           0           0
           0           0           0           0           0           0
           0           0           0           0           0           0
           0           0           0           0           0           0
           0           0           0           0           0           0
           0           0           0           0           0           0
           0           0           0           0           0           0
           0           0           0           0           0           0
           0           0           0           0           0           0
           0           0           0           0           0           0
           0           0           0           0           0           0
           0           0           0           0           0           0
           0           0           0           0           0           0
           0           0           0           0           0           0
           0           0           0           0           0           0
           0           0           0           0           0           0
           0           0           0           0           0           0
           0           0           0           0           0           0
           0           0           0           0           0           0
           0           0           0           0           0           0
           0           0           0           0           0           0
           0           0           0           0           0           0
           0           0           0           0           0           0
           0           0           0           0           0           0
           0           0           0           0           0           0
           0           0           0           0           0           0
           0           0           0           0           0           0
           0           0           0           0           0           0
           0           0           0           0           0           0
           0           0           0           0           0           0
           0           0           0           0           0           0
           0           0           0           0           0           0
           0           0           0           0           0           0
           0           0           0           0           0           0
           0           0           0           0           0           0
           0           0           0           0           0           0
           0           0           0           0           0           0
           0           0           0           0           0           0
           0           0           0           0           0           0
           0           0           0           0           0           0
           0           0           0           0           0           0
           0           0           0           0           0           0
           0           0           0           0           0           0
           0           0           0           0           0           0
           0           0           0           0           0           0
           0           0           0           0           0           0
           0           0           0           0           0           0
           0           0           0           0           0           0
           0           0           0           0           0           0
           0           0           0           0           0           0
           0           0           0           0           0           0
           0           0           0           0           0           0
           0           0           0           0           0           0
           0           0           0           0           0           0
           0           0           0           0           0           0
           0           0           0           0           0           0
           0           0           0           0           0           0
           0           0           0           0           0           0
           0           0           0           0           0           0
           0           0           0           0           0           0
           0           0           0           0           0           0
           0           0           0           0           0           0
           0           0           0           0           0           0
           0           0           0           0           0           0
           0           0           0           0           0           0
           0           0           0           0           0           0
           0           0           0           0           0           0
           0           0           0           0           0           0
           0           0           0           0           0           0
           0           0           0           0           0           0
           0           0           0           0           0           0
           0           0           0           0           0           0
           0           0           0           0           0           0
           0           0           0           0           0           0
           0           0           0           0           0           0
           0           0           0           0           0           0
           0           0           0           0           0           0
           0           0           0           0           0           0
           0           0           0           0           0           0
           0           0           0           0           0           0
           0           0           0           0           0           0
           0           0           0           0           0           0
           0           0           0           0           0           0
           0           0           0           0           0           0
           0           0           0           0           0           0
           0           0           0           0           0           0
           0           0           0           0           0           0
           0           0           0           0           0           0
           0           0           0           0           0           0
           0           0           0           0           0           0
           0           0           0           0           0           0
           0           0           0           0           0           0
           0           0           0           0           0           0
           0           0           0           0           0           0
           0           0           0           0           0           0
           0           0           0           0           0           0
           0           0           0           0           0           0
ClPar Real Params                          R   N=        3200
  0.00000000E+00  0.00000000E+00  0.00000000E+00  0.00000000E+00  0.00000000E+00
  0.00000000E+00  0.00000000E+00  0.00000000E+00  0.00000000E+00  0.00000000E+00
  0.00000000E+00  0.00000000E+00  0.00000000E+00  0.00000000E+00  0.00000000E+00
  0.00000000E+00  0.00000000E+00  0.00000000E+00  0.00000000E+00  0.00000000E+00
  0.00000000E+00  0.00000000E+00  0.00000000E+00  0.00000000E+00  0.00000000E+00
  0.00000000E+00  0.00000000E+00  0.00000000E+00  0.00000000E+00  0.00000000E+00
  0.00000000E+00  0.00000000E+00  0.00000000E+00  0.00000000E+00  0.00000000E+00
  0.00000000E+00  0.00000000E+00  0.00000000E+00  0.00000000E+00  0.00000000E+00
  0.00000000E+00  0.00000000E+00  0.00000000E+00  0.00000000E+00  0.00000000E+00
  0.00000000E+00  0.00000000E+00  0.00000000E+00  0.00000000E+00  0.00000000E+00
  0.00000000E+00  0.00000000E+00  0.00000000E+00  0.00000000E+00  0.00000000E+00
  0.00000000E+00  0.00000000E+00  0.00000000E+00  0.00000000E+00  0.00000000E+00
  0.00000000E+00  0.00000000E+00  0.00000000E+00  0.00000000E+00  0.00000000E+00
  0.00000000E+00  0.00000000E+00  0.00000000E+00  0.00000000E+00  0.00000000E+00
  0.00000000E+00  0.00000000E+00  0.00000000E+00  0.00000000E+00  0.00000000E+00
  0.00000000E+00  0.00000000E+00  0.00000000E+00  0.00000000E+00  0.00000000E+00
  0.00000000E+00  0.00000000E+00  0.00000000E+00  0.00000000E+00  0.00000000E+00
  0.00000000E+00  0.00000000E+00  0.00000000E+00  0.00000000E+00  0.00000000E+00
  0.00000000E+00  0.00000000E+00  0.00000000E+00  0.00000000E+00  0.00000000E+00
  0.00000000E+00  0.00000000E+00  0.00000000E+00  0.00000000E+00  0.00000000E+00
  0.00000000E+00  0.00000000E+00  0.00000000E+00  0.00000000E+00  0.00000000E+00
  0.00000000E+00  0.00000000E+00  0.00000000E+00  0.00000000E+00  0.00000000E+00
  0.00000000E+00  0.00000000E+00  0.00000000E+00  0.00000000E+00  0.00000000E+00
  0.00000000E+00  0.00000000E+00  0.00000000E+00  0.00000000E+00  0.00000000E+00
  0.00000000E+00  0.00000000E+00  0.00000000E+00  0.00000000E+00  0.00000000E+00
  0.00000000E+00  0.00000000E+00  0.00000000E+00  0.00000000E+00  0.00000000E+00
  0.00000000E+00  0.00000000E+00  0.00000000E+00  0.00000000E+00  0.00000000E+00
  0.00000000E+00  0.00000000E+00  0.00000000E+00  0.00000000E+00  0.00000000E+00
  0.00000000E+00  0.00000000E+00  0.00000000E+00  0.00000000E+00  0.00000000E+00
  0.00000000E+00  0.00000000E+00  0.00000000E+00  0.00000000E+00  0.00000000E+00
  0.00000000E+00  0.00000000E+00  0.00000000E+00  0.00000000E+00  0.00000000E+00
  0.00000000E+00  0.00000000E+00  0.00000000E+00  0.00000000E+00  0.00000000E+00
  0.00000000E+00  0.00000000E+00  0.00000000E+00  0.00000000E+00  0.00000000E+00
  0.00000000E+00  0.00000000E+00  0.00000000E+00  0.00000000E+00  0.00000000E+00
  0.00000000E+00  0.00000000E+00  0.00000000E+00  0.00000000E+00  0.00000000E+00
  0.00000000E+00  0.00000000E+00  0.00000000E+00  0.00000000E+00  0.00000000E+00
  0.00000000E+00  0.00000000E+00  0.00000000E+00  0.00000000E+00  0.00000000E+00
  0.00000000E+00  0.00000000E+00  0.00000000E+00  0.00000000E+00  0.00000000E+00
  0.00000000E+00  0.00000000E+00  0.00000000E+00  0.00000000E+00  0.00000000E+00
  0.00000000E+00  0.00000000E+00  0.00000000E+00  0.00000000E+00  0.00000000E+00
  2.26000000E-01  4.43000000E-01  1.01000000E-01  1.47000000E-01  1.92000000E-01
  2.40000000E-01  2.75000000E-01  3.03000000E-01  3.25000000E-01  4.13000000E-01
  9.60000000E-02  1.35000000E-01  1.73000000E-01  2.11000000E-01  2.48000000E-01
  2.86000000E-01  3.23000000E-01  3.60000000E-01  8.20000000E-02  1.04000000E-01
  1.17000000E-01  1.23000000E-01  1.29000000E-01  1.34000000E-01  1.40000000E-01
  1.44000000E-01  1.48000000E-01  1.52000000E-01  1.55000000E-01  1.76000000E-01
  1.98000000E-01  2.19000000E-01  2.39000000E-01  2.60000000E-01  2.80000000E-01
  3.00000000E-01  7.90000000E-02  9.90000000E-02  1.19000000E-01  1.26000000E-01
  1.33000000E-01  1.40000000E-01  1.47000000E-01  1.53000000E-01  1.58000000E-01
  1.63000000E-01  1.57000000E-01  1.70000000E-01  1.87000000E-01  2.03000000E-01
  2.19000000E-01  2.34000000E-01  2.50000000E-01  2.65000000E-01  7.40000000E-02
  9.20000000E-02  1.05000000E-01  1.06000000E-01  1.07000000E-01  1.08000000E-01
  1.09000000E-01  1.10000000E-01  1.11000000E-01  1.12000000E-01  1.13000000E-01
  1.14000000E-01  1.15000000E-01  1.16000000E-01  1.17000000E-01  1.17000000E-01
  1.26000000E-01  1.36000000E-01  1.46000000E-01  1.55000000E-01  1.65000000E-01
  1.73000000E-01  1.82000000E-01  1.90000000E-01  1.62000000E-01  1.78000000E-01
  1.10000000E-01  1.35000000E-01  1.59000000E-01  1.83000000E-01  2.07000000E-01
  2.31000000E-01  6.90000000E-02  9.40000000E-02  1.02000000E-01  1.03000000E-01
  1.05000000E-01  1.07000000E-01  1.09000000E-01  1.11000000E-01  1.13000000E-01
  1.15000000E-01  1.17000000E-01  1.19000000E-01  1.20000000E-01  1.22000000E-01
  1.24000000E-01  1.26000000E-01  1.28000000E-01  1.28000000E-01  1.28000000E-01
  1.28000000E-01  1.28000000E-01  1.28000000E-01  1.28000000E-01  1.28000000E-01
  1.28000000E-01  1.28000000E-01  1.28000000E-01  1.28000000E-01  1.28000000E-01
  1.28000000E-01  1.28000000E-01  1.28000000E-01  1.28000000E-01  1.28000000E-01
  1.28000000E-01  1.28000000E-01  1.28000000E-01  1.28000000E-01  1.28000000E-01
  1.28000000E-01  1.28000000E-01  1.28000000E-01  1.28000000E-01  1.28000000E-01
  1.28000000E-01  1.28000000E-01  1.28000000E-01  1.28000000E-01  1.28000000E-01
  1.28000000E-01  1.28000000E-01  1.28000000E-01  1.28000000E-01  1.28000000E-01
  1.28000000E-01  1.28000000E-01  1.28000000E-01  1.28000000E-01  1.28000000E-01
  1.28000000E-01  1.28000000E-01  1.28000000E-01  1.28000000E-01  1.28000000E-01
  1.28000000E-01  1.28000000E-01  1.28000000E-01  1.28000000E-01  1.28000000E-01
  1.28000000E-01  1.28000000E-01  1.28000000E-01  1.28000000E-01  1.28000000E-01
  1.28000000E-01  1.28000000E-01  1.28000000E-01  1.28000000E-01  1.28000000E-01
  1.28000000E-01  1.28000000E-01  1.28000000E-01  1.28000000E-01  1.28000000E-01
  1.28000000E-01  1.28000000E-01  1.28000000E-01  1.28000000E-01  1.28000000E-01
  1.28000000E-01  1.28000000E-01  1.28000000E-01  1.28000000E-01  1.28000000E-01
  1.28000000E-01  1.28000000E-01  1.28000000E-01  1.28000000E-01  1.28000000E-01
  1.28000000E-01  1.28000000E-01  1.28000000E-01  1.28000000E-01  1.28000000E-01
  1.28000000E-01  1.28000000E-01  1.28000000E-01  1.28000000E-01  1.28000000E-01
  1.28000000E-01  1.28000000E-01  1.28000000E-01  1.28000000E-01  1.28000000E-01
  5.47000000E-01  5.92000000E-01  5.99000000E-01  6.68000000E-01  6.98000000E-01
  7.18000000E-01  7.26000000E-01  7.36000000E-01  7.43000000E-01  7.45000000E-01
  6.07000000E-01  6.66000000E-01  6.93000000E-01  7.09000000E-01  7.20000000E-01
  7.29000000E-01  7.35000000E-01  7.40000000E-01  6.08000000E-01  7.34000000E-01
  7.46000000E-01  7.55000000E-01  7.61000000E-01  7.65000000E-01  7.67000000E-01
  7.60000000E-01  7.49000000E-01  7.33000000E-01  7.08000000E-01  6.48000000E-01
  6.88000000E-01  7.09000000E-01  7.22000000E-01  7.31000000E-01  7.38000000E-01
  7.44000000E-01  6.09000000E-01  7.30000000E-01  7.41000000E-01  7.52000000E-01
  7.58000000E-01  7.63000000E-01  7.66000000E-01  7.58000000E-01  7.48000000E-01
  7.33000000E-01  7.01000000E-01  6.45000000E-01  6.86000000E-01  7.08000000E-01
  7.22000000E-01  7.31000000E-01  7.38000000E-01  7.44000000E-01  6.08000000E-01
  7.28000000E-01  7.32000000E-01  7.32000000E-01  7.32000000E-01  7.32000000E-01
  7.32000000E-01  7.32000000E-01  7.32000000E-01  7.32000000E-01  7.32000000E-01
  7.31000000E-01  7.31000000E-01  7.31000000E-01  7.31000000E-01  7.46000000E-01
  7.37000000E-01  7.46000000E-01  7.51000000E-01  7.55000000E-01  7.58000000E-01
  7.47000000E-01  7.32000000E-01  7.11000000E-01  7.41000000E-01  7.07000000E-01
  7.47000000E-01  7.43000000E-01  7.42000000E-01  7.42000000E-01  7.43000000E-01
  7.44000000E-01  6.05000000E-01  7.24000000E-01  7.26000000E-01  7.26000000E-01
  7.27000000E-01  7.27000000E-01  7.27000000E-01  7.28000000E-01  7.28000000E-01
  7.28000000E-01  7.28000000E-01  7.28000000E-01  7.29000000E-01  7.29000000E-01
  7.29000000E-01  7.29000000E-01  7.29000000E-01  7.29000000E-01  7.29000000E-01
  7.29000000E-01  7.29000000E-01  7.29000000E-01  7.29000000E-01  7.29000000E-01
  7.29000000E-01  7.29000000E-01  7.29000000E-01  7.29000000E-01  7.29000000E-01
  7.29000000E-01  7.29000000E-01  7.29000000E-01  7.29000000E-01  7.29000000E-01
  7.29000000E-01  7.29000000E-01  7.29000000E-01  7.29000000E-01  7.29000000E-01
  7.29000000E-01  7.29000000E-01  7.29000000E-01  7.29000000E-01  7.29000000E-01
  7.29000000E-01  7.29000000E-01  7.29000000E-01  7.29000000E-01  7.29000000E-01
  7.29000000E-01  7.29000000E-01  7.29000000E-01  7.29000000E-01  7.29000000E-01
  7.29000000E-01  7.29000000E-01  7.29000000E-01  7.29000000E-01  7.29000000E-01
  7.29000000E-01  7.29000000E-01  7.29000000E-01  7.29000000E-01  7.29000000E-01
  7.29000000E-01  7.29000000E-01  7.29000000E-01  7.29000000E-01  7.29000000E-01
  7.29000000E-01  7.29000000E-01  7.29000000E-01  7.29000000E-01  7.29000000E-01
  7.29000000E-01  7.29000000E-01  7.29000000E-01  7.29000000E-01  7.29000000E-01
  7.29000000E-01  7.29000000E-01  7.29000000E-01  7.29000000E-01  7.29000000E-01
  7.29000000E-01  7.29000000E-01  7.29000000E-01  7.29000000E-01  7.29000000E-01
  7.29000000E-01  7.29000000E-01  7.29000000E-01  7.29000000E-01  7.29000000E-01
  7.29000000E-01  7.29000000E-01  7.29000000E-01  7.29000000E-01  7.29000000E-01
  7.29000000E-01  7.29000000E-01  7.29000000E-01  7.29000000E-01  7.29000000E-01
  7.29000000E-01  7.29000000E-01  7.29000000E-01  7.29000000E-01  7.29000000E-01
  7.29000000E-01  7.29000000E-01  7.29000000E-01  7.29000000E-01  7.29000000E-01
  1.00000000E+00  1.70400000E+00  3.23000000E-01  3.89000000E-01  4.67000000E-01
  5.67000000E-01  6.36000000E-01  6.64000000E-01  6.96000000E-01  8.79000000E-01
  3.07000000E-01  3.48000000E-01  4.00000000E-01  4.54000000E-01  5.09000000E-01
  5.65000000E-01  6.21000000E-01  6.77000000E-01  2.56000000E-01  3.50000000E-01
  3.64000000E-01  3.62000000E-01  3.62000000E-01  3.62000000E-01  3.62000000E-01
  3.65000000E-01  3.69000000E-01  3.75000000E-01  3.86000000E-01  4.46000000E-01
  4.55000000E-01  4.74000000E-01  4.96000000E-01  5.20000000E-01  5.45000000E-01
  5.70000000E-01  2.45000000E-01  3.22000000E-01  3.55000000E-01  3.59000000E-01
  3.64000000E-01  3.70000000E-01  3.76000000E-01  3.85000000E-01  3.95000000E-01
  4.08000000E-01  3.76000000E-01  4.23000000E-01  4.22000000E-01  4.32000000E-01
  4.45000000E-01  4.59000000E-01  4.75000000E-01  4.91000000E-01  2.28000000E-01
  2.92000000E-01  2.89000000E-01  2.92000000E-01  2.95000000E-01  2.98000000E-01
  3.00000000E-01  3.03000000E-01  3.06000000E-01  3.09000000E-01  3.12000000E-01
  3.15000000E-01  3.18000000E-01  3.21000000E-01  3.24000000E-01  3.61000000E-01
  3.69000000E-01  3.70000000E-01  3.72000000E-01  3.75000000E-01  3.78000000E-01
  3.85000000E-01  3.94000000E-01  4.07000000E-01  5.26000000E-01  6.21000000E-01
  3.36000000E-01  3.54000000E-01  3.71000000E-01  3.86000000E-01  4.02000000E-01
  4.17000000E-01  2.09000000E-01  2.94000000E-01  2.65000000E-01  2.72000000E-01
  2.78000000E-01  2.84000000E-01  2.91000000E-01  2.97000000E-01  3.03000000E-01
  3.10000000E-01  3.16000000E-01  3.22000000E-01  3.29000000E-01  3.35000000E-01
  3.41000000E-01  3.48000000E-01  3.54000000E-01  3.54000000E-01  3.54000000E-01
  3.54000000E-01  3.54000000E-01  3.54000000E-01  3.54000000E-01  3.54000000E-01
  3.54000000E-01  3.54000000E-01  3.54000000E-01  3.54000000E-01  3.54000000E-01
  3.54000000E-01  3.54000000E-01  3.54000000E-01  3.54000000E-01  3.54000000E-01
  3.54000000E-01  3.54000000E-01  3.54000000E-01  3.54000000E-01  3.54000000E-01
  3.54000000E-01  3.54000000E-01  3.54000000E-01  3.54000000E-01  3.54000000E-01
  3.54000000E-01  3.54000000E-01  3.54000000E-01  3.54000000E-01  3.54000000E-01
  3.54000000E-01  3.54000000E-01  3.54000000E-01  3.54000000E-01  3.54000000E-01
  3.54000000E-01  3.54000000E-01  3.54000000E-01  3.54000000E-01  3.54000000E-01
  3.54000000E-01  3.54000000E-01  3.54000000E-01  3.54000000E-01  3.54000000E-01
  3.54000000E-01  3.54000000E-01  3.54000000E-01  3.54000000E-01  3.54000000E-01
  3.54000000E-01  3.54000000E-01  3.54000000E-01  3.54000000E-01  3.54000000E-01
  3.54000000E-01  3.54000000E-01  3.54000000E-01  3.54000000E-01  3.54000000E-01
  3.54000000E-01  3.54000000E-01  3.54000000E-01  3.54000000E-01  3.54000000E-01
  3.54000000E-01  3.54000000E-01  3.54000000E-01  3.54000000E-01  3.54000000E-01
  3.54000000E-01  3.54000000E-01  3.54000000E-01  3.54000000E-01  3.54000000E-01
  3.54000000E-01  3.54000000E-01  3.54000000E-01  3.54000000E-01  3.54000000E-01
  3.54000000E-01  3.54000000E-01  3.54000000E-01  3.54000000E-01  3.54000000E-01
  3.54000000E-01  3.54000000E-01  3.54000000E-01  3.54000000E-01  3.54000000E-01
  3.54000000E-01  3.54000000E-01  3.54000000E-01  3.54000000E-01  3.54000000E-01
  2.74000000E-01  2.96000000E-01  5.80000000E-02  4.40000000E-02  3.90000000E-02
  3.90000000E-02  3.60000000E-02  3.20000000E-02  2.90000000E-02  3.30000000E-02
  5.50000000E-02  3.90000000E-02  3.30000000E-02  3.00000000E-02  2.80000000E-02
  2.60000000E-02  2.50000000E-02  2.50000000E-02  4.50000000E-02  4.40000000E-02
  3.30000000E-02  2.50000000E-02  2.10000000E-02  1.80000000E-02  1.50000000E-02
  1.80000000E-02  2.10000000E-02  2.50000000E-02  3.30000000E-02  5.00000000E-02
  3.80000000E-02  3.10000000E-02  2.70000000E-02  2.40000000E-02  2.20000000E-02
  2.10000000E-02  4.30000000E-02  4.00000000E-02  3.20000000E-02  2.50000000E-02
  2.10000000E-02  1.80000000E-02  1.60000000E-02  1.90000000E-02  2.20000000E-02
  2.80000000E-02  3.10000000E-02  4.70000000E-02  3.40000000E-02  2.80000000E-02
  2.40000000E-02  2.10000000E-02  1.90000000E-02  1.80000000E-02  3.90000000E-02
  3.60000000E-02  2.50000000E-02  2.50000000E-02  2.50000000E-02  2.60000000E-02
  2.60000000E-02  2.60000000E-02  2.70000000E-02  2.70000000E-02  2.70000000E-02
  2.70000000E-02  2.80000000E-02  2.80000000E-02  2.80000000E-02  3.30000000E-02
  3.30000000E-02  2.60000000E-02  2.10000000E-02  1.80000000E-02  1.60000000E-02
  1.80000000E-02  2.20000000E-02  2.60000000E-02  4.90000000E-02  8.20000000E-02
  3.00000000E-02  2.40000000E-02  2.10000000E-02  1.80000000E-02  1.60000000E-02
  1.50000000E-02  3.50000000E-02  3.60000000E-02  2.20000000E-02  2.30000000E-02
  2.40000000E-02  2.40000000E-02  2.50000000E-02  2.50000000E-02  2.60000000E-02
  2.70000000E-02  2.70000000E-02  2.80000000E-02  2.80000000E-02  2.90000000E-02
  3.00000000E-02  3.00000000E-02  3.10000000E-02  3.10000000E-02  3.10000000E-02
  3.10000000E-02  3.10000000E-02  3.10000000E-02  3.10000000E-02  3.10000000E-02
  3.10000000E-02  3.10000000E-02  3.10000000E-02  3.10000000E-02  3.10000000E-02
  3.10000000E-02  3.10000000E-02  3.10000000E-02  3.10000000E-02  3.10000000E-02
  3.10000000E-02  3.10000000E-02  3.10000000E-02  3.10000000E-02  3.10000000E-02
  3.10000000E-02  3.10000000E-02  3.10000000E-02  3.10000000E-02  3.10000000E-02
  3.10000000E-02  3.10000000E-02  3.10000000E-02  3.10000000E-02  3.10000000E-02
  3.10000000E-02  3.10000000E-02  3.10000000E-02  3.10000000E-02  3.10000000E-02
  3.10000000E-02  3.10000000E-02  3.10000000E-02  3.10000000E-02  3.10000000E-02
  3.10000000E-02  3.10000000E-02  3.10000000E-02  3.10000000E-02  3.10000000E-02
  3.10000000E-02  3.10000000E-02  3.10000000E-02  3.10000000E-02  3.10000000E-02
  3.10000000E-02  3.10000000E-02  3.10000000E-02  3.10000000E-02  3.10000000E-02
  3.10000000E-02  3.10000000E-02  3.10000000E-02  3.10000000E-02  3.10000000E-02
  3.10000000E-02  3.10000000E-02  3.10000000E-02  3.10000000E-02  3.10000000E-02
  3.10000000E-02  3.10000000E-02  3.10000000E-02  3.10000000E-02  3.10000000E-02
  3.10000000E-02  3.10000000E-02  3.10000000E-02  3.10000000E-02  3.10000000E-02
  3.10000000E-02  3.10000000E-02  3.10000000E-02  3.10000000E-02  3.10000000E-02
  3.10000000E-02  3.10000000E-02  3.10000000E-02  3.10000000E-02  3.10000000E-02
  3.10000000E-02  3.10000000E-02  3.10000000E-02  3.10000000E-02  3.10000000E-02
  3.10000000E-02  3.10000000E-02  3.10000000E-02  3.10000000E-02  3.10000000E-02
 -5.92770000E-01 -9.17860000E-01 -2.48668000E+00 -8.36430000E-01 -3.18470000E-01
 -4.55790000E-01 -5.70730000E-01 -6.77940000E-01 -7.69860000E-01 -8.51140000E-01
 -1.51908000E+00 -3.18830000E-01 -2.17900000E-01 -3.01260000E-01 -3.72750000E-01
 -4.15890000E-01 -4.45930000E-01 -5.91320000E-01 -9.56370000E-01 -2.88450000E-01
 -4.87320000E-01 -6.34280000E-01 -7.17490000E-01 -7.91980000E-01 -8.68490000E-01
 -9.17520000E-01 -9.54890000E-01 -9.88460000E-01 -1.50055000E+00 -2.92560000E-01
 -2.14960000E-01 -2.91180000E-01 -3.42080000E-01 -3.84480000E-01 -4.34940000E-01
 -5.24310000E-01 -8.10070000E-01 -2.58460000E-01 -4.35550000E-01 -5.32740000E-01
 -6.08450000E-01 -6.10260000E-01 -7.58920000E-01 -8.90130000E-01 -8.45780000E-01
 -8.69340000E-01 -1.38234000E+00 -2.64850000E-01 -1.97280000E-01 -2.65040000E-01
 -2.94470000E-01 -3.16570000E-01 -3.63590000E-01 -4.57840000E-01 -8.61830000E-01
 -1.33004000E+00 -6.82880000E-01 -6.25540000E-01 -6.35430000E-01 -8.79690000E-01
 -9.02690000E-01 -9.59650000E-01 -1.01869000E+00 -6.81170000E-01 -7.96500000E-01
 -9.04950000E-01 -8.34790000E-01 -9.01560000E-01 -9.74130000E-01 -1.03326000E+00
 -7.15490000E-01 -7.83960000E-01 -8.28380000E-01 -5.61040000E-01 -1.03841000E+00
 -8.62500000E-01 -9.59300000E-01 -1.01755000E+00 -7.64900000E-01 -1.29467000E+00
 -1.92740000E-01 -2.56010000E-01 -3.19820000E-01 -1.94660000E-01 -2.60090000E-01
 -4.27990000E-01  0.00000000E+00  0.00000000E+00  0.00000000E+00  0.00000000E+00
  0.00000000E+00  0.00000000E+00  0.00000000E+00  0.00000000E+00  0.00000000E+00
  0.00000000E+00  0.00000000E+00  0.00000000E+00  0.00000000E+00  0.00000000E+00
  0.00000000E+00  0.00000000E+00  0.00000000E+00  0.00000000E+00  0.00000000E+00
  0.00000000E+00  0.00000000E+00  0.00000000E+00  0.00000000E+00  0.00000000E+00
  0.00000000E+00  0.00000000E+00  0.00000000E+00  0.00000000E+00  0.00000000E+00
  0.00000000E+00  0.00000000E+00  0.00000000E+00  0.00000000E+00  0.00000000E+00
  0.00000000E+00  0.00000000E+00  0.00000000E+00  0.00000000E+00  0.00000000E+00
  0.00000000E+00  0.00000000E+00  0.00000000E+00  0.00000000E+00  0.00000000E+00
  0.00000000E+00  0.00000000E+00  0.00000000E+00  0.00000000E+00  0.00000000E+00
  0.00000000E+00  0.00000000E+00  0.00000000E+00  0.00000000E+00  0.00000000E+00
  0.00000000E+00  0.00000000E+00  0.00000000E+00  0.00000000E+00  0.00000000E+00
  0.00000000E+00  0.00000000E+00  0.00000000E+00  0.00000000E+00  0.00000000E+00
  0.00000000E+00  0.00000000E+00  0.00000000E+00  0.00000000E+00  0.00000000E+00
  0.00000000E+00  0.00000000E+00  0.00000000E+00  0.00000000E+00  0.00000000E+00
  0.00000000E+00  0.00000000E+00  0.00000000E+00  0.00000000E+00  0.00000000E+00
  0.00000000E+00  0.00000000E+00  0.00000000E+00  0.00000000E+00  0.00000000E+00
  0.00000000E+00  0.00000000E+00  0.00000000E+00  0.00000000E+00  0.00000000E+00
  0.00000000E+00  0.00000000E+00  0.00000000E+00  0.00000000E+00  0.00000000E+00
  0.00000000E+00  0.00000000E+00  0.00000000E+00  0.00000000E+00  0.00000000E+00
  0.00000000E+00  0.00000000E+00  0.00000000E+00  0.00000000E+00  0.00000000E+00
  0.00000000E+00  0.00000000E+00  0.00000000E+00  0.00000000E+00  0.00000000E+00
  0.00000000E+00  0.00000000E+00  0.00000000E+00  0.00000000E+00  0.00000000E+00
  1.90440000E+00  1.36430000E+00  4.84000000E-01  7.31600000E+00  9.24030000E+00
  8.78200000E+00  5.61290000E+00  4.83340000E+00  3.24870000E+00  2.71090000E+00
  2.01130000E+00  1.50282000E+01  1.46788000E+01  2.13546000E+01  2.38290000E+01
  1.98022000E+01  1.50468000E+01  1.09745000E+01  1.27219000E+01  1.51949000E+01
  1.57342000E+01  2.79222000E+01  1.61366000E+01  2.21252000E+01  2.45676000E+01
  1.96016000E+01  1.79818000E+01  1.72396000E+01  5.01500000E+00  1.92898000E+01
  2.34477000E+01  2.23993000E+01  2.96586000E+01  2.60081000E+01  2.15580000E+01
  1.69594000E+01  1.56479000E+01  1.86897000E+01  1.93530000E+01  3.43444000E+01
  1.98480000E+01  2.72140000E+01  3.02182000E+01  2.41099000E+01  2.21176000E+01
  2.12047000E+01  7.56690000E+00  2.37264000E+01  2.93879000E+01  3.01278000E+01
  4.19382000E+01  3.85203000E+01  3.39511000E+01  2.75774000E+01  1.56460000E+01
  1.04460000E+01  2.01830000E+01  4.99540000E+01  4.76430000E+01  1.18690000E+01
  1.08670000E+01  9.96100000E+00  9.18700000E+00  3.67980000E+01  1.34070000E+01
  9.38200000E+00  9.81700000E+00  8.90800000E+00  8.40700000E+00  8.05800000E+00
  1.29600000E+01  2.67920000E+01  2.49300000E+01  3.45630000E+01  1.11860000E+01
  1.09440000E+01  1.01270000E+01  9.40400000E+00  1.36660000E+01  7.81000000E+00
  6.93600000E+01  5.86630000E+01  4.79690000E+01  4.52740000E+01  3.92290000E+01
  3.30660000E+01  0.00000000E+00  0.00000000E+00  0.00000000E+00  0.00000000E+00
  0.00000000E+00  0.00000000E+00  0.00000000E+00  0.00000000E+00  0.00000000E+00
  0.00000000E+00  0.00000000E+00  0.00000000E+00  0.00000000E+00  0.00000000E+00
  0.00000000E+00  0.00000000E+00  0.00000000E+00  0.00000000E+00  0.00000000E+00
  0.00000000E+00  0.00000000E+00  0.00000000E+00  0.00000000E+00  0.00000000E+00
  0.00000000E+00  0.00000000E+00  0.00000000E+00  0.00000000E+00  0.00000000E+00
  0.00000000E+00  0.00000000E+00  0.00000000E+00  0.00000000E+00  0.00000000E+00
  0.00000000E+00  0.00000000E+00  0.00000000E+00  0.00000000E+00  0.00000000E+00
  0.00000000E+00  0.00000000E+00  0.00000000E+00  0.00000000E+00  0.00000000E+00
  0.00000000E+00  0.00000000E+00  0.00000000E+00  0.00000000E+00  0.00000000E+00
  0.00000000E+00  0.00000000E+00  0.00000000E+00  0.00000000E+00  0.00000000E+00
  0.00000000E+00  0.00000000E+00  0.00000000E+00  0.00000000E+00  0.00000000E+00
  0.00000000E+00  0.00000000E+00  0.00000000E+00  0.00000000E+00  0.00000000E+00
  0.00000000E+00  0.00000000E+00  0.00000000E+00  0.00000000E+00  0.00000000E+00
  0.00000000E+00  0.00000000E+00  0.00000000E+00  0.00000000E+00  0.00000000E+00
  0.00000000E+00  0.00000000E+00  0.00000000E+00  0.00000000E+00  0.00000000E+00
  0.00000000E+00  0.00000000E+00  0.00000000E+00  0.00000000E+00  0.00000000E+00
  0.00000000E+00  0.00000000E+00  0.00000000E+00  0.00000000E+00  0.00000000E+00
  0.00000000E+00  0.00000000E+00  0.00000000E+00  0.00000000E+00  0.00000000E+00
  0.00000000E+00  0.00000000E+00  0.00000000E+00  0.00000000E+00  0.00000000E+00
  0.00000000E+00  0.00000000E+00  0.00000000E+00  0.00000000E+00  0.00000000E+00
  0.00000000E+00  0.00000000E+00  0.00000000E+00  0.00000000E+00  0.00000000E+00
  0.00000000E+00  0.00000000E+00  0.00000000E+00  0.00000000E+00  0.00000000E+00
  0.00000000E+00  0.00000000E+00  0.00000000E+00  0.00000000E+00  0.00000000E+00
  0.00000000E+00  0.00000000E+00  0.00000000E+00  0.00000000E+00  0.00000000E+00
  0.00000000E+00  0.00000000E+00  0.00000000E+00  0.00000000E+00  0.00000000E+00
  0.00000000E+00  0.00000000E+00  0.00000000E+00  0.00000000E+00  0.00000000E+00
  0.00000000E+00  0.00000000E+00  0.00000000E+00  0.00000000E+00  0.00000000E+00
  0.00000000E+00  0.00000000E+00  0.00000000E+00  0.00000000E+00  0.00000000E+00
  0.00000000E+00  0.00000000E+00  0.00000000E+00  0.00000000E+00  0.00000000E+00
  0.00000000E+00  0.00000000E+00  0.00000000E+00  0.00000000E+00  0.00000000E+00
  0.00000000E+00  0.00000000E+00  0.00000000E+00  0.00000000E+00  0.00000000E+00
  0.00000000E+00  0.00000000E+00  0.00000000E+00  0.00000000E+00  0.00000000E+00
  0.00000000E+00  0.00000000E+00  0.00000000E+00  0.00000000E+00  0.00000000E+00
  0.00000000E+00  0.00000000E+00  0.00000000E+00  0.00000000E+00  0.00000000E+00
  0.00000000E+00  0.00000000E+00  0.00000000E+00  0.00000000E+00  0.00000000E+00
  0.00000000E+00  0.00000000E+00  0.00000000E+00  0.00000000E+00  0.00000000E+00
  0.00000000E+00  0.00000000E+00  0.00000000E+00  0.00000000E+00  0.00000000E+00
  0.00000000E+00  0.00000000E+00  0.00000000E+00  0.00000000E+00  0.00000000E+00
  0.00000000E+00  0.00000000E+00  0.00000000E+00  0.00000000E+00  0.00000000E+00
  0.00000000E+00  0.00000000E+00  0.00000000E+00  0.00000000E+00  0.00000000E+00
  0.00000000E+00  0.00000000E+00  0.00000000E+00  0.00000000E+00  0.00000000E+00
  0.00000000E+00  0.00000000E+00  0.00000000E+00  0.00000000E+00  0.00000000E+00
  0.00000000E+00  0.00000000E+00  0.00000000E+00  0.00000000E+00  0.00000000E+00
  0.00000000E+00  0.00000000E+00  0.00000000E+00  0.00000000E+00  0.00000000E+00
  0.00000000E+00  0.00000000E+00  0.00000000E+00  0.00000000E+00  0.00000000E+00
  0.00000000E+00  0.00000000E+00  0.00000000E+00  0.00000000E+00  0.00000000E+00
  0.00000000E+00  0.00000000E+00  0.00000000E+00  0.00000000E+00  0.00000000E+00
  0.00000000E+00  0.00000000E+00  0.00000000E+00  0.00000000E+00  0.00000000E+00
  0.00000000E+00  0.00000000E+00  0.00000000E+00  0.00000000E+00  0.00000000E+00
  0.00000000E+00  0.00000000E+00  0.00000000E+00  0.00000000E+00  0.00000000E+00
  0.00000000E+00  0.00000000E+00  0.00000000E+00  0.00000000E+00  0.00000000E+00
  0.00000000E+00  0.00000000E+00  0.00000000E+00  0.00000000E+00  0.00000000E+00
  0.00000000E+00  0.00000000E+00  0.00000000E+00  0.00000000E+00  0.00000000E+00
  0.00000000E+00  0.00000000E+00  0.00000000E+00  0.00000000E+00  0.00000000E+00
  0.00000000E+00  0.00000000E+00  0.00000000E+00  0.00000000E+00  0.00000000E+00
  0.00000000E+00  0.00000000E+00  0.00000000E+00  0.00000000E+00  0.00000000E+00
  0.00000000E+00  0.00000000E+00  0.00000000E+00  0.00000000E+00  0.00000000E+00
  0.00000000E+00  0.00000000E+00  0.00000000E+00  0.00000000E+00  0.00000000E+00
  0.00000000E+00  0.00000000E+00  0.00000000E+00  0.00000000E+00  0.00000000E+00
  0.00000000E+00  0.00000000E+00  0.00000000E+00  0.00000000E+00  0.00000000E+00
  0.00000000E+00  0.00000000E+00  0.00000000E+00  0.00000000E+00  0.00000000E+00
  0.00000000E+00  0.00000000E+00  0.00000000E+00  0.00000000E+00  0.00000000E+00
  0.00000000E+00  0.00000000E+00  0.00000000E+00  0.00000000E+00  0.00000000E+00
  0.00000000E+00  0.00000000E+00  0.00000000E+00  0.00000000E+00  0.00000000E+00
  0.00000000E+00  0.00000000E+00  0.00000000E+00  0.00000000E+00  0.00000000E+00
  0.00000000E+00  0.00000000E+00  0.00000000E+00  0.00000000E+00  0.00000000E+00
  0.00000000E+00  0.00000000E+00  0.00000000E+00  0.00000000E+00  0.00000000E+00
  0.00000000E+00  0.00000000E+00  0.00000000E+00  0.00000000E+00  0.00000000E+00
  0.00000000E+00  0.00000000E+00  0.00000000E+00  0.00000000E+00  0.00000000E+00
  0.00000000E+00  0.00000000E+00  0.00000000E+00  0.00000000E+00  0.00000000E+00
  0.00000000E+00  0.00000000E+00  0.00000000E+00  0.00000000E+00  0.00000000E+00
  0.00000000E+00  0.00000000E+00  0.00000000E+00  0.00000000E+00  0.00000000E+00
  0.00000000E+00  0.00000000E+00  0.00000000E+00  0.00000000E+00  0.00000000E+00
  0.00000000E+00  0.00000000E+00  0.00000000E+00  0.00000000E+00  0.00000000E+00
  0.00000000E+00  0.00000000E+00  0.00000000E+00  0.00000000E+00  0.00000000E+00
  0.00000000E+00  0.00000000E+00  0.00000000E+00  0.00000000E+00  0.00000000E+00
  0.00000000E+00  0.00000000E+00  0.00000000E+00  0.00000000E+00  0.00000000E+00
  0.00000000E+00  0.00000000E+00  0.00000000E+00  0.00000000E+00  0.00000000E+00
  0.00000000E+00  0.00000000E+00  0.00000000E+00  0.00000000E+00  0.00000000E+00
  0.00000000E+00  0.00000000E+00  0.00000000E+00  0.00000000E+00  0.00000000E+00
  0.00000000E+00  0.00000000E+00  0.00000000E+00  0.00000000E+00  0.00000000E+00
  0.00000000E+00  0.00000000E+00  0.00000000E+00  0.00000000E+00  0.00000000E+00
  0.00000000E+00  0.00000000E+00  0.00000000E+00  0.00000000E+00  0.00000000E+00
  0.00000000E+00  0.00000000E+00  0.00000000E+00  0.00000000E+00  0.00000000E+00
  0.00000000E+00  0.00000000E+00  0.00000000E+00  0.00000000E+00  0.00000000E+00
  0.00000000E+00  0.00000000E+00  0.00000000E+00  0.00000000E+00  0.00000000E+00
  0.00000000E+00  0.00000000E+00  0.00000000E+00  0.00000000E+00  0.00000000E+00
  0.00000000E+00  0.00000000E+00  0.00000000E+00  0.00000000E+00  0.00000000E+00
  0.00000000E+00  0.00000000E+00  0.00000000E+00  0.00000000E+00  0.00000000E+00
  0.00000000E+00  0.00000000E+00  0.00000000E+00  0.00000000E+00  0.00000000E+00
  0.00000000E+00  0.00000000E+00  0.00000000E+00  0.00000000E+00  0.00000000E+00
  0.00000000E+00  0.00000000E+00  0.00000000E+00  0.00000000E+00  0.00000000E+00
  0.00000000E+00  0.00000000E+00  0.00000000E+00  0.00000000E+00  0.00000000E+00
  0.00000000E+00  0.00000000E+00  0.00000000E+00  0.00000000E+00  0.00000000E+00
  0.00000000E+00  0.00000000E+00  0.00000000E+00  0.00000000E+00  0.00000000E+00
  0.00000000E+00  0.00000000E+00  0.00000000E+00  0.00000000E+00  0.00000000E+00
  0.00000000E+00  0.00000000E+00  0.00000000E+00  0.00000000E+00  0.00000000E+00
  0.00000000E+00  0.00000000E+00  0.00000000E+00  0.00000000E+00  0.00000000E+00
  0.00000000E+00  0.00000000E+00  0.00000000E+00  0.00000000E+00  0.00000000E+00
  0.00000000E+00  0.00000000E+00  0.00000000E+00  0.00000000E+00  0.00000000E+00
  0.00000000E+00  0.00000000E+00  0.00000000E+00  0.00000000E+00  0.00000000E+00
  0.00000000E+00  0.00000000E+00  0.00000000E+00  0.00000000E+00  0.00000000E+00
  0.00000000E+00  0.00000000E+00  0.00000000E+00  0.00000000E+00  0.00000000E+00
  0.00000000E+00  0.00000000E+00  0.00000000E+00  0.00000000E+00  0.00000000E+00
  0.00000000E+00  0.00000000E+00  0.00000000E+00  0.00000000E+00  0.00000000E+00
  0.00000000E+00  0.00000000E+00  0.00000000E+00  0.00000000E+00  0.00000000E+00
  0.00000000E+00  0.00000000E+00  0.00000000E+00  0.00000000E+00  0.00000000E+00
  0.00000000E+00  0.00000000E+00  0.00000000E+00  0.00000000E+00  0.00000000E+00
  0.00000000E+00  0.00000000E+00  0.00000000E+00  0.00000000E+00  0.00000000E+00
  0.00000000E+00  0.00000000E+00  0.00000000E+00  0.00000000E+00  0.00000000E+00
  0.00000000E+00  0.00000000E+00  0.00000000E+00  0.00000000E+00  0.00000000E+00
  0.00000000E+00  0.00000000E+00  0.00000000E+00  0.00000000E+00  0.00000000E+00
  0.00000000E+00  0.00000000E+00  0.00000000E+00  0.00000000E+00  0.00000000E+00
  0.00000000E+00  0.00000000E+00  0.00000000E+00  0.00000000E+00  0.00000000E+00
  0.00000000E+00  0.00000000E+00  0.00000000E+00  0.00000000E+00  0.00000000E+00
  0.00000000E+00  0.00000000E+00  0.00000000E+00  0.00000000E+00  0.00000000E+00
  0.00000000E+00  0.00000000E+00  0.00000000E+00  0.00000000E+00  0.00000000E+00
  0.00000000E+00  0.00000000E+00  0.00000000E+00  0.00000000E+00  0.00000000E+00
  0.00000000E+00  0.00000000E+00  0.00000000E+00  0.00000000E+00  0.00000000E+00
  0.00000000E+00  0.00000000E+00  0.00000000E+00  0.00000000E+00  0.00000000E+00
  0.00000000E+00  0.00000000E+00  0.00000000E+00  0.00000000E+00  0.00000000E+00
  0.00000000E+00  0.00000000E+00  0.00000000E+00  0.00000000E+00  0.00000000E+00
  0.00000000E+00  0.00000000E+00  0.00000000E+00  0.00000000E+00  0.00000000E+00
  0.00000000E+00  0.00000000E+00  0.00000000E+00  0.00000000E+00  0.00000000E+00
  0.00000000E+00  0.00000000E+00  0.00000000E+00  0.00000000E+00  0.00000000E+00
  0.00000000E+00  0.00000000E+00  0.00000000E+00  0.00000000E+00  0.00000000E+00
  0.00000000E+00  0.00000000E+00  0.00000000E+00  0.00000000E+00  0.00000000E+00
  0.00000000E+00  0.00000000E+00  0.00000000E+00  0.00000000E+00  0.00000000E+00
  0.00000000E+00  0.00000000E+00  0.00000000E+00  0.00000000E+00  0.00000000E+00
  0.00000000E+00  0.00000000E+00  0.00000000E+00  0.00000000E+00  0.00000000E+00
  0.00000000E+00  0.00000000E+00  0.00000000E+00  0.00000000E+00  0.00000000E+00
  0.00000000E+00  0.00000000E+00  0.00000000E+00  0.00000000E+00  0.00000000E+00
  0.00000000E+00  0.00000000E+00  0.00000000E+00  0.00000000E+00  0.00000000E+00
  0.00000000E+00  0.00000000E+00  0.00000000E+00  0.00000000E+00  0.00000000E+00
  0.00000000E+00  0.00000000E+00  0.00000000E+00  0.00000000E+00  0.00000000E+00
  0.00000000E+00  0.00000000E+00  0.00000000E+00  0.00000000E+00  0.00000000E+00
  0.00000000E+00  0.00000000E+00  0.00000000E+00  0.00000000E+00  0.00000000E+00
  0.00000000E+00  0.00000000E+00  0.00000000E+00  0.00000000E+00  0.00000000E+00
  0.00000000E+00  0.00000000E+00  0.00000000E+00  0.00000000E+00  0.00000000E+00
  0.00000000E+00  0.00000000E+00  0.00000000E+00  0.00000000E+00  0.00000000E+00
  0.00000000E+00  0.00000000E+00  0.00000000E+00  0.00000000E+00  0.00000000E+00
  0.00000000E+00  0.00000000E+00  0.00000000E+00  0.00000000E+00  0.00000000E+00
  0.00000000E+00  0.00000000E+00  0.00000000E+00  0.00000000E+00  0.00000000E+00
  0.00000000E+00  0.00000000E+00  0.00000000E+00  0.00000000E+00  0.00000000E+00
  0.00000000E+00  0.00000000E+00  0.00000000E+00  0.00000000E+00  0.00000000E+00
  0.00000000E+00  0.00000000E+00  0.00000000E+00  0.00000000E+00  0.00000000E+00
  0.00000000E+00  0.00000000E+00  0.00000000E+00  0.00000000E+00  0.00000000E+00
  0.00000000E+00  0.00000000E+00  0.00000000E+00  0.00000000E+00  0.00000000E+00
  0.00000000E+00  0.00000000E+00  0.00000000E+00  0.00000000E+00  0.00000000E+00
  0.00000000E+00  0.00000000E+00  0.00000000E+00  0.00000000E+00  0.00000000E+00
  0.00000000E+00  0.00000000E+00  0.00000000E+00  0.00000000E+00  0.00000000E+00
  0.00000000E+00  0.00000000E+00  0.00000000E+00  0.00000000E+00  0.00000000E+00
  0.00000000E+00  0.00000000E+00  0.00000000E+00  0.00000000E+00  0.00000000E+00
  0.00000000E+00  0.00000000E+00  0.00000000E+00  0.00000000E+00  0.00000000E+00
  0.00000000E+00  0.00000000E+00  0.00000000E+00  0.00000000E+00  0.00000000E+00
  0.00000000E+00  0.00000000E+00  0.00000000E+00  0.00000000E+00  0.00000000E+00
  0.00000000E+00  0.00000000E+00  0.00000000E+00  0.00000000E+00  0.00000000E+00
  0.00000000E+00  0.00000000E+00  0.00000000E+00  0.00000000E+00  0.00000000E+00
  0.00000000E+00  0.00000000E+00  0.00000000E+00  0.00000000E+00  0.00000000E+00
  0.00000000E+00  0.00000000E+00  0.00000000E+00  0.00000000E+00  0.00000000E+00
  0.00000000E+00  0.00000000E+00  0.00000000E+00  0.00000000E+00  0.00000000E+00
  0.00000000E+00  0.00000000E+00  0.00000000E+00  0.00000000E+00  0.00000000E+00
  0.00000000E+00  0.00000000E+00  0.00000000E+00  0.00000000E+00  0.00000000E+00
  0.00000000E+00  0.00000000E+00  0.00000000E+00  0.00000000E+00  0.00000000E+00
  0.00000000E+00  0.00000000E+00  0.00000000E+00  0.00000000E+00  0.00000000E+00
  0.00000000E+00  0.00000000E+00  0.00000000E+00  0.00000000E+00  0.00000000E+00
  0.00000000E+00  0.00000000E+00  0.00000000E+00  0.00000000E+00  0.00000000E+00
  0.00000000E+00  0.00000000E+00  0.00000000E+00  0.00000000E+00  0.00000000E+00
  0.00000000E+00  0.00000000E+00  0.00000000E+00  0.00000000E+00  0.00000000E+00
  0.00000000E+00  0.00000000E+00  0.00000000E+00  0.00000000E+00  0.00000000E+00
  0.00000000E+00  0.00000000E+00  0.00000000E+00  0.00000000E+00  0.00000000E+00
  0.00000000E+00  0.00000000E+00  0.00000000E+00  0.00000000E+00  0.00000000E+00
  0.00000000E+00  0.00000000E+00  0.00000000E+00  0.00000000E+00  0.00000000E+00
  0.00000000E+00  0.00000000E+00  0.00000000E+00  0.00000000E+00  0.00000000E+00
  0.00000000E+00  0.00000000E+00  0.00000000E+00  0.00000000E+00  0.00000000E+00
  0.00000000E+00  0.00000000E+00  0.00000000E+00  0.00000000E+00  0.00000000E+00
  0.00000000E+00  0.00000000E+00  0.00000000E+00  0.00000000E+00  0.00000000E+00
  0.00000000E+00  0.00000000E+00  0.00000000E+00  0.00000000E+00  0.00000000E+00
  0.00000000E+00  0.00000000E+00  0.00000000E+00  0.00000000E+00  0.00000000E+00
  0.00000000E+00  0.00000000E+00  0.00000000E+00  0.00000000E+00  0.00000000E+00
  0.00000000E+00  0.00000000E+00  0.00000000E+00  0.00000000E+00  0.00000000E+00
  0.00000000E+00  0.00000000E+00  0.00000000E+00  0.00000000E+00  0.00000000E+00
  0.00000000E+00  0.00000000E+00  0.00000000E+00  0.00000000E+00  0.00000000E+00
  0.00000000E+00  0.00000000E+00  0.00000000E+00  0.00000000E+00  0.00000000E+00
  0.00000000E+00  0.00000000E+00  0.00000000E+00  0.00000000E+00  0.00000000E+00
  0.00000000E+00  0.00000000E+00  0.00000000E+00  0.00000000E+00  0.00000000E+00
  0.00000000E+00  0.00000000E+00  0.00000000E+00  0.00000000E+00  0.00000000E+00
  0.00000000E+00  0.00000000E+00  0.00000000E+00  0.00000000E+00  0.00000000E+00
  0.00000000E+00  0.00000000E+00  0.00000000E+00  0.00000000E+00  0.00000000E+00
  0.00000000E+00  0.00000000E+00  0.00000000E+00  0.00000000E+00  0.00000000E+00
  0.00000000E+00  0.00000000E+00  0.00000000E+00  0.00000000E+00  0.00000000E+00
  0.00000000E+00  0.00000000E+00  0.00000000E+00  0.00000000E+00  0.00000000E+00
  0.00000000E+00  0.00000000E+00  0.00000000E+00  0.00000000E+00  0.00000000E+00
  0.00000000E+00  0.00000000E+00  0.00000000E+00  0.00000000E+00  0.00000000E+00
  0.00000000E+00  0.00000000E+00  0.00000000E+00  0.00000000E+00  0.00000000E+00
  0.00000000E+00  0.00000000E+00  0.00000000E+00  0.00000000E+00  0.00000000E+00
  0.00000000E+00  0.00000000E+00  0.00000000E+00  0.00000000E+00  0.00000000E+00
  0.00000000E+00  0.00000000E+00  0.00000000E+00  0.00000000E+00  0.00000000E+00
  0.00000000E+00  0.00000000E+00  0.00000000E+00  0.00000000E+00  0.00000000E+00
  0.00000000E+00  0.00000000E+00  0.00000000E+00  0.00000000E+00  0.00000000E+00
  0.00000000E+00  0.00000000E+00  0.00000000E+00  0.00000000E+00  0.00000000E+00
  0.00000000E+00  0.00000000E+00  0.00000000E+00  0.00000000E+00  0.00000000E+00
  0.00000000E+00  0.00000000E+00  0.00000000E+00  0.00000000E+00  0.00000000E+00
  0.00000000E+00  0.00000000E+00  0.00000000E+00  0.00000000E+00  0.00000000E+00
  0.00000000E+00  0.00000000E+00  0.00000000E+00  0.00000000E+00  0.00000000E+00
  0.00000000E+00  0.00000000E+00  0.00000000E+00  0.00000000E+00  0.00000000E+00
  0.00000000E+00  0.00000000E+00  0.00000000E+00  0.00000000E+00  0.00000000E+00
  0.00000000E+00  0.00000000E+00  0.00000000E+00  0.00000000E+00  0.00000000E+00
  0.00000000E+00  0.00000000E+00  0.00000000E+00  0.00000000E+00  0.00000000E+00
  0.00000000E+00  0.00000000E+00  0.00000000E+00  0.00000000E+00  0.00000000E+00
  0.00000000E+00  0.00000000E+00  0.00000000E+00  0.00000000E+00  0.00000000E+00
  0.00000000E+00  0.00000000E+00  0.00000000E+00  0.00000000E+00  0.00000000E+00
  0.00000000E+00  0.00000000E+00  0.00000000E+00  0.00000000E+00  0.00000000E+00
  0.00000000E+00  0.00000000E+00  0.00000000E+00  0.00000000E+00  0.00000000E+00
  0.00000000E+00  0.00000000E+00  0.00000000E+00  0.00000000E+00  0.00000000E+00
  0.00000000E+00  0.00000000E+00  0.00000000E+00  0.00000000E+00  0.00000000E+00
  0.00000000E+00  0.00000000E+00  0.00000000E+00  0.00000000E+00  0.00000000E+00
  0.00000000E+00  0.00000000E+00  0.00000000E+00  0.00000000E+00  0.00000000E+00
  0.00000000E+00  0.00000000E+00  0.00000000E+00  0.00000000E+00  0.00000000E+00
  0.00000000E+00  0.00000000E+00  0.00000000E+00  0.00000000E+00  0.00000000E+00
  0.00000000E+00  0.00000000E+00  0.00000000E+00  0.00000000E+00  0.00000000E+00
  0.00000000E+00  0.00000000E+00  0.00000000E+00  0.00000000E+00  0.00000000E+00
  0.00000000E+00  0.00000000E+00  0.00000000E+00  0.00000000E+00  0.00000000E+00
  0.00000000E+00  0.00000000E+00  0.00000000E+00  0.00000000E+00  0.00000000E+00
  0.00000000E+00  0.00000000E+00  0.00000000E+00  0.00000000E+00  0.00000000E+00
  0.00000000E+00  0.00000000E+00  0.00000000E+00  0.00000000E+00  0.00000000E+00
  0.00000000E+00  0.00000000E+00  0.00000000E+00  0.00000000E+00  0.00000000E+00
  0.00000000E+00  0.00000000E+00  0.00000000E+00  0.00000000E+00  0.00000000E+00
  0.00000000E+00  0.00000000E+00  0.00000000E+00  0.00000000E+00  0.00000000E+00
  0.00000000E+00  0.00000000E+00  0.00000000E+00  0.00000000E+00  0.00000000E+00
  0.00000000E+00  0.00000000E+00  0.00000000E+00  0.00000000E+00  0.00000000E+00
  0.00000000E+00  0.00000000E+00  0.00000000E+00  0.00000000E+00  0.00000000E+00
  0.00000000E+00  0.00000000E+00  0.00000000E+00  0.00000000E+00  0.00000000E+00
  0.00000000E+00  0.00000000E+00  0.00000000E+00  0.00000000E+00  0.00000000E+00
  0.00000000E+00  0.00000000E+00  0.00000000E+00  0.00000000E+00  0.00000000E+00
  0.00000000E+00  0.00000000E+00  0.00000000E+00  0.00000000E+00  0.00000000E+00
  0.00000000E+00  0.00000000E+00  0.00000000E+00  0.00000000E+00  0.00000000E+00
  0.00000000E+00  0.00000000E+00  0.00000000E+00  0.00000000E+00  0.00000000E+00
  0.00000000E+00  0.00000000E+00  0.00000000E+00  0.00000000E+00  0.00000000E+00
  0.00000000E+00  0.00000000E+00  0.00000000E+00  0.00000000E+00  0.00000000E+00
  0.00000000E+00  0.00000000E+00  0.00000000E+00  0.00000000E+00  0.00000000E+00
  0.00000000E+00  0.00000000E+00  0.00000000E+00  0.00000000E+00  0.00000000E+00
  0.00000000E+00  0.00000000E+00  0.00000000E+00  0.00000000E+00  0.00000000E+00
  0.00000000E+00  0.00000000E+00  0.00000000E+00  0.00000000E+00  0.00000000E+00
  0.00000000E+00  0.00000000E+00  0.00000000E+00  0.00000000E+00  0.00000000E+00
  0.00000000E+00  0.00000000E+00  0.00000000E+00  0.00000000E+00  0.00000000E+00
  0.00000000E+00  0.00000000E+00  0.00000000E+00  0.00000000E+00  0.00000000E+00
  0.00000000E+00  0.00000000E+00  0.00000000E+00  0.00000000E+00  0.00000000E+00
  0.00000000E+00  0.00000000E+00  0.00000000E+00  0.00000000E+00  0.00000000E+00
  0.00000000E+00  0.00000000E+00  0.00000000E+00  0.00000000E+00  0.00000000E+00
  0.00000000E+00  0.00000000E+00  0.00000000E+00  0.00000000E+00  0.00000000E+00
  0.00000000E+00  0.00000000E+00  0.00000000E+00  0.00000000E+00  0.00000000E+00
  0.00000000E+00  0.00000000E+00  0.00000000E+00  0.00000000E+00  0.00000000E+00
  0.00000000E+00  0.00000000E+00  0.00000000E+00  0.00000000E+00  0.00000000E+00
  0.00000000E+00  0.00000000E+00  0.00000000E+00  0.00000000E+00  0.00000000E+00
  0.00000000E+00  0.00000000E+00  0.00000000E+00  0.00000000E+00  0.00000000E+00
  0.00000000E+00  0.00000000E+00  0.00000000E+00  0.00000000E+00  0.00000000E+00
  0.00000000E+00  0.00000000E+00  0.00000000E+00  0.00000000E+00  0.00000000E+00
  0.00000000E+00  0.00000000E+00  0.00000000E+00  0.00000000E+00  0.00000000E+00
  0.00000000E+00  0.00000000E+00  0.00000000E+00  0.00000000E+00  0.00000000E+00
  0.00000000E+00  0.00000000E+00  0.00000000E+00  0.00000000E+00  0.00000000E+00
  0.00000000E+00  0.00000000E+00  0.00000000E+00  0.00000000E+00  0.00000000E+00
  0.00000000E+00  0.00000000E+00  0.00000000E+00  0.00000000E+00  0.00000000E+00
  0.00000000E+00  0.00000000E+00  0.00000000E+00  0.00000000E+00  0.00000000E+00
  0.00000000E+00  0.00000000E+00  0.00000000E+00  0.00000000E+00  0.00000000E+00
  0.00000000E+00  0.00000000E+00  0.00000000E+00  0.00000000E+00  0.00000000E+00
  0.00000000E+00  0.00000000E+00  0.00000000E+00  0.00000000E+00  0.00000000E+00
  0.00000000E+00  0.00000000E+00  0.00000000E+00  0.00000000E+00  0.00000000E+00
  0.00000000E+00  0.00000000E+00  0.00000000E+00  0.00000000E+00  0.00000000E+00
  0.00000000E+00  0.00000000E+00  0.00000000E+00  0.00000000E+00  0.00000000E+00
  0.00000000E+00  0.00000000E+00  0.00000000E+00  0.00000000E+00  0.00000000E+00
  0.00000000E+00  0.00000000E+00  0.00000000E+00  0.00000000E+00  0.00000000E+00
  0.00000000E+00  0.00000000E+00  0.00000000E+00  0.00000000E+00  0.00000000E+00
  0.00000000E+00  0.00000000E+00  0.00000000E+00  0.00000000E+00  0.00000000E+00
  0.00000000E+00  0.00000000E+00  0.00000000E+00  0.00000000E+00  0.00000000E+00
  0.00000000E+00  0.00000000E+00  0.00000000E+00  0.00000000E+00  0.00000000E+00
  0.00000000E+00  0.00000000E+00  0.00000000E+00  0.00000000E+00  0.00000000E+00
  0.00000000E+00  0.00000000E+00  0.00000000E+00  0.00000000E+00  0.00000000E+00
  0.00000000E+00  0.00000000E+00  0.00000000E+00  0.00000000E+00  0.00000000E+00
  0.00000000E+00  0.00000000E+00  0.00000000E+00  0.00000000E+00  0.00000000E+00
  0.00000000E+00  0.00000000E+00  0.00000000E+00  0.00000000E+00  0.00000000E+00
  0.00000000E+00  0.00000000E+00  0.00000000E+00  0.00000000E+00  0.00000000E+00
  0.00000000E+00  0.00000000E+00  0.00000000E+00  0.00000000E+00  0.00000000E+00
  0.00000000E+00  0.00000000E+00  0.00000000E+00  0.00000000E+00  0.00000000E+00
  0.00000000E+00  0.00000000E+00  0.00000000E+00  0.00000000E+00  0.00000000E+00
  0.00000000E+00  0.00000000E+00  0.00000000E+00  0.00000000E+00  0.00000000E+00
  0.00000000E+00  0.00000000E+00  0.00000000E+00  0.00000000E+00  0.00000000E+00
  0.00000000E+00  0.00000000E+00  0.00000000E+00  0.00000000E+00  0.00000000E+00
  0.00000000E+00  0.00000000E+00  0.00000000E+00  0.00000000E+00  0.00000000E+00
  0.00000000E+00  0.00000000E+00  0.00000000E+00  0.00000000E+00  0.00000000E+00
  0.00000000E+00  0.00000000E+00  0.00000000E+00  0.00000000E+00  0.00000000E+00
  0.00000000E+00  0.00000000E+00  0.00000000E+00  0.00000000E+00  0.00000000E+00
  0.00000000E+00  0.00000000E+00  0.00000000E+00  0.00000000E+00  0.00000000E+00
  0.00000000E+00  0.00000000E+00  0.00000000E+00  0.00000000E+00  0.00000000E+00
  0.00000000E+00  0.00000000E+00  0.00000000E+00  0.00000000E+00  0.00000000E+00
  0.00000000E+00  0.00000000E+00  0.00000000E+00  0.00000000E+00  0.00000000E+00
  0.00000000E+00  0.00000000E+00  0.00000000E+00  0.00000000E+00  0.00000000E+00
  0.00000000E+00  0.00000000E+00  0.00000000E+00  0.00000000E+00  0.00000000E+00
  0.00000000E+00  0.00000000E+00  0.00000000E+00  0.00000000E+00  0.00000000E+00
  0.00000000E+00  0.00000000E+00  0.00000000E+00  0.00000000E+00  0.00000000E+00
  0.00000000E+00  0.00000000E+00  0.00000000E+00  0.00000000E+00  0.00000000E+00
  0.00000000E+00  0.00000000E+00  0.00000000E+00  0.00000000E+00  0.00000000E+00
  0.00000000E+00  0.00000000E+00  0.00000000E+00  0.00000000E+00  0.00000000E+00
  0.00000000E+00  0.00000000E+00  0.00000000E+00  0.00000000E+00  0.00000000E+00
  0.00000000E+00  0.00000000E+00  0.00000000E+00  0.00000000E+00  0.00000000E+00
  0.00000000E+00  0.00000000E+00  0.00000000E+00  0.00000000E+00  0.00000000E+00
  0.00000000E+00  0.00000000E+00  0.00000000E+00  0.00000000E+00  0.00000000E+00
  0.00000000E+00  0.00000000E+00  0.00000000E+00  0.00000000E+00  0.00000000E+00
  0.00000000E+00  0.00000000E+00  0.00000000E+00  0.00000000E+00  0.00000000E+00
  0.00000000E+00  0.00000000E+00  0.00000000E+00  0.00000000E+00  0.00000000E+00
  0.00000000E+00  0.00000000E+00  0.00000000E+00  0.00000000E+00  0.00000000E+00
  0.00000000E+00  0.00000000E+00  0.00000000E+00  0.00000000E+00  0.00000000E+00
  0.00000000E+00  0.00000000E+00  0.00000000E+00  0.00000000E+00  0.00000000E+00
  0.00000000E+00  0.00000000E+00  0.00000000E+00  0.00000000E+00  0.00000000E+00
  0.00000000E+00  0.00000000E+00  0.00000000E+00  0.00000000E+00  0.00000000E+00
  0.00000000E+00  0.00000000E+00  0.00000000E+00  0.00000000E+00  0.00000000E+00
  0.00000000E+00  0.00000000E+00  0.00000000E+00  0.00000000E+00  0.00000000E+00
  0.00000000E+00  0.00000000E+00  0.00000000E+00  0.00000000E+00  0.00000000E+00
  0.00000000E+00  0.00000000E+00  0.00000000E+00  0.00000000E+00  0.00000000E+00
  0.00000000E+00  0.00000000E+00  0.00000000E+00  0.00000000E+00  0.00000000E+00
  0.00000000E+00  0.00000000E+00  0.00000000E+00  0.00000000E+00  0.00000000E+00
  0.00000000E+00  0.00000000E+00  0.00000000E+00  0.00000000E+00  0.00000000E+00
  0.00000000E+00  0.00000000E+00  0.00000000E+00  0.00000000E+00  0.00000000E+00
  0.00000000E+00  0.00000000E+00  0.00000000E+00  0.00000000E+00  0.00000000E+00
  0.00000000E+00  0.00000000E+00  0.00000000E+00  0.00000000E+00  0.00000000E+00
  0.00000000E+00  0.00000000E+00  0.00000000E+00  0.00000000E+00  0.00000000E+00
  0.00000000E+00  0.00000000E+00  0.00000000E+00  0.00000000E+00  0.00000000E+00
  0.00000000E+00  0.00000000E+00  0.00000000E+00  0.00000000E+00  0.00000000E+00
  0.00000000E+00  0.00000000E+00  0.00000000E+00  0.00000000E+00  0.00000000E+00
  0.00000000E+00  0.00000000E+00  0.00000000E+00  0.00000000E+00  0.00000000E+00
  0.00000000E+00  0.00000000E+00  0.00000000E+00  0.00000000E+00  0.00000000E+00
  0.00000000E+00  0.00000000E+00  0.00000000E+00  0.00000000E+00  0.00000000E+00
  0.00000000E+00  0.00000000E+00  0.00000000E+00  0.00000000E+00  0.00000000E+00
  0.00000000E+00  0.00000000E+00  0.00000000E+00  0.00000000E+00  0.00000000E+00
  0.00000000E+00  0.00000000E+00  0.00000000E+00  0.00000000E+00  0.00000000E+00
  0.00000000E+00  0.00000000E+00  0.00000000E+00  0.00000000E+00  0.00000000E+00
  0.00000000E+00  0.00000000E+00  0.00000000E+00  0.00000000E+00  0.00000000E+00
  0.00000000E+00  0.00000000E+00  0.00000000E+00  0.00000000E+00  0.00000000E+00
  0.00000000E+00  0.00000000E+00  0.00000000E+00  0.00000000E+00  0.00000000E+00
  0.00000000E+00  0.00000000E+00  0.00000000E+00  0.00000000E+00  0.00000000E+00
  0.00000000E+00  0.00000000E+00  0.00000000E+00  0.00000000E+00  0.00000000E+00
  0.00000000E+00  0.00000000E+00  0.00000000E+00  0.00000000E+00  0.00000000E+00
  0.00000000E+00  0.00000000E+00  0.00000000E+00  0.00000000E+00  0.00000000E+00
  0.00000000E+00  0.00000000E+00  0.00000000E+00  0.00000000E+00  0.00000000E+00
  0.00000000E+00  0.00000000E+00  0.00000000E+00  0.00000000E+00  0.00000000E+00
  0.00000000E+00  0.00000000E+00  0.00000000E+00  0.00000000E+00  0.00000000E+00
  0.00000000E+00  0.00000000E+00  0.00000000E+00  0.00000000E+00  0.00000000E+00
  0.00000000E+00  0.00000000E+00  0.00000000E+00  0.00000000E+00  0.00000000E+00
  0.00000000E+00  0.00000000E+00  0.00000000E+00  0.00000000E+00  0.00000000E+00
  0.00000000E+00  0.00000000E+00  0.00000000E+00  0.00000000E+00  0.00000000E+00
  0.00000000E+00  0.00000000E+00  0.00000000E+00  0.00000000E+00  0.00000000E+00
  0.00000000E+00  0.00000000E+00  0.00000000E+00  0.00000000E+00  0.00000000E+00
  0.00000000E+00  0.00000000E+00  0.00000000E+00  0.00000000E+00  0.00000000E+00
  0.00000000E+00  0.00000000E+00  0.00000000E+00  0.00000000E+00  0.00000000E+00
  0.00000000E+00  0.00000000E+00  0.00000000E+00  0.00000000E+00  0.00000000E+00
  0.00000000E+00  0.00000000E+00  0.00000000E+00  0.00000000E+00  0.00000000E+00
  0.00000000E+00  0.00000000E+00  0.00000000E+00  0.00000000E+00  0.00000000E+00
  0.00000000E+00  0.00000000E+00  0.00000000E+00  0.00000000E+00  0.00000000E+00
  0.00000000E+00  0.00000000E+00  0.00000000E+00  0.00000000E+00  0.00000000E+00
  0.00000000E+00  0.00000000E+00  0.00000000E+00  0.00000000E+00  0.00000000E+00
  0.00000000E+00  0.00000000E+00  0.00000000E+00  0.00000000E+00  0.00000000E+00
  0.00000000E+00  0.00000000E+00  0.00000000E+00  0.00000000E+00  0.00000000E+00
  0.00000000E+00  0.00000000E+00  0.00000000E+00  0.00000000E+00  0.00000000E+00
  0.00000000E+00  0.00000000E+00  0.00000000E+00  0.00000000E+00  0.00000000E+00
  0.00000000E+00  0.00000000E+00  0.00000000E+00  0.00000000E+00  0.00000000E+00
  0.00000000E+00  0.00000000E+00  0.00000000E+00  0.00000000E+00  0.00000000E+00
  0.00000000E+00  0.00000000E+00  0.00000000E+00  0.00000000E+00  0.00000000E+00
  0.00000000E+00  0.00000000E+00  0.00000000E+00  0.00000000E+00  0.00000000E+00
  0.00000000E+00  0.00000000E+00  0.00000000E+00  0.00000000E+00  0.00000000E+00
  0.00000000E+00  0.00000000E+00  0.00000000E+00  0.00000000E+00  0.00000000E+00
  0.00000000E+00  0.00000000E+00  0.00000000E+00  0.00000000E+00  0.00000000E+00
  0.00000000E+00  0.00000000E+00  0.00000000E+00  0.00000000E+00  0.00000000E+00
  0.00000000E+00  0.00000000E+00  0.00000000E+00  0.00000000E+00  0.00000000E+00
  0.00000000E+00  0.00000000E+00  0.00000000E+00  0.00000000E+00  0.00000000E+00
  0.00000000E+00  0.00000000E+00  0.00000000E+00  0.00000000E+00  0.00000000E+00
  0.00000000E+00  0.00000000E+00  0.00000000E+00  0.00000000E+00  0.00000000E+00
  0.00000000E+00  0.00000000E+00  0.00000000E+00  0.00000000E+00  0.00000000E+00
  0.00000000E+00  0.00000000E+00  0.00000000E+00  0.00000000E+00  0.00000000E+00
  0.00000000E+00  0.00000000E+00  0.00000000E+00  0.00000000E+00  0.00000000E+00
  0.00000000E+00  0.00000000E+00  0.00000000E+00  0.00000000E+00  0.00000000E+00
  0.00000000E+00  0.00000000E+00  0.00000000E+00  0.00000000E+00  0.00000000E+00
  0.00000000E+00  0.00000000E+00  0.00000000E+00  0.00000000E+00  0.00000000E+00
Gaussian Version                           C   N=           2
AppleM1-GDVRevJ.32+     
