h2s                                                                     
Freq      RB3LYP                                                      6-31G(d)            
Number of atoms                            I                3
Info1-9                                    I   N=           9
          14          12           0           0           0         101
           6          18        -502
Full Title                                 C   N=           1
h2s         
Route                                      C   N=           5
#B3LYP 6-31G* freq=anharm output=pickett iop(7/8=10)        
Point Group                                C   N=           2
C02V                    
Point Group NOp                            I                4
Point Group Abelian NOp                    I                4
Point Group NClass                         I                4
Point Group NIrrep                         I                4
Point Group NGen                           I                2
Point Group NOp symm assign                I                2
Point Group Irrep Names                    H   N=           4
A1      A2      B1      B2      
Point Group Class Names                    H   N=           4
E       C2      Sgm     Sgm'    
Point Group Generators                     I   N=           2
           2           3
Point Group Class of Operators             I   N=           4
           1           2           3           4
Point Group Rotations                      R   N=          48
  1.00000000E+00  0.00000000E+00  0.00000000E+00  0.00000000E+00  1.00000000E+00
 -5.90490600E-33  0.00000000E+00 -5.90490600E-33  1.00000000E+00  0.00000000E+00
  0.00000000E+00  0.00000000E+00 -1.00000000E+00 -1.22464680E-16 -2.46519033E-32
  1.22464680E-16 -1.00000000E+00  1.07775327E-33  0.00000000E+00  6.42104564E-33
  1.00000000E+00  0.00000000E+00  0.00000000E+00  0.00000000E+00 -1.00000000E+00
  0.00000000E+00  0.00000000E+00  0.00000000E+00  1.00000000E+00 -1.82308576E-32
  0.00000000E+00 -1.82308576E-32  1.00000000E+00  0.00000000E+00  0.00000000E+00
  0.00000000E+00  1.00000000E+00 -1.22464680E-16 -1.23259516E-32 -1.22464680E-16
 -1.00000000E+00 -1.59389291E-33 -1.23259516E-32  1.87469973E-32  1.00000000E+00
  0.00000000E+00  0.00000000E+00  0.00000000E+00
Point Group Cell Trans                     I   N=          12
           0           0           0           0           0           0
           0           0           0           0           0           0
Point Group Char Table                     R   N=          16
  1.00000000E+00  1.00000000E+00  1.00000000E+00  1.00000000E+00  1.00000000E+00
  1.00000000E+00 -1.00000000E+00 -1.00000000E+00  1.00000000E+00 -1.00000000E+00
 -1.00000000E+00  1.00000000E+00  1.00000000E+00 -1.00000000E+00  1.00000000E+00
 -1.00000000E+00
Point Group Atom Permutations              I   N=          12
           1           2           3           1           3           2
           1           2           3           1           3           2
Charge                                     I                0
Multiplicity                               I                1
Number of electrons                        I               18
Number of alpha electrons                  I                9
Number of beta electrons                   I                9
Number of basis functions                  I               23
Number of independent functions            I               23
Number of point charges in /Mol/           I                0
Number of translation vectors              I                0
Atomic numbers                             I   N=           3
          16           1           1
Nuclear charges                            R   N=           3
  1.60000000E+01  1.00000000E+00  1.00000000E+00
Current cartesian coordinates              R   N=           9
 -3.08148791E-33 -2.49890344E-33  1.95448494E-01  0.00000000E+00  1.84650620E+00
 -1.56358795E+00 -2.26131791E-16 -1.84650620E+00 -1.56358795E+00
Number of symbols in /Mol/                 I                0
Int Atom Types                             I   N=           3
           0           0           0
Force Field                                I                0
Atom Types                                 C   N=           3
                                    
MM charges                                 R   N=           3
  0.00000000E+00  0.00000000E+00  0.00000000E+00
Integer atomic weights                     I   N=           3
          32           1           1
Real atomic weights                        R   N=           3
  3.19720718E+01  1.00782504E+00  1.00782504E+00
Atom fragment info                         I   N=           3
           0           0           0
Atom residue num                           I   N=           3
           0           0           0
Nuclear spins                              I   N=           3
           0           1           1
Nuclear ZEff                               R   N=           3
 -1.36000000E+01 -1.00000000E+00 -1.00000000E+00
Nuclear ZNuc                               R   N=           3
  1.60000000E+01  1.00000000E+00  1.00000000E+00
Nuclear QMom                               R   N=           3
  0.00000000E+00  0.00000000E+00  0.00000000E+00
Nuclear GFac                               R   N=           3
  0.00000000E+00  2.79284600E+00  2.79284600E+00
MicOpt                                     I   N=           3
          -1          -1          -1
Number of residues                         I                0
Number of secondary structures             I                0
SymInf integers                            I   N=          26
           2           4           1           1           1          -1
          -1           1          -1           1           1           1
          -1           1           0           0           0           0
           0           0           0           0           0           0
           0           0
RotTr to input orientation                 R   N=          12
  3.06161700E-16 -6.12323400E-17 -1.00000000E+00 -1.00000000E+00  1.06357793E-16
 -3.06161700E-16  1.06357793E-16  1.00000000E+00 -6.12323400E-17  0.00000000E+00
 -9.11280529E-02  1.25628773E-17
Number of contracted shells                I                9
Number of primitive shells                 I               25
Pure/Cartesian d shells                    I                1
Pure/Cartesian f shells                    I                0
Highest angular momentum                   I                2
Largest degree of contraction              I                6
Shell types                                I   N=           9
           0          -1          -1          -1           2           0
           0           0           0
Number of primitives per shell             I   N=           9
           6           6           3           1           1           3
           1           3           1
Shell to atom map                          I   N=           9
           1           1           1           1           1           2
           2           3           3
Primitive exponents                        R   N=          25
  2.19171000E+04  3.30149000E+03  7.54146000E+02  2.12711000E+02  6.79896000E+01
  2.30515000E+01  4.23735000E+02  1.00710000E+02  3.21599000E+01  1.18079000E+01
  4.63110000E+00  1.87025000E+00  2.61584000E+00  9.22167000E-01  3.41287000E-01
  1.17167000E-01  6.50000000E-01  1.87311370E+01  2.82539436E+00  6.40121692E-01
  1.61277759E-01  1.87311370E+01  2.82539436E+00  6.40121692E-01  1.61277759E-01
Contraction coefficients                   R   N=          25
  1.86924085E-03  1.42303065E-02  6.96962317E-02  2.38487108E-01  4.83307220E-01
  3.38074154E-01 -2.37677050E-03 -3.16930067E-02 -1.13317024E-01  5.60900118E-02
  5.92255124E-01  4.55006095E-01 -2.50373114E-01  6.69567631E-02  1.05450627E+00
  1.00000000E+00  1.00000000E+00  3.34946043E-02  2.34726953E-01  8.13757326E-01
  1.00000000E+00  3.34946043E-02  2.34726953E-01  8.13757326E-01  1.00000000E+00
P(S=P) Contraction coefficients            R   N=          25
  0.00000000E+00  0.00000000E+00  0.00000000E+00  0.00000000E+00  0.00000000E+00
  0.00000000E+00  4.06100998E-03  3.06812999E-02  1.30451999E-01  3.27204999E-01
  4.52850998E-01  2.56041999E-01 -1.45104895E-02  3.10262776E-01  7.54482456E-01
  1.00000000E+00  0.00000000E+00  0.00000000E+00  0.00000000E+00  0.00000000E+00
  0.00000000E+00  0.00000000E+00  0.00000000E+00  0.00000000E+00  0.00000000E+00
Coordinates of each shell                  R   N=          27
 -1.80681651E-33 -1.20454434E-33  1.95448494E-01 -1.80681651E-33 -1.20454434E-33
  1.95448494E-01 -1.80681651E-33 -1.20454434E-33  1.95448494E-01 -1.80681651E-33
 -1.20454434E-33  1.95448494E-01 -1.80681651E-33 -1.20454434E-33  1.95448494E-01
  0.00000000E+00  1.84650620E+00 -1.56358795E+00  0.00000000E+00  1.84650620E+00
 -1.56358795E+00 -2.26131791E-16 -1.84650620E+00 -1.56358795E+00 -2.26131791E-16
 -1.84650620E+00 -1.56358795E+00
Constraint Structure                       R   N=           9
  5.95108629E-19  2.07874704E-17  1.95448494E-01 -4.57024450E-16  1.84650620E+00
 -1.56358795E+00  6.73634503E-16 -1.84650620E+00 -1.56358795E+00
Constraint Force Constants                 R   N=           9
  0.00000000E+00  0.00000000E+00  0.00000000E+00  0.00000000E+00  0.00000000E+00
  0.00000000E+00  0.00000000E+00  0.00000000E+00  0.00000000E+00
Num ILSW                                   I              100
ILSW                                       I   N=         100
           0           1           0           1           2           0
           0           0           0           0        4002          -1
           5           0           0           0           2          -1
           0           0           0           0           1           0
           1           0           0           0           0           0
           0           0      100000           0          -1           0
           0           0           0           0           0           0
           0           0           0           1           0           0
           0 -2000000000           1           0           0           0
           0           0        2004          68           0           0
           0           0           5           0           0           0
           0           0           0           0           0           1
           0           0           0           0           0           0
           0           0           0           0           0           0
           0           0           0           0           0           0
           0           0           1           0           0           0
           0           0           0           0
Num RLSW                                   I               68
RLSW                                       R   N=          68
  8.00000000E-01  7.20000000E-01  1.00000000E+00  8.10000000E-01  2.00000000E-01
  0.00000000E+00  0.00000000E+00  1.00000000E+00  0.00000000E+00  0.00000000E+00
  0.00000000E+00  0.00000000E+00  1.00000000E+00  0.00000000E+00  0.00000000E+00
  0.00000000E+00  0.00000000E+00  1.00000000E+00  0.00000000E+00  0.00000000E+00
  0.00000000E+00  0.00000000E+00  1.00000000E+00  0.00000000E+00  0.00000000E+00
  0.00000000E+00  0.00000000E+00  1.00000000E+00  0.00000000E+00  0.00000000E+00
  0.00000000E+00  0.00000000E+00  1.00000000E+00  0.00000000E+00  0.00000000E+00
  0.00000000E+00  0.00000000E+00  0.00000000E+00  1.00000000E+00  1.00000000E+00
  0.00000000E+00  1.00000000E+00  0.00000000E+00  0.00000000E+00  0.00000000E+00
  0.00000000E+00  0.00000000E+00  0.00000000E+00  0.00000000E+00  0.00000000E+00
  0.00000000E+00  0.00000000E+00  1.00000000E+00  1.00000000E+00  1.00000000E+00
  1.00000000E+00  1.00000000E+00  1.00000000E+00  0.00000000E+00  0.00000000E+00
  0.00000000E+00  0.00000000E+00  0.00000000E+00  0.00000000E+00  0.00000000E+00
  0.00000000E+00  2.00000000E-10  1.00000000E-02
MxBond                                     I                2
NBond                                      I   N=           3
           2           1           1
IBond                                      I   N=           6
           2           3           1           0           1           0
RBond                                      R   N=           6
  1.00000000E+00  1.00000000E+00  1.00000000E+00  0.00000000E+00  1.00000000E+00
  0.00000000E+00
Virial Ratio                               R      2.003180586520726E+00
SCF Energy                                 R     -3.993854329534115E+02
Total Energy                               R     -3.993854329534115E+02
RMS Force                                  R      2.898309497090291E-06
RMS Density                                R      8.025173265132497E-09
NImag                                      I                0
Zero-point Energy                          R      1.514721489140884E-02
Job Status                                 I                1
Nuclear derivative order                   I                3
Energy with zero-point                     R     -3.993702857385201E+02
Thermal Energy                             R     -3.993674394149982E+02
Thermal Enthalpy                           R     -3.993664952301845E+02
Thermal Free Energy                        R     -3.993898537237324E+02
External E-field                           R   N=         105
  0.00000000E+00  0.00000000E+00  0.00000000E+00  0.00000000E+00  0.00000000E+00
  0.00000000E+00  0.00000000E+00  0.00000000E+00  0.00000000E+00  0.00000000E+00
  0.00000000E+00  0.00000000E+00  0.00000000E+00  0.00000000E+00  0.00000000E+00
  0.00000000E+00  0.00000000E+00  0.00000000E+00  0.00000000E+00  0.00000000E+00
  0.00000000E+00  0.00000000E+00  0.00000000E+00  0.00000000E+00  0.00000000E+00
  0.00000000E+00  0.00000000E+00  0.00000000E+00  0.00000000E+00  0.00000000E+00
  0.00000000E+00  0.00000000E+00  0.00000000E+00  0.00000000E+00  0.00000000E+00
  0.00000000E+00  0.00000000E+00  0.00000000E+00  0.00000000E+00  0.00000000E+00
  0.00000000E+00  0.00000000E+00  0.00000000E+00  0.00000000E+00  0.00000000E+00
  0.00000000E+00  0.00000000E+00  0.00000000E+00  0.00000000E+00  0.00000000E+00
  0.00000000E+00  0.00000000E+00  0.00000000E+00  0.00000000E+00  0.00000000E+00
  0.00000000E+00  0.00000000E+00  0.00000000E+00  0.00000000E+00  0.00000000E+00
  0.00000000E+00  0.00000000E+00  0.00000000E+00  0.00000000E+00  0.00000000E+00
  0.00000000E+00  0.00000000E+00  0.00000000E+00  0.00000000E+00  0.00000000E+00
  0.00000000E+00  0.00000000E+00  0.00000000E+00  0.00000000E+00  0.00000000E+00
  0.00000000E+00  0.00000000E+00  0.00000000E+00  0.00000000E+00  0.00000000E+00
  0.00000000E+00  0.00000000E+00  0.00000000E+00  0.00000000E+00  0.00000000E+00
  0.00000000E+00  0.00000000E+00  0.00000000E+00  0.00000000E+00  0.00000000E+00
  0.00000000E+00  0.00000000E+00  0.00000000E+00  0.00000000E+00  0.00000000E+00
  0.00000000E+00  0.00000000E+00  0.00000000E+00  0.00000000E+00  0.00000000E+00
  0.00000000E+00  0.00000000E+00  0.00000000E+00  0.00000000E+00  0.00000000E+00
IOpCl                                      I                0
IROHF                                      I                0
Alpha Orbital Energies                     R   N=          23
 -8.88845616E+01 -7.95023656E+00 -5.91491545E+00 -5.91168379E+00 -5.90422448E+00
 -7.48335994E-01 -4.52257364E-01 -3.68084893E-01 -2.61529532E-01  1.94959908E-02
  5.57256475E-02  3.14809230E-01  3.30567342E-01  3.45255805E-01  3.64820215E-01
  6.75042160E-01  7.33852450E-01  7.54120972E-01  7.59699131E-01  7.66833367E-01
  1.01614970E+00  1.19057758E+00  3.86884323E+00
Alpha MO coefficients                      R   N=         529
  9.96112742E-01  1.48632456E-02  0.00000000E+00  0.00000000E+00 -8.07345105E-05
 -2.40679604E-02  0.00000000E+00  0.00000000E+00  8.41888008E-05  3.29732982E-03
  0.00000000E+00  0.00000000E+00 -3.11151528E-04  8.45788077E-03  8.46178977E-03
  8.46081965E-03  0.00000000E+00  0.00000000E+00  0.00000000E+00  1.78467266E-04
 -4.20939003E-04  1.78467266E-04 -4.20939003E-04 -2.79738675E-01  1.02192386E+00
  0.00000000E+00  0.00000000E+00 -8.22943508E-03  7.89869971E-02  0.00000000E+00
  0.00000000E+00 -1.28449801E-03 -1.97550260E-02  0.00000000E+00  0.00000000E+00
  3.27533882E-03 -1.82168782E-02 -1.75000760E-02 -1.76841922E-02  0.00000000E+00
  0.00000000E+00  0.00000000E+00 -1.39812986E-03  4.08090852E-03 -1.39812986E-03
  4.08090852E-03  0.00000000E+00  0.00000000E+00  0.00000000E+00  9.90773774E-01
  0.00000000E+00  0.00000000E+00  0.00000000E+00  3.07163238E-02  0.00000000E+00
  0.00000000E+00  0.00000000E+00 -9.75284305E-03  0.00000000E+00  0.00000000E+00
  0.00000000E+00  0.00000000E+00  0.00000000E+00  0.00000000E+00 -1.31947312E-03
 -1.89837691E-03  2.42949399E-03  1.89837691E-03 -2.42949399E-03 -2.43984628E-03
  9.07460265E-03  0.00000000E+00  0.00000000E+00  9.90873425E-01 -9.17527425E-04
  0.00000000E+00  0.00000000E+00  3.02809015E-02  3.11497325E-03  0.00000000E+00
  0.00000000E+00 -9.96028300E-03  4.95335545E-04  6.26347512E-05 -9.88161306E-04
  0.00000000E+00  0.00000000E+00  0.00000000E+00  1.57649661E-03 -2.69692089E-03
  1.57649661E-03 -2.69692089E-03  0.00000000E+00  0.00000000E+00  9.91371050E-01
  0.00000000E+00  0.00000000E+00  0.00000000E+00  2.87205867E-02  0.00000000E+00
  0.00000000E+00  0.00000000E+00 -7.95169394E-03  0.00000000E+00  0.00000000E+00
  0.00000000E+00  0.00000000E+00  0.00000000E+00  0.00000000E+00 -6.28744490E-04
  0.00000000E+00  0.00000000E+00  0.00000000E+00  0.00000000E+00  0.00000000E+00
  7.20837583E-02 -3.28373411E-01  0.00000000E+00  0.00000000E+00  5.59880379E-02
  6.67938447E-01  0.00000000E+00  0.00000000E+00 -1.37441345E-01  2.28816333E-01
  0.00000000E+00  0.00000000E+00 -1.49518186E-02 -3.11571349E-02  1.80401727E-02
  1.56268170E-02  0.00000000E+00  0.00000000E+00  0.00000000E+00  1.43954203E-01
  5.11815778E-02  1.43954203E-01  5.11815778E-02  0.00000000E+00  0.00000000E+00
  0.00000000E+00 -2.07101901E-01  0.00000000E+00  0.00000000E+00  0.00000000E+00
  5.23238606E-01  0.00000000E+00  0.00000000E+00  0.00000000E+00  1.12752852E-01
  0.00000000E+00  0.00000000E+00  0.00000000E+00  0.00000000E+00  0.00000000E+00
  0.00000000E+00 -8.76431599E-02  2.45122609E-01  2.22979517E-01 -2.45122609E-01
 -2.22979517E-01  3.28073187E-02 -1.51057594E-01  0.00000000E+00  0.00000000E+00
 -2.20392826E-01  3.42291189E-01  0.00000000E+00  0.00000000E+00  5.62116281E-01
  3.12156808E-01  0.00000000E+00  0.00000000E+00  2.07279926E-01  2.42034507E-02
 -1.18416206E-02 -3.97724961E-02  0.00000000E+00  0.00000000E+00  0.00000000E+00
 -1.63034856E-01 -1.82775342E-01 -1.63034856E-01 -1.82775342E-01  0.00000000E+00
  0.00000000E+00 -2.65511225E-01  0.00000000E+00  0.00000000E+00  0.00000000E+00
  6.96371410E-01  0.00000000E+00  0.00000000E+00  0.00000000E+00  4.36099190E-01
  0.00000000E+00  0.00000000E+00  0.00000000E+00  0.00000000E+00  0.00000000E+00
  0.00000000E+00 -2.38733570E-02  0.00000000E+00  0.00000000E+00  0.00000000E+00
  0.00000000E+00  0.00000000E+00  0.00000000E+00  0.00000000E+00  0.00000000E+00
 -1.71333963E-01  0.00000000E+00  0.00000000E+00  0.00000000E+00  4.83465502E-01
  0.00000000E+00  0.00000000E+00  0.00000000E+00  9.88147956E-01  0.00000000E+00
  0.00000000E+00  0.00000000E+00  0.00000000E+00  0.00000000E+00  0.00000000E+00
  1.35415237E-01 -1.90787251E-01 -9.52151343E-01  1.90787251E-01  9.52151343E-01
 -3.67316736E-02  1.53567371E-01  0.00000000E+00  0.00000000E+00 -1.47276133E-01
 -4.61077814E-01  0.00000000E+00  0.00000000E+00  4.42511884E-01 -1.12648851E+00
  0.00000000E+00  0.00000000E+00  1.01337934E+00 -7.25675476E-02  5.11805864E-02
  8.30587474E-03  0.00000000E+00  0.00000000E+00  0.00000000E+00  1.28490054E-01
  1.25433695E+00  1.28490054E-01  1.25433695E+00  0.00000000E+00  0.00000000E+00
  0.00000000E+00  2.61921409E-01  0.00000000E+00  0.00000000E+00  0.00000000E+00
 -1.07642297E+00  0.00000000E+00  0.00000000E+00  0.00000000E+00  1.22865198E+00
  0.00000000E+00  0.00000000E+00  0.00000000E+00  0.00000000E+00  0.00000000E+00
  0.00000000E+00  1.60002906E-01 -1.45716614E-01  6.48570221E-02  1.45716614E-01
 -6.48570221E-02 -4.05257795E-02 -1.11883913E-02  0.00000000E+00  0.00000000E+00
 -1.38108703E-01 -1.07923831E+00  0.00000000E+00  0.00000000E+00  6.18853902E-01
  2.43865658E+00  0.00000000E+00  0.00000000E+00 -1.57653662E+00  1.58741917E-01
 -2.07335651E-01 -1.60629516E-01  0.00000000E+00  0.00000000E+00  0.00000000E+00
 -2.05621621E-01 -8.28505030E-01 -2.05621621E-01 -8.28505030E-01 -4.59745440E-02
  5.45609355E-02  0.00000000E+00  0.00000000E+00  2.31441903E-01 -1.04767397E+00
  0.00000000E+00  0.00000000E+00 -9.15314925E-01  1.59582332E+00  0.00000000E+00
  0.00000000E+00  6.46699699E-01  9.63029636E-03 -7.95949651E-02 -3.44261950E-02
  0.00000000E+00  0.00000000E+00  0.00000000E+00 -1.54125604E-02 -3.41159801E-01
 -1.54125604E-02 -3.41159801E-01  0.00000000E+00  0.00000000E+00  2.95464505E-01
  0.00000000E+00  0.00000000E+00  0.00000000E+00 -1.18687668E+00  0.00000000E+00
  0.00000000E+00  0.00000000E+00  1.23742124E+00  0.00000000E+00  0.00000000E+00
  0.00000000E+00  0.00000000E+00  0.00000000E+00  0.00000000E+00  2.11749219E-02
  0.00000000E+00  0.00000000E+00  0.00000000E+00  0.00000000E+00  0.00000000E+00
  0.00000000E+00  0.00000000E+00  0.00000000E+00 -1.37414648E-01  0.00000000E+00
  0.00000000E+00  0.00000000E+00  5.12758578E-01  0.00000000E+00  0.00000000E+00
  0.00000000E+00 -1.25600126E+00  0.00000000E+00  0.00000000E+00  0.00000000E+00
  0.00000000E+00  0.00000000E+00  0.00000000E+00  5.99515797E-01 -5.60043861E-01
  1.41298765E+00  5.60043861E-01 -1.41298765E+00 -1.57469850E-02  1.77141192E-02
  0.00000000E+00  0.00000000E+00 -4.27411504E-02 -3.82921403E-01  0.00000000E+00
  0.00000000E+00  1.61830853E-01  1.13083683E+00  0.00000000E+00  0.00000000E+00
 -6.07843710E-01 -1.56948544E-01  8.72201387E-01 -7.13572913E-01  0.00000000E+00
  0.00000000E+00  0.00000000E+00  2.84984646E-01 -7.87830798E-01  2.84984646E-01
 -7.87830798E-01 -2.96953928E-02  3.40747137E-02  0.00000000E+00  0.00000000E+00
 -1.11257082E-01 -7.21999036E-01  0.00000000E+00  0.00000000E+00  4.10959283E-01
  2.17236875E+00  0.00000000E+00  0.00000000E+00 -1.20662989E+00 -5.33667523E-01
 -6.98244198E-02  6.10284785E-01  0.00000000E+00  0.00000000E+00  0.00000000E+00
  5.80708444E-01 -1.54142329E+00  5.80708444E-01 -1.54142329E+00  0.00000000E+00
  0.00000000E+00  0.00000000E+00  0.00000000E+00  0.00000000E+00  0.00000000E+00
  0.00000000E+00  0.00000000E+00  0.00000000E+00  0.00000000E+00  0.00000000E+00
  0.00000000E+00  0.00000000E+00  0.00000000E+00  0.00000000E+00  0.00000000E+00
  1.00000000E+00  0.00000000E+00  0.00000000E+00  0.00000000E+00  0.00000000E+00
  0.00000000E+00  0.00000000E+00  0.00000000E+00  0.00000000E+00 -1.19778655E-02
  0.00000000E+00  0.00000000E+00  0.00000000E+00  4.17960967E-02  0.00000000E+00
  0.00000000E+00  0.00000000E+00 -1.58041980E-02  0.00000000E+00  0.00000000E+00
  0.00000000E+00  0.00000000E+00  0.00000000E+00  0.00000000E+00  9.99490515E-01
  0.00000000E+00  0.00000000E+00  0.00000000E+00  0.00000000E+00  0.00000000E+00
 -5.67985405E-03  6.31028668E-02  0.00000000E+00  0.00000000E+00 -6.07026830E-02
  2.92354183E-02  0.00000000E+00  0.00000000E+00  1.77077978E-01 -1.45778572E-01
  0.00000000E+00  0.00000000E+00  1.08266234E-01  8.69277724E-01 -4.67961909E-01
 -3.34410650E-01  0.00000000E+00  0.00000000E+00  0.00000000E+00  6.88950630E-01
 -3.10970766E-01  6.88950630E-01 -3.10970766E-01  0.00000000E+00  0.00000000E+00
  0.00000000E+00  7.10508604E-02  0.00000000E+00  0.00000000E+00  0.00000000E+00
 -2.19565233E-01  0.00000000E+00  0.00000000E+00  0.00000000E+00  1.11614316E-01
  0.00000000E+00  0.00000000E+00  0.00000000E+00  0.00000000E+00  0.00000000E+00
  0.00000000E+00  8.76125772E-01  8.01766077E-01 -5.98574481E-01 -8.01766077E-01
  5.98574481E-01  1.70016359E-01 -7.79033897E-01  0.00000000E+00  0.00000000E+00
 -3.54395764E-03  6.34982698E+00  0.00000000E+00  0.00000000E+00  1.57393256E-02
 -8.24182446E-02  0.00000000E+00  0.00000000E+00 -1.09989721E-01 -2.71000268E+00
 -2.69694203E+00 -2.69842078E+00  0.00000000E+00  0.00000000E+00  0.00000000E+00
  5.79781165E-02 -1.55170504E-01  5.79781165E-02 -1.55170504E-01
Orthonormal basis                          R   N=         529
  9.28726495E-03  6.61394783E-02 -1.48794639E-19 -1.28410626E-04 -8.97751334E-03
  2.01707592E-01 -3.58415668E-19 -6.10979481E-04 -4.91005972E-02  2.03689971E-01
 -5.39223989E-18 -5.32633499E-04 -6.56721989E-02  1.39736521E-01  1.52059265E-01
  1.50919601E-01  1.45600868E-18  1.38705543E-18  3.47800908E-04  9.27356954E-02
  1.55484413E-01  9.46735145E-02  1.57320014E-01  1.29832793E-05  7.88888646E-05
  4.43081364E-17  9.09838710E-02 -8.86635065E-05  3.45140860E-04  1.43519677E-16
  3.05574857E-01 -5.17342143E-04  9.29115045E-04  9.10703964E-17  3.45363779E-01
 -1.49940228E-03  3.19035828E-04  1.47346041E-04  1.35795108E-04 -6.07171737E-18
 -5.78782915E-18 -9.41153498E-02  2.11140760E-01  2.03380067E-01 -2.09762920E-01
 -1.99625002E-01  2.10916370E-02  8.87678712E-02 -1.12824941E-16  7.13190533E-04
  1.25287375E-01  1.66100382E-01 -2.48888109E-17  1.83631497E-03  3.54382880E-01
  1.01849142E-01 -8.38432803E-18  1.16637974E-03  3.76054071E-01  1.47809798E-01
  1.07222775E-01  1.10976555E-01 -5.58146915E-18 -5.31712869E-18 -9.57722990E-04
 -1.55379849E-01 -1.33160068E-01 -1.56291430E-01 -1.32784148E-01  8.22717558E-17
 -2.53911139E-16  2.67394857E-01 -2.53991605E-16 -1.80210249E-16  1.23116839E-16
  5.25456009E-01  8.67980314E-17 -8.99418036E-17 -9.30079549E-17  4.78380957E-01
  2.04550030E-16  1.64721063E-16  1.94775868E-16 -3.67997724E-17  2.83701938E-17
  9.65861216E-17 -2.16134039E-18  4.58163309E-16 -2.38188552E-16  5.78018606E-17
  1.90133906E-16 -4.82720342E-17  6.59083656E-01  5.72899115E-01 -1.50650413E-16
  8.21075337E-03 -1.46156885E-01 -7.02769595E-03  2.31249234E-17  5.96033957E-03
 -1.08250679E-01 -3.81566650E-02  1.01649510E-16  1.87838406E-03 -4.17972560E-02
 -2.17271783E-02 -6.16300879E-02 -5.79381157E-02 -9.99076804E-18 -9.51720255E-18
  8.40228492E-03 -6.53887293E-02 -3.84528128E-02 -5.71393683E-02 -3.55220842E-02
 -1.22068943E-02 -9.87529814E-03 -3.93705011E-18  4.64312671E-01 -2.91619191E-03
  1.15669420E-03 -1.33452767E-16  3.25820456E-01 -1.88029251E-03 -4.03373016E-04
 -3.13549346E-16  1.23521181E-01  1.33382145E-03  1.03628716E-03  2.13340141E-03
  2.11540352E-03  3.90381714E-17  3.72128143E-17  6.02686938E-01 -2.40805773E-01
 -6.76790892E-02  2.40540522E-01  6.35162418E-02  2.02692078E-01  4.70681545E-02
  4.95494042E-16 -3.18327421E-03  7.99050886E-01 -1.26864305E-01  2.56791534E-16
 -8.54684929E-04  2.57291228E-01  8.45049962E-03  8.16280172E-17  2.55653966E-03
 -1.18546086E-01 -2.12724018E-01 -4.30477111E-02 -5.87407955E-02  9.99979343E-17
  9.52618756E-17  1.41229721E-02  1.81520370E-01  1.35446749E-01  1.82432645E-01
  1.32603040E-01 -1.98833020E-16  2.67090268E-16  4.31724872E-16  7.40522740E-14
  1.00997081E-15 -8.74418291E-17  7.60401862E-17  4.86286045E-15  1.06461818E-16
 -5.34701429E-17 -1.89098017E-16 -2.98098296E-14 -4.17536011E-16 -1.90162580E-16
 -1.24458310E-17 -6.00339676E-17  7.24046712E-01  6.89750940E-01 -5.35918525E-14
  2.95492664E-15 -1.03020238E-14 -3.02710228E-15  1.06433383E-14 -6.54397680E-20
  6.84168938E-18 -1.47647989E-15 -4.21794007E-17  2.69012654E-18 -5.18916547E-18
  2.82941639E-16  1.16538636E-16 -1.16045312E-17 -1.13874815E-16  5.73109783E-16
 -1.47093959E-16  6.38119739E-17  1.25682683E-17 -1.10719973E-16  1.54154530E-16
 -6.89750940E-01  7.24046712E-01  2.73841713E-17  2.15966501E-17  8.98926451E-17
 -3.43044372E-17  4.12899838E-17  5.00993330E-04 -3.16640962E-04 -4.25226654E-16
  7.65644902E-01  1.23440849E-02 -1.21187284E-03  5.65771038E-16  4.98603643E-02
  8.49304974E-04  6.68804407E-05  7.19079227E-16 -3.07527774E-01 -4.99295191E-03
 -6.75711967E-04 -1.15283715E-03 -1.09991397E-03 -7.11043774E-14 -6.77364065E-14
 -5.53220143E-01  2.88541910E-02 -1.05262188E-01 -3.09266206E-02  1.09862642E-01
  5.94508711E-16 -6.52220818E-16  9.24028522E-01  4.30720508E-16 -5.11897986E-16
  1.25056777E-17 -6.28310319E-02  2.16403498E-16  1.09829655E-17  1.34096195E-16
 -4.47479206E-01 -2.60567307E-16 -4.83296264E-17  8.46408492E-17 -3.01771089E-16
  6.17083144E-16 -1.42407237E-15  8.30164998E-16 -3.94657168E-16 -2.35972222E-17
 -1.72654149E-16 -1.93166631E-16  2.10077839E-16 -3.30003236E-01  3.07214923E-01
  4.43547842E-16 -8.04436348E-03  4.08773610E-01  1.09929292E-01  1.52887673E-16
  4.98088920E-03 -2.62578865E-01 -9.43072602E-02 -9.01868325E-17  3.16823537E-03
 -3.63504191E-01  6.41342048E-01 -2.79111758E-01 -1.93975537E-01  5.01598614E-17
  4.77840234E-17  3.82616745E-06 -3.03116170E-01 -4.96786098E-02 -2.96501720E-01
 -4.64507802E-02 -6.81553152E-01  7.99600438E-01  7.97701190E-16  1.19666591E-03
 -2.71115309E-02  1.33255823E-05  2.79498709E-16 -1.05574192E-03  2.04213882E-02
 -6.30811429E-02  4.64947234E-17 -4.78052467E-05  4.01490813E-02 -5.25830892E-01
  1.53866734E-01  9.10028641E-02 -2.45876844E-16 -2.34230814E-16 -1.08843574E-03
  8.46327239E-02 -3.06697579E-02  8.42398193E-02 -3.19191344E-02  4.33372753E-06
 -5.11111534E-06 -7.06626567E-16 -1.46306055E-04  4.50122970E-06  1.66365336E-06
 -4.14007045E-17  1.44803996E-04 -4.57448715E-06 -2.51395453E-06  1.95071111E-16
  1.52558807E-04 -1.28358232E-06 -8.36958906E-02 -8.21135293E-01  9.04837873E-01
  2.62374252E-17 -8.51778951E-17 -2.72610221E-04 -1.84656023E-04 -2.07847147E-05
  1.82174325E-04  1.52002580E-05  1.62705858E-01 -2.12976494E-01  1.86195527E-16
 -3.05287088E-02  3.56090826E-01  2.80711859E-01 -1.76731722E-16  4.36632718E-02
 -5.34903477E-01 -3.51952842E-01  3.96672475E-16  2.24993730E-02 -2.19018102E-01
 -3.08555863E-01  6.15965569E-01  5.30386302E-01  2.14421213E-17  2.04301003E-17
 -4.67458466E-02 -2.60179725E-01 -3.27989403E-01 -1.75714455E-01 -3.08853293E-01
 -9.18483911E-03  1.04420155E-02 -6.54788091E-17 -4.14714926E-01 -2.51614859E-02
 -2.87621020E-02  3.80945290E-16  7.12971872E-01  4.64867892E-02  3.85348398E-02
 -1.74606107E-16  2.65739983E-01  1.35290227E-02  2.96972930E-03 -4.41812060E-02
 -4.05011146E-02 -1.87935758E-17 -1.75974663E-17 -6.55201156E-01 -6.16327157E-01
 -1.43806495E-01  6.26939147E-01  2.13705838E-01 -1.54094920E-02  1.03541361E-01
  3.32502711E-17  2.86028229E-03  1.72421976E-01  1.08337001E-01 -4.68158941E-16
 -8.15944483E-03 -4.65492786E-01 -2.63135189E-01 -3.15726309E-16  2.70925659E-02
  5.51807535E-01  4.86516562E-01 -1.14910075E-01 -5.93023772E-02 -1.84518441E-16
 -1.74291013E-16 -2.60557893E-02  7.53544243E-01 -4.65829531E-01  8.03612581E-01
 -4.77392311E-01  1.57837937E-04  1.57934127E-03 -4.15816076E-17 -3.79456645E-01
  4.46793565E-03  4.78474122E-03  7.97564156E-16  9.82996322E-01 -1.31248788E-02
 -8.88379387E-03 -2.17276537E-16 -8.24269578E-01  1.06800349E-02  9.02378271E-03
  1.39109842E-03  2.27904085E-03 -2.40087903E-16 -2.44159946E-16  2.42181309E-01
  5.29227678E-01 -4.42143540E-01 -4.85931607E-01  4.11395228E-01  8.87609699E-17
  1.86950115E-16 -4.64140920E-01  1.04924910E-16 -9.72115520E-16  7.44848008E-16
  1.27127079E+00 -5.77416942E-16  2.79462961E-15 -1.99143841E-15 -1.13693485E+00
  3.64144256E-16 -2.88722103E-15  6.34426520E-16  8.65828467E-16  6.94143940E-16
 -1.16459525E-16 -3.12483353E-16 -1.14337968E-16  6.82543417E-16 -7.46965075E-16
  8.46227263E-16 -1.25142055E-15  1.95202077E-02  5.22142243E-02  1.38182429E-15
 -2.04908137E-03 -3.74977063E-01  2.45862041E-01 -3.67311408E-15  5.34504521E-03
  1.04699839E+00 -8.09733425E-01  3.55046063E-15  4.35458397E-03 -9.38032312E-01
  3.59438070E-01  2.00249452E-01  2.14967573E-01  2.30394735E-17  2.12218791E-17
 -8.58078366E-03  2.93437152E-01 -2.29351259E-01  3.09553652E-01 -2.27702382E-01
 -3.86203117E-05 -3.01626915E-03 -1.23750463E-16  1.38833030E-01 -9.05550801E-04
 -2.69667237E-03  5.67398331E-17 -5.47430847E-01  4.06455095E-03  2.54749999E-02
 -6.13055322E-17  1.76283611E+00 -1.67229358E-02 -1.05078544E-02 -3.86817134E-03
 -4.53716409E-03  1.07212858E-16 -1.99033637E-16 -9.71081439E-02  5.71731423E-01
 -1.75879177E+00 -5.67676050E-01  1.73044753E+00 -1.79140042E-03 -2.00420514E-01
 -5.38201800E-16 -6.29491598E-04 -6.65267185E-02  5.29805567E-02 -1.70489909E-15
  1.84270146E-03  3.19594447E-01  3.76942369E+00  1.36470311E-15 -3.24145628E-02
 -2.06251939E+00 -7.39689498E-01 -4.35345797E-01 -4.63494756E-01 -4.14342001E-16
  3.57402741E-16  1.71336196E-03  2.93123916E-01 -2.20541117E+00  3.09682846E-01
 -2.28619555E+00  1.87599660E-01 -7.99183645E-01  6.87857306E-16 -2.50919100E-04
  3.02739668E-03  6.61688131E+00  2.34380934E-16  1.08965347E-03 -1.91162406E-02
 -9.02844847E-01 -5.13946466E-16  6.88270172E-04  2.03070362E-01 -2.57901979E+00
 -2.62120050E+00 -2.61729960E+00  1.87528155E-16  1.95026923E-16 -1.02414732E-03
  2.14604430E-03  2.10586161E-01  6.44874996E-03  2.10888737E-01
Total SCF Density                          R   N=         276
  2.15354534E+00 -5.99429058E-01  2.35055889E+00  1.74672389E-17 -4.36523277E-16
  2.10662642E+00  7.74644701E-06  1.27024375E-05  2.90404201E-16  2.04905006E+00
 -6.78064843E-03  3.09729102E-02 -7.03419595E-16  3.81188285E-04  2.06721377E+00
  2.66183809E-02 -3.81372282E-01  1.00687226E-14  1.51394794E-04 -7.91939291E-02
  1.14024714E+00 -2.62843990E-16  7.07474652E-16 -3.12846409E-01 -6.92815647E-16
  6.98293939E-16 -2.66468159E-16  9.71526460E-01  8.28788928E-06 -1.43569092E-04
 -1.41786983E-16 -1.55863992E-01 -8.29425133E-04 -4.94887870E-05  7.82085913E-16
  5.49444535E-01  1.78064895E-02 -8.16294477E-02  1.52363165E-15 -8.19291334E-04
 -2.03136786E-01  2.00942061E-01 -5.41236723E-16  1.79227948E-03  6.71572406E-01
  7.10759656E-02 -2.84803653E-01 -1.50099450E-14 -1.79244173E-03 -1.05481768E-01
  5.16081823E-01 -3.85968349E-15  4.34389773E-03  2.88292585E-01  3.00454724E-01
 -3.05685658E-16  4.51787813E-16 -2.47343502E-01  1.05223813E-15  4.04211470E-18
 -3.84139430E-17  6.06914912E-01 -8.51505611E-16  1.64838505E-16 -1.68661505E-15
  3.80484449E-01  2.16916016E-05 -1.16646331E-04  7.34799278E-16 -6.60271918E-02
  3.52099421E-04  1.46545722E-04  4.32262588E-16  1.17391848E-01 -9.57807973E-04
  5.85945194E-04 -5.73600946E-17  2.56186187E-02  9.04107364E-03 -4.62964354E-02
  6.54279144E-15  5.32721609E-04 -1.12831622E-01  1.22473510E-01  2.35474358E-15
 -1.34135980E-03  2.36526034E-01  1.22360624E-01  1.49267056E-15 -7.38844070E-04
  8.66011257E-02  2.41356399E-02 -2.38211194E-02 -1.26007748E-15 -1.32511859E-04
 -1.28787129E-02 -2.83414901E-02  7.22127080E-17  3.64224478E-04  3.58565312E-02
  1.63312736E-03  9.43994660E-17 -1.29201239E-05  1.08309378E-02  3.92112962E-03
  2.84721797E-02 -4.37847196E-02 -9.37902689E-16  7.79528648E-05  7.64873585E-03
  1.28201667E-02 -2.69691516E-16 -3.14098757E-04 -1.82171611E-02  1.60935921E-03
 -1.56172543E-16 -1.93454998E-05 -5.56720663E-03 -9.16532464E-04  1.68685244E-03
  2.63977531E-02 -3.41567942E-02 -1.88987828E-15 -1.20117868E-05  1.76116904E-02
 -9.55248840E-03  4.47286313E-16 -1.80742557E-05 -4.90209434E-02 -1.69312430E-02
  2.82132495E-16  9.88620419E-05 -1.70565443E-02 -2.11264932E-03  2.26730661E-03
  4.42248560E-03  2.44952949E-16  5.63125545E-16  1.67357871E-04 -3.40700031E-16
 -4.94575439E-16 -5.56289408E-16 -4.65153640E-04  2.43263803E-16 -1.39730621E-16
 -2.71956668E-16 -2.91037299E-04  5.62660182E-17 -6.47045919E-17  9.21205277E-18
 -9.10290694E-18  3.44373080E-18  2.22863151E-07  6.41245009E-16  1.22690403E-15
  1.14317358E-02 -2.94883405E-15  5.01141808E-17  9.04971658E-17 -3.32887773E-02
  4.39293293E-17  6.96867816E-16  3.17495726E-16 -2.08140102E-02  4.73705896E-17
  1.48969329E-16  2.60276058E-17 -2.58666675E-17 -7.95188370E-17  1.59444524E-05
  1.14087309E-03  1.87355169E-05 -8.10823063E-05  2.48201216E-16  3.36873734E-02
  2.61615490E-04  2.63351759E-04 -1.04578483E-16 -9.17973809E-02 -7.56929065E-04
 -7.66353426E-04  1.56467697E-16 -1.97367182E-02  8.28907482E-05 -9.88814776E-05
  7.21231061E-05  3.87815759E-05 -4.17809060E-17 -1.99287221E-17  1.53664873E-02
  1.10436361E-02 -4.75015806E-02 -9.93419384E-16 -1.04980130E-01  9.06891097E-02
  7.91195559E-02  1.99560470E-16  2.55851705E-01 -2.21899948E-01 -3.43386364E-02
 -6.47341464E-16  5.57178713E-02 -7.26157234E-02 -1.65927923E-02  8.93114132E-03
  1.74956733E-02  8.47256283E-17 -1.76220458E-16 -4.26650686E-02  2.13896411E-01
 -7.66736067E-03  2.95807656E-02  5.83535893E-15 -8.74552292E-02  8.09297987E-02
 -5.57100182E-02  2.92748145E-15  2.33504722E-01 -2.20006006E-01 -8.91768739E-02
  8.95610941E-16  5.06844992E-02 -7.81297781E-02 -1.21204040E-02  5.93307690E-03
  1.60669016E-02  1.43437867E-16 -2.54939664E-16 -3.89396637E-02  1.83815412E-01
  1.72261022E-01  1.13296084E-02 -4.87242552E-02 -2.14247174E-15  1.05605517E-01
  9.15737234E-02  8.18160070E-02 -6.42515720E-16 -2.56941347E-01 -2.23623380E-01
 -3.73465641E-02  1.47821402E-16 -5.49046650E-02 -7.12485833E-02 -1.70242638E-02
  9.27985648E-03  1.75370684E-02 -1.52456981E-16 -3.10299228E-16  4.32582053E-02
 -2.55605965E-02 -3.47636330E-02  2.15690633E-01 -7.77800775E-03  3.01908772E-02
  9.11463682E-15  8.76414374E-02  8.08412875E-02 -5.64634014E-02  2.73233297E-15
 -2.33483644E-01 -2.19441437E-01 -9.25617477E-02  1.85200378E-15 -4.97908602E-02
 -7.63133301E-02 -1.22713853E-02  6.11322582E-03  1.59167726E-02 -6.89700019E-17
 -3.67582380E-16  3.92421413E-02 -3.52219258E-02 -2.73550820E-02  1.83417007E-01
  1.70850016E-01
Grdnt Energy                               R     -3.993854329534115E+02
Grdnt NVar                                 I                0
Grdnt IGetFC                               I                4
Quartic Cent Dist                          R   N=          10
  9.05727121E-04  2.97033822E-03 -2.87394283E-03 -4.23680616E-04  4.95362403E-04
  1.44691256E-03  5.67626544E-03 -6.12105549E-03  4.23680616E-04  2.70592722E-04
Sextic Cent Dist                           R   N=          14
  4.92743957E-07 -1.13178818E-06 -2.86454737E-06  3.84885039E-06 -2.46173778E-07
 -1.10282152E-06  9.88078063E-07 -7.63756986E-07 -8.41631276E-06  1.55251918E-06
  7.97280936E-06  1.80114479E-07  6.28250471E-07 -4.26288257E-07
Mulliken Charges                           R   N=           3
 -2.35132624E-01  1.17074052E-01  1.18058571E-01
APT Charges                                R   N=           3
 -5.70608099E-02  2.79446314E-02  2.91161785E-02
Optimization MaxStp                        I                2
Optimization MaxJob                        I                1
Optimization Job offset                    I                0
Optimization Num results per geometry      I                8
Optimization Num geometry variables        I                9
Optimization Reference Energy              R     -3.990000000000000E+02
Optimization Number of geometries          I   N=           1
           1
Opt point       1 Results for each geome   R   N=           8
 -3.85432953E-01  0.00000000E+00  6.91862307E-06  2.89830950E-06  1.98563790E-05
  9.36450639E-06  0.00000000E+00  0.00000000E+00
Opt point       1 Geometries               R   N=           9
 -1.80681651E-33 -1.20454434E-33  1.95448494E-01  0.00000000E+00  1.84650620E+00
 -1.56358795E+00 -2.26131791E-16 -1.84650620E+00 -1.56358795E+00
Opt point       1 Gradient at each geome   R   N=           9
  7.18536947E-16 -1.01530957E-16 -6.91862307E-06  4.03147122E-18 -1.37854336E-06
  3.45931154E-06 -7.22568418E-16  1.37854336E-06  3.45931154E-06
ONIOM Charges                              I   N=          16
           0           0           0           0           0           0
           0           0           0           0           0           0
           0           0           0           0
ONIOM Multiplicities                       I   N=          16
           1           0           0           0           0           0
           0           0           0           0           0           0
           0           0           0           0
Atom Layers                                I   N=           3
           1           1           1
Atom Modifiers                             I   N=           3
           0           0           0
Int Atom Modified Types                    I   N=           3
           0           0           0
Atom Modified Types                        C   N=           3
                                    
Link Atoms                                 I   N=           3
           0           0           0
Atom Modified MM Charges                   R   N=           3
  0.00000000E+00  0.00000000E+00  0.00000000E+00
Link Distances                             R   N=          12
  0.00000000E+00  0.00000000E+00  0.00000000E+00  0.00000000E+00  0.00000000E+00
  0.00000000E+00  0.00000000E+00  0.00000000E+00  0.00000000E+00  0.00000000E+00
  0.00000000E+00  0.00000000E+00
Cartesian Gradient                         R   N=           9
  7.18536947E-16 -1.01530957E-16 -6.91862307E-06  4.03147122E-18 -1.37854336E-06
  3.45931154E-06 -7.22568418E-16  1.37854336E-06  3.45931154E-06
Cartesian Force Constants                  R   N=          45
 -2.09686011E-04 -6.09690299E-17  2.84171345E-01 -1.99210376E-16 -6.36479191E-16
  3.02182255E-01  1.04842992E-04  1.90192094E-17  7.49799549E-18 -1.00372621E-04
 -4.44079478E-17 -1.42085673E-01  1.04655993E-01 -2.93923648E-19  1.58447339E-01
  7.64978574E-17  1.35405713E-01 -1.51091127E-01  2.13793421E-18 -1.20030853E-01
  1.40015835E-01  1.04842992E-04  2.41439363E-16  2.79430339E-16 -4.47037095E-06
  1.10194419E-17 -4.35089697E-17 -1.00372621E-04  2.59508064E-16 -1.42085673E-01
 -1.04655993E-01  8.55311488E-18 -1.63616667E-02 -1.53748600E-02 -4.33868292E-16
  1.58447339E-01  2.11906516E-16 -1.35405713E-01 -1.51091127E-01  4.58509727E-17
  1.53748600E-02  1.10752928E-02 -3.80602269E-16  1.20030853E-01  1.40015835E-01
Cartesian 3rd/4th derivatives              R   N=         270
 -3.31048455E-02  1.38035912E-14  1.41555770E-01  3.47842220E-15 -3.50501808E-10
 -5.87666927E-02  1.65524217E-02 -4.69381467E-15  1.19151214E-14 -3.14578222E-04
 -3.35037055E-15 -7.07778869E-02  4.62927139E-03  4.80591626E-15  4.66447432E-02
  1.17188629E-14  7.05370959E-03  2.93833462E-02 -1.25842328E-14 -5.84149049E-03
 -3.96700783E-02  1.65524217E-02 -9.10977649E-15 -1.53935436E-14 -1.62378434E-02
 -1.45554571E-15  8.65369931E-16 -3.14578222E-04 -1.04532206E-14 -7.07778865E-02
 -4.62927104E-03 -1.12101596E-16  2.41331437E-02 -1.21221910E-03  1.05653222E-14
  4.66447428E-02 -1.51972851E-14 -7.05370924E-03  2.93833465E-02  6.69111377E-16
  1.21221910E-03  1.02867321E-02  1.45281737E-14  5.84149014E-03 -3.96700786E-02
 -1.46131297E-01  1.44781773E-14  5.11870451E-01  9.61021586E-15  1.38537053E-09
  4.77084436E-01  7.30656481E-02 -2.32691039E-15  6.87225293E-15 -7.48467924E-02
 -9.84446232E-16 -2.55935224E-01  2.88046827E-01  1.73843496E-15  2.72129441E-01
  4.53894442E-15  3.13554466E-01 -2.38542217E-01 -6.21205817E-15 -3.00800646E-01
  2.30120895E-01  7.30656481E-02 -1.21512669E-14 -1.64824688E-14  1.78114429E-03
 -7.53988729E-16  1.67311375E-15 -7.48467924E-02 -1.34937311E-14 -2.55935226E-01
 -2.88046828E-01  5.88475424E-16 -1.61942170E-02 -1.27538196E-02  1.29052557E-14
  2.72129443E-01 -1.41491603E-14 -3.13554467E-01 -2.38542218E-01 -6.60194756E-16
  1.27538196E-02  8.42132217E-03  1.48093550E-14  3.00800648E-01  2.30120896E-01
 -7.42840973E-11  4.98300767E-15  1.76457631E-09 -1.17429334E-14 -6.21803142E-01
 -1.49959406E-09  7.59958291E-02 -6.71327869E-15  1.00583231E-14 -7.59958291E-02
 -8.00869758E-15 -2.56872954E-01  3.10901571E-01  7.57430177E-15  2.56872954E-01
  6.92782145E-15  3.10901571E-01 -2.36914331E-01 -7.63267630E-15 -3.06796305E-01
  2.36914331E-01 -7.59958291E-02  1.73027102E-15  1.68461025E-15 -1.38614396E-14
  4.34395809E-16  7.04854854E-16  7.59958291E-02  3.02568990E-15  2.56872953E-01
  3.10901571E-01 -8.61023078E-16 -3.30838598E-13 -4.10526632E-03 -2.16466682E-15
 -2.56872953E-01  4.81511194E-15  3.10901571E-01  2.36914330E-01 -2.42564684E-15
 -4.10526631E-03 -4.19515092E-13 -2.38946510E-15 -3.06796304E-01 -2.36914330E-01
  9.24295418E-03  4.46960988E-13 -1.39401934E-01  3.05410806E-12  3.52725220E-08
 -1.82245592E-01 -4.62133158E-03  1.28884544E-12 -1.88584788E-12  2.65594649E-03
  1.27793706E-12  6.97009644E-02 -7.38011508E-02 -1.30023498E-12 -7.02807639E-02
 -1.71549450E-12 -1.19942006E-01  9.11228915E-02  1.71321402E-12  9.68715786E-02
 -8.61418059E-02 -4.62133185E-03 -2.85306166E-12 -1.65953079E-12  1.96538501E-03
  2.10938730E-13 -1.94449761E-13  2.65594678E-03 -2.58812005E-12  6.97009252E-02
  7.38011155E-02 -1.41385066E-13  5.79799510E-04  2.30704278E-02  3.65811953E-12
 -7.02807247E-02 -1.83815083E-12  1.19941971E-01  9.11228622E-02 -1.38124440E-13
 -2.30704279E-02 -4.98108557E-03  2.66427611E-12 -9.68715434E-02 -8.61417767E-02
 -3.63475316E-01  3.73672301E-12  8.29855672E-01  2.23059617E-12  3.24329862E-08
  7.23760683E-01  1.81737783E-01 -8.27109190E-13  1.04861985E-12 -1.85840219E-01
 -5.48299894E-13 -4.14927769E-01  5.50446689E-01  7.27128824E-13  4.24065691E-01
  7.72002870E-13  5.74738339E-01 -3.61880295E-01 -9.97004571E-13 -5.62592514E-01
  3.55478712E-01  1.81737783E-01 -4.02686905E-12 -3.77048662E-12  4.10243577E-03
  9.81188788E-15  2.82714615E-14 -1.85840219E-01 -4.05164512E-12 -4.14927842E-01
 -5.50446722E-01 -5.27942369E-14 -9.13792193E-03 -1.21458251E-02  5.03305376E-12
  4.24065764E-01 -3.50213631E-12 -5.74738372E-01 -3.61880305E-01 -3.62373579E-13
  1.21458250E-02  6.40158362E-03  4.55251073E-12  5.62592547E-01  3.55478721E-01
 -3.76214783E-01  3.58066523E-12  8.14206687E-01  4.53865492E-12 -3.99159193E-08
  7.52735800E-01  1.88107367E-01  2.07328123E-13 -4.40057765E-13 -1.86641346E-01
  6.77568598E-13 -4.07103519E-01  5.78670183E-01 -4.77935837E-13  3.97809349E-01
 -6.91047258E-13  5.84249163E-01 -3.76368062E-01  3.87209021E-13 -5.81459673E-01
  3.82795213E-01  1.88107367E-01 -4.90524858E-12 -4.58986776E-12 -1.46602071E-03
 -1.09919431E-14  1.07107998E-13 -1.86641347E-01 -5.12145582E-12 -4.07103463E-01
 -5.78670144E-01  1.17833111E-13  9.29417001E-03 -2.78948982E-03  5.93223712E-12
  3.97809293E-01 -4.34714492E-12 -5.84249123E-01 -3.76368007E-01 -2.57909560E-13
  2.78948982E-03 -6.42715061E-03  5.29305533E-12  5.81459633E-01  3.82795158E-01
Dipole Moment                              R   N=           3
 -2.33039705E-17 -1.97863084E-17 -5.61336246E-01
Dipole Derivatives                         R   N=          27
 -3.19140812E-01  4.40372843E-15  3.35637821E-15  1.20838972E-15 -2.38358877E-02
 -2.56806459E-15  1.10176047E-15 -4.40390388E-15  1.71860416E-01  1.59570406E-01
  1.31214812E-17  4.71462481E-17 -3.06384695E-18  1.19179439E-02  2.08081382E-02
  6.79761254E-17  1.40632809E-01 -8.59302081E-02  1.59570406E-01 -2.60519819E-15
 -2.01470764E-15 -5.57222208E-16  1.19179439E-02 -2.08081382E-02 -5.97897125E-16
 -1.40632809E-01 -8.59302081E-02
Polarizability                             R   N=           6
  1.09582632E+01  4.81371574E-17  1.74461242E+01 -6.00731607E-17  1.11071013E-14
  1.55257033E+01
Quadrupole Moment                          R   N=           6
 -1.84163120E+00  1.42416241E+00  4.17468782E-01  4.58273916E-17  3.80080484E-17
  1.57654078E-16
NDeriv for static properties               I                3
ND12 for static properties                 I               -2
Dipole Moment num derivs                   R   N=          18
 -2.12203562E-17  1.31263933E-15 -7.10669805E-02 -5.54606966E-16  7.30742482E-14
 -1.06704558E-01  6.27216690E-16  1.21729490E-01  6.38822339E-14  3.65168147E-15
  4.16667995E-13  1.89570711E-02  3.43547627E-14 -1.63310340E-11  9.08735966E-02
 -3.14533536E-14  4.34113490E-11  2.79495679E-02
Dipole Derivatives num derivs              R   N=         162
 -1.36496927E-01  1.27524745E-13 -1.64036348E-14 -9.22430712E-14 -9.06514716E-02
 -1.96845712E-11 -4.50396823E-14 -1.88110417E-11  7.38401865E-02  6.82484636E-02
 -7.20218673E-14  5.35436515E-14  2.51132081E-14  4.53257358E-02  6.03397558E-02
  2.36168593E-14 -5.73190725E-02 -3.69200932E-02  6.82484636E-02 -5.55028781E-14
 -3.71400166E-14  6.71298630E-14  4.53257358E-02 -6.03397557E-02  2.14228230E-14
  5.73190725E-02 -3.69200932E-02 -1.50757143E-01  4.07320542E-14 -5.96194557E-14
 -7.85692062E-14 -1.53235538E-01  1.74312682E-11 -3.23628318E-14  1.58735854E-11
  1.36871314E-02  7.53785716E-02 -4.18780378E-14  5.66145134E-14  2.15017167E-14
  7.66177689E-02 -9.49820436E-02 -4.98839054E-15 -1.71268188E-03 -6.84356567E-03
  7.53785716E-02  1.14598355E-15  3.00494222E-15  5.70674895E-14  7.66177689E-02
  9.49820436E-02  3.73512224E-14  1.71268186E-03 -6.84356569E-03  9.89945459E-13
 -8.42408777E-14  1.07991534E-14 -2.87581323E-14  4.35634753E-11  1.51932906E-02
 -1.19075672E-14  1.82159894E-01  3.42809006E-11  7.90801176E-02  5.51001714E-14
 -3.43385888E-14  1.94906105E-14 -6.84585368E-03 -7.59664530E-03 -1.09069910E-14
 -9.10799469E-02  2.07591401E-02 -7.90801176E-02  2.91407063E-14  2.35394354E-14
  9.26752180E-15  6.84585364E-03 -7.59664534E-03  2.28145582E-14 -9.10799469E-02
 -2.07591401E-02 -7.02806333E-02 -6.04784356E-12  2.72889882E-12  8.74057763E-12
 -2.79371208E-02  1.97115720E-09  1.00439422E-12  1.89216418E-09 -1.66311383E-01
  3.51403167E-02  4.31153133E-12 -2.40540485E-12 -3.17180226E-12  1.39685613E-02
  9.47100202E-02  5.82086299E-13  3.90065809E-02  8.31556922E-02  3.51403167E-02
 -8.40997079E-12 -8.10166033E-12 -9.19852556E-12  1.39685596E-02 -9.47100221E-02
 -4.78910774E-12 -3.90065829E-02  8.31556903E-02 -3.26910141E-02  2.43931832E-12
 -3.37128079E-12 -7.62875300E-12 -1.62121772E-01  5.25373373E-09 -6.41550109E-12
  3.51047406E-09 -1.83197324E-01  1.63455069E-02 -9.08298757E-13  4.12092261E-12
 -5.25936342E-14  8.10608885E-02 -9.03307589E-02 -1.07456454E-13 -6.14759112E-02
  9.15986638E-02  1.63455072E-02 -1.16773026E-11 -8.52780818E-12  4.05159645E-12
  8.10608831E-02  9.03307536E-02  3.32033032E-12  6.14759077E-02  9.15986601E-02
 -6.90801047E-02 -5.05922911E-13 -6.44917086E-12 -6.55497908E-12 -1.74501784E-01
 -1.86562928E-09 -8.27129045E-13 -2.23182087E-09 -1.26875776E-01  3.45400524E-02
 -2.06433151E-12  4.30402837E-12  1.55939688E-12  8.72508913E-02 -4.57340751E-02
 -2.92829342E-12 -1.46703532E-01  6.34378869E-02  3.45400524E-02 -7.57602860E-12
 -5.63302387E-12  1.36583201E-12  8.72508930E-02  4.57340770E-02  5.52795242E-13
  1.46703534E-01  6.34378891E-02
Polarizability num derivs                  R   N=          36
 -1.76427088E-01 -3.03095305E-14  4.45727404E+00  1.02288762E-13  1.80410092E-11
 -5.96080486E+00  2.49281637E+00  3.13973884E-13 -9.27828965E+00 -4.97686568E-13
 -1.19438227E-11 -8.10358962E+00 -3.35112694E-11  1.71266129E-13 -2.97042388E-11
 -9.92376346E-15  8.50680127E+00 -3.33702683E-11 -1.30609087E+00  2.05770691E-12
  1.35794764E+00  8.14716236E-12 -1.53591078E-09  3.81231499E+00  1.33318717E+00
 -7.33751325E-12  5.30549741E+00  4.97491474E-12 -1.89511059E-10  2.62055587E+00
  9.29931768E-01 -4.71575307E-12  2.99604402E+00  5.33400291E-13  4.20457005E-10
  3.29825409E+00
Quadrupole Moment num derivs               R   N=          36
 -5.66265683E-02  1.10039100E+00 -1.04376443E+00  2.11388314E-13 -3.10424120E-14
  1.09072454E-12  2.74106311E-01 -2.67163510E-02 -2.47389960E-01 -1.56975677E-13
  2.70789702E-14 -9.10501353E-13  1.41001134E-13  2.53802041E-12 -2.67902154E-12
 -1.29578669E-13  6.68092450E-14  3.43943880E-01 -5.82944299E-02 -1.37228584E-01
  1.95523014E-01 -4.67120945E-11  4.75619538E-12 -1.33260972E-10  5.64265848E-02
 -1.36585780E-01  8.01591951E-02  6.61051533E-13 -5.02067893E-12  3.91513104E-10
 -2.37705931E-02  2.25886857E-02  1.18190741E-03  6.49443298E-13 -5.20813207E-12
  1.87130261E-10
QEq coupling tensors                       R   N=          18
  2.61630981E+00 -3.94213166E-16 -2.04373946E+00 -3.62112549E-16 -1.36533599E-17
 -5.72570352E-01  1.31718859E-01 -5.99588598E-19 -7.85435123E-02  1.45945972E-19
  1.61010072E-01 -5.31753463E-02  1.31718859E-01 -3.28098545E-17 -7.85435123E-02
 -3.05663860E-17 -1.61010072E-01 -5.31753463E-02
NDeriv for magnetic props                  I                3
ND12 for magnetic props                    I               -2
QEq coupling tensors num derivs            R   N=         108
 -1.61079877E-01 -2.36874534E-12 -3.60004082E-01  9.69017007E-14  2.15707712E-12
  5.21083959E-01  5.65939029E-03  1.06096055E-14 -6.94059863E-02 -1.29761025E-14
  1.32352314E-03  6.37465960E-02  5.65939029E-03  4.18548933E-15 -6.94059863E-02
  7.34974337E-15 -1.32352314E-03  6.37465960E-02 -1.09629000E+00 -7.50596228E-13
  2.60452988E-01 -4.11354367E-14 -7.14713893E-11  8.35837016E-01  2.29888232E-01
 -8.13624179E-15 -1.35159441E-01  1.16089869E-14  3.11392425E-01 -9.47287903E-02
  2.29888232E-01  7.17490403E-15 -1.35159441E-01  3.49656412E-15 -3.11392425E-01
 -9.47287903E-02 -1.60506291E-11  2.38641834E-14  3.20895080E-11 -2.38611458E-13
 -1.60624553E+00  3.20865705E-11  2.30591305E-01  3.83570980E-15 -1.26729257E-01
 -2.65491440E-15  3.14105881E-01 -1.03862048E-01 -2.30591305E-01 -4.01461838E-15
  1.26729257E-01 -7.11570457E-15  3.14105881E-01  1.03862048E-01  2.05541070E-01
  8.10652011E-10  6.24712646E-01 -3.47158409E-11 -2.65581940E-10 -8.30253710E-01
 -6.35636497E-02 -7.33198974E-13  2.35523243E-02  1.06674963E-12 -1.07276745E-01
  4.00113255E-02 -6.35636497E-02 -9.41577361E-13  2.35523243E-02 -1.41558310E-12
  1.07276745E-01  4.00113254E-02 -4.05917269E-01 -3.24296862E-09  4.18891091E-01
  3.37829719E-12 -8.88226159E-09 -1.29738265E-02  4.18931041E-01  3.18922520E-13
 -2.40167878E-01 -1.42591986E-13  6.00092910E-01 -1.78763163E-01  4.18931041E-01
 -3.43366118E-13 -2.40167878E-01 -5.61459512E-13 -6.00092910E-01 -1.78763163E-01
 -4.36587764E-01  2.59243052E-12  1.31644497E-01  2.85839387E-11  1.20293550E-09
  3.04943251E-01  4.24661490E-01  5.55178335E-13 -2.29007015E-01 -3.90608889E-13
  6.02673702E-01 -1.95654474E-01  4.24661490E-01 -6.74882785E-13 -2.29007015E-01
 -7.37156784E-13 -6.02673702E-01 -1.95654474E-01
Number of Normal Modes                     I                3
Vib-LE2Fix                                 I               14
Vib-NDFDPol                                I                0
Vib-NumROA                                 I                0
Vib-NDim                                   I                3
Vib-NDim0                                  I                3
Vib-LFlags                                 I                8
Vib-IFlags                                 I   N=          24
           0           0           1           0           0           0
           0           0           0           0           2           0
           0           0           0           0           0           0
           3           0           0           0           0           0
Vib-AtMass                                 R   N=           3
  3.19720718E+01  1.00782504E+00  1.00782504E+00
Vib-E2                                     R   N=          42
  1.24981066E+03  2.68935736E+03  2.70969079E+03  1.03964058E+00  1.03561406E+00
  1.04005069E+00  9.56801560E-01  4.41311423E+00  4.49929199E+00  4.92364776E+00
  1.10998521E+01  1.44458417E+01  0.00000000E+00  0.00000000E+00  0.00000000E+00
  0.00000000E+00  0.00000000E+00  0.00000000E+00  0.00000000E+00  0.00000000E+00
  0.00000000E+00  0.00000000E+00  0.00000000E+00  0.00000000E+00  0.00000000E+00
  0.00000000E+00  0.00000000E+00  0.00000000E+00  0.00000000E+00  0.00000000E+00
  0.00000000E+00  0.00000000E+00  0.00000000E+00  0.00000000E+00  0.00000000E+00
  0.00000000E+00  0.00000000E+00  0.00000000E+00  0.00000000E+00  0.00000000E+00
  0.00000000E+00  0.00000000E+00
Vib-Modes                                  R   N=          27
 -2.06037466E-18  2.01052626E-16 -3.20545299E-02  6.27395626E-17  4.90885587E-01
  5.08446255E-01  2.62341626E-18 -4.90885587E-01  5.08446255E-01  1.92558701E-18
 -1.92097057E-14  2.99575546E-02  1.49402193E-18  5.23212423E-01 -4.75184209E-01
 -6.25810200E-17 -5.23212423E-01 -4.75184209E-01 -1.97538375E-18 -3.22604648E-02
 -1.81110705E-14 -5.17689969E-31  5.11712776E-01 -4.87472733E-01  6.26667414E-17
  5.11712776E-01  4.87472733E-01
Anharmonic Number of Normal Modes          I                9
Anharmonic Vib-LE2Fix                      I               14
Anharmonic Vib-NDFDPol                     I                0
Anharmonic Vib-NumROA                      I                0
Anharmonic Vib-NDim                        I                3
Anharmonic Vib-NDim0                       I                3
Anharmonic Vib-LFlags                      I                8
Anharmonic Vib-IFlags                      I   N=          72
           1           0           2           0           0           0
           0           0           1           0           1           0
           0           0           0           0           1           0
           3           0           0           0           0           0
           2           0           2           0           0           0
           0           0           3           0           2           1
           0           0           0           0           2           0
           1           0           0           0           0           0
           3           0           3           2           0           0
           0           0           3           0           3           1
           0           0           0           0           2           0
           3           0           0           0           0           0
Anharmonic Vib-AtMass                      R   N=           3
  3.19720718E+01  1.00782504E+00  1.00782504E+00
Anharmonic Vib-E2                          R   N=         126
  1.22255574E+03  2.57801571E+03  2.59429045E+03  2.43429613E+03  3.76953711E+03
  5.05624026E+03  3.79609504E+03  5.06190199E+03  5.16956752E+03  0.00000000E+00
  0.00000000E+00  0.00000000E+00  0.00000000E+00  0.00000000E+00  0.00000000E+00
  0.00000000E+00  0.00000000E+00  0.00000000E+00  0.00000000E+00  0.00000000E+00
  0.00000000E+00  0.00000000E+00  0.00000000E+00  0.00000000E+00  0.00000000E+00
  0.00000000E+00  0.00000000E+00  3.82464546E+00  1.11263149E+01  1.49124927E+01
  3.04121008E-01  6.05224748E-01  2.19700999E-03  5.76869961E-01  1.90672084E-06
  4.76500034E-02  0.00000000E+00  0.00000000E+00  0.00000000E+00  0.00000000E+00
  0.00000000E+00  0.00000000E+00  0.00000000E+00  0.00000000E+00  0.00000000E+00
  0.00000000E+00  0.00000000E+00  0.00000000E+00  0.00000000E+00  0.00000000E+00
  0.00000000E+00  0.00000000E+00  0.00000000E+00  0.00000000E+00  0.00000000E+00
  0.00000000E+00  0.00000000E+00  0.00000000E+00  0.00000000E+00  0.00000000E+00
  0.00000000E+00  0.00000000E+00  0.00000000E+00  1.24804406E+01  1.72176229E+01
  2.29318477E+01  4.98402734E-01  6.40524961E-01  1.73345165E-03  6.06245114E-01
  1.50272941E-06  3.67719049E-02  0.00000000E+00  0.00000000E+00  0.00000000E+00
  0.00000000E+00  0.00000000E+00  0.00000000E+00  0.00000000E+00  0.00000000E+00
  0.00000000E+00  0.00000000E+00  0.00000000E+00  0.00000000E+00  0.00000000E+00
  0.00000000E+00  0.00000000E+00  0.00000000E+00  0.00000000E+00  0.00000000E+00
  0.00000000E+00  0.00000000E+00  0.00000000E+00  0.00000000E+00  0.00000000E+00
  0.00000000E+00  0.00000000E+00  0.00000000E+00  0.00000000E+00  0.00000000E+00
  0.00000000E+00  0.00000000E+00  0.00000000E+00  0.00000000E+00  0.00000000E+00
  0.00000000E+00  0.00000000E+00  0.00000000E+00  0.00000000E+00  0.00000000E+00
  0.00000000E+00  0.00000000E+00  0.00000000E+00  0.00000000E+00  0.00000000E+00
  0.00000000E+00  0.00000000E+00  0.00000000E+00  0.00000000E+00  0.00000000E+00
  0.00000000E+00  0.00000000E+00  0.00000000E+00  0.00000000E+00  0.00000000E+00
  0.00000000E+00
Anharmonic Vib-Modes                       R   N=          81
 -5.69554784E-18  2.04998575E-16 -3.14635225E-02 -2.66461380E-17  4.80981377E-01
  4.99071746E-01  2.07330739E-16 -4.80981377E-01  4.99071746E-01 -2.85529001E-18
  1.83719391E-14 -1.57732819E-02  2.16038111E-16 -7.02005128E-01  2.50194469E-01
 -1.25457371E-16  7.02005128E-01  2.50194469E-01 -7.69410394E-18  3.16332174E-02
  1.77482494E-14  2.08570147E-16 -5.01763432E-01  4.77994693E-01  3.55163107E-17
 -5.01763432E-01 -4.77994693E-01 -1.21686622E-17  4.31681463E-15 -6.72225023E-02
 -8.22561952E-18  8.27385823E-01  1.06627767E+00  3.94262211E-16 -8.27385823E-01
  1.06627767E+00 -1.09316442E-17  1.90535998E-14 -6.03889288E-02  1.83162780E-16
 -4.01513613E-02  9.57884106E-01  1.63630860E-16  4.01513613E-02  9.57884106E-01
 -1.76710026E-17  3.46331625E-02 -5.10838140E-02  5.91337172E-16 -1.43867001E+00
  1.33361261E+00 -3.07452622E-17  3.39973396E-01  2.86961703E-01 -1.35472477E-17
  3.23005285E-02 -3.14374854E-02  1.86138484E-16 -3.09121449E-02  9.86736864E-01
  2.43632120E-16 -9.93784383E-01  1.05806291E-02 -1.42057738E-17  3.64961099E-02
 -2.94379383E-02  4.50212164E-16 -1.09303548E+00  1.01841768E+00  4.49413168E-19
 -6.47609628E-02 -8.45334785E-02 -7.54112572E-18  5.29451209E-02  2.94808502E-02
  1.38319704E-16 -3.21291671E-01  3.32406094E-01  1.00913699E-16 -1.35833043E+00
 -1.26765162E+00
Anharmonic number of displacements         I                3
Anharmonic displacement N1                 I                0
Anharmonic displacement flags              I   N=           3
           1           2           3
Anharmonic displacements                   R   N=          27
 -2.02071278E-18  1.97182396E-16 -3.14374854E-02  6.15318362E-17  4.81436119E-01
  4.98658747E-01  2.57291593E-18 -4.81436119E-01  4.98658747E-01 -1.89218754E-18
  1.88765118E-14 -2.94379383E-02 -1.46810799E-18 -5.14137260E-01  4.66942099E-01
  6.14955470E-17  5.14137260E-01  4.66942099E-01  1.93697592E-18  3.16332174E-02
  1.77589330E-14  5.17689969E-31 -5.01763432E-01  4.77994693E-01 -6.14482980E-17
 -5.01763432E-01 -4.77994693E-01
ClPar MaxAn                                I              200
ClPar NIntPar                              I               12
ClPar NRealPar                             I               16
ClPar NBits                                I               30
ClPar LenBitVec                            I                1
ClPar Read BitMap                          I   N=         200
           0           0           0           0           0           0
           0           0           0           0           0           0
           0           0           0           0           0           0
           0           0           0           0           0           0
           0           0           0           0           0           0
           0           0           0           0           0           0
           0           0           0           0           0           0
           0           0           0           0           0           0
           0           0           0           0           0           0
           0           0           0           0           0           0
           0           0           0           0           0           0
           0           0           0           0           0           0
           0           0           0           0           0           0
           0           0           0           0           0           0
           0           0           0           0           0           0
           0           0           0           0           0           0
           0           0           0           0           0           0
           0           0           0           0           0           0
           0           0           0           0           0           0
           0           0           0           0           0           0
           0           0           0           0           0           0
           0           0           0           0           0           0
           0           0           0           0           0           0
           0           0           0           0           0           0
           0           0           0           0           0           0
           0           0           0           0           0           0
           0           0           0           0           0           0
           0           0           0           0           0           0
           0           0           0           0           0           0
           0           0           0           0           0           0
           0           0           0           0           0           0
           0           0           0           0           0           0
           0           0           0           0           0           0
           0           0
ClPar Default BitMap                       I   N=         200
      516096      516096      516096      516096      516096      516096
      516096      516096      516096      516096      516096      516096
      516096      516096      516096      516096      516096      516096
      516096      516096      516096      516096      516096      516096
      516096      516096      516096      516096      516096      516096
      516096      516096      516096      516096      516096      516096
      516096      516096      516096      516096      516096      516096
      516096      516096      516096      516096      516096      516096
      516096      516096      516096      516096      516096      516096
      516096      516096      516096      516096      516096      516096
      516096      516096      516096      516096      516096      516096
      516096      516096      516096      516096      516096      516096
      516096      516096      516096      516096      516096      516096
      516096      516096      516096      516096      516096      516096
      516096      516096      122880      122880      122880      122880
      122880      122880      122880      122880      122880      122880
      122880      122880      122880      122880      122880      122880
      122880      122880      122880      122880      122880      122880
      122880      122880      122880      122880      122880      122880
      122880      122880      122880      122880      122880      122880
      122880      122880      122880      122880      122880      122880
      122880      122880      122880      122880      122880      122880
      122880      122880      122880      122880      122880      122880
      122880      122880      122880      122880      122880      122880
      122880      122880      122880      122880      122880      122880
      122880      122880      122880      122880      122880      122880
      122880      122880      122880      122880      122880      122880
      122880      122880      122880      122880      122880      122880
      122880      122880      122880      122880      122880      122880
      122880      122880      122880      122880      122880      122880
      122880      122880      122880      122880      122880      122880
      122880      122880      122880      122880      122880      122880
      122880      122880      122880      122880      122880      122880
      122880      122880
ClPar Int Params                           I   N=        2400
           0           0           0           0           0           0
           0           0           0           0           0           0
           0           0           0           0           0           0
           0           0           0           0           0           0
           0           0           0           0           0           0
           0           0           0           0           0           0
           0           0           0           0           0           0
           0           0           0           0           0           0
           0           0           0           0           0           0
           0           0           0           0           0           0
           0           0           0           0           0           0
           0           0           0           0           0           0
           0           0           0           0           0           0
           0           0           0           0           0           0
           0           0           0           0           0           0
           0           0           0           0           0           0
           0           0           0           0           0           0
           0           0           0           0           0           0
           0           0           0           0           0           0
           0           0           0           0           0           0
           0           0           0           0           0           0
           0           0           0           0           0           0
           0           0           0           0           0           0
           0           0           0           0           0           0
           0           0           0           0           0           0
           0           0           0           0           0           0
           0           0           0           0           0           0
           0           0           0           0           0           0
           0           0           0           0           0           0
           0           0           0           0           0           0
           0           0           0           0           0           0
           0           0           0           0           0           0
           0           0           0           0           0           0
           0           0           0           0           0           0
           0           0           0           0           0           0
           0           0           0           0           0           0
           0           0           0           0           0           0
           0           0           0           0           0           0
           0           0           0           0           0           0
           0           0           0           0           0           0
           0           0           0           0           0           0
           0           0           0           0           0           0
           0           0           0           0           0           0
           0           0           0           0           0           0
           0           0           0           0           0           0
           0           0           0           0           0           0
           0           0           0           0           0           0
           0           0           0           0           0           0
           0           0           0           0           0           0
           0           0           0           0           0           0
           0           0           0           0           0           0
           0           0           0           0           0           0
           0           0           0           0           0           0
           0           0           0           0           0           0
           0           0           0           0           0           0
           0           0           0           0           0           0
           0           0           0           0           0           0
           0           0           0           0           0           0
           0           0           0           0           0           0
           0           0           0           0           0           0
           0           0           0           0           0           0
           0           0           0           0           0           0
           0           0           0           0           0           0
           0           0           0           0           0           0
           0           0           0           0           0           0
           0           0           0           0           0           0
           0           0           0           0           0           0
           0           0           0           0           0           0
           0           0           0           0           0           0
           0           0           0           0           0           0
           0           0           0           0           0           0
           0           0           0           0           0           0
           0           0           0           0           0           0
           0           0           0           0           0           0
           0           0           0           0           0           0
           0           0           0           0           0           0
           0           0           0           0           0           0
           0           0           0           0           0           0
           0           0           0           0           0           0
           0           0           0           0           0           0
           0           0           0           0           0           0
           0           0           0           0           0           0
           0           0           0           0           0           0
           0           0           0           0           0           0
           0           0           0           0           0           0
           0           0           0           0           0           0
           0           0           0           0           0           0
           0           0           0           0           0           0
           0           0           0           0           0           0
           0           0           0           0           0           0
           0           0           0           0           0           0
           0           0           0           0           0           0
           0           0           0           0           0           0
           0           0           0           0           0           0
           0           0           0           0           0           0
           0           0           0           0           0           0
           0           0           0           0           0           0
           0           0           0           0           0           0
           0           0           0           0           0           0
           0           0           0           0           0           0
           0           0           0           0           0           0
           0           0           0           0           0           0
           0           0           0           0           0           0
           0           0           0           0           0           0
           0           0           0           0           0           0
           0           0           0           0           0           0
           0           0           0           0           0           0
           0           0           0           0           0           0
           0           0           0           0           0           0
           0           0           0           0           0           0
           0           0           0           0           0           0
           0           0           0           0           0           0
           0           0           0           0           0           0
           0           0           0           0           0           0
           0           0           0           0           0           0
           0           0           0           0           0           0
           0           0           0           0           0           0
           0           0           0           0           0           0
           0           0           0           0           0           0
           0           0           0           0           0           0
           0           0           0           0           0           0
           0           0           0           0           0           0
           0           0           0           0           0           0
           0           0           0           0           0           0
           0           0           0           0           0           0
           0           0           0           0           0           0
           0           0           0           0           0           0
           0           0           0           0           0           0
           0           0           0           0           0           0
           0           0           0           0           0           0
           0           0           0           0           0           0
           0           0           0           0           0           0
           0           0           0           0           0           0
           0           0           0           0           0           0
           0           0           0           0           0           0
           0           0           0           0           0           0
           0           0           0           0           0           0
           0           0           0           0           0           0
           0           0           0           0           0           0
           0           0           0           0           0           0
           0           0           0           0           0           0
           0           0           0           0           0           0
           0           0           0           0           0           0
           0           0           0           0           0           0
           0           0           0           0           0           0
           0           0           0           0           0           0
           0           0           0           0           0           0
           0           0           0           0           0           0
           0           0           0           0           0           0
           0           0           0           0           0           0
           0           0           0           0           0           0
           0           0           0           0           0           0
           0           0           0           0           0           0
           0           0           0           0           0           0
           0           0           0           0           0           0
           0           0           0           0           0           0
           0           0           0           0           0           0
           0           0           0           0           0           0
           0           0           0           0           0           0
           0           0           0           0           0           0
           0           0           0           0           0           0
           0           0           0           0           0           0
           0           0           0           0           0           0
           0           0           0           0           0           0
           0           0           0           0           0           0
           0           0           0           0           0           0
           0           0           0           0           0           0
           0           0           0           0           0           0
           0           0           0           0           0           0
           0           0           0           0           0           0
           0           0           0           0           0           0
           0           0           0           0           0           0
           0           0           0           0           0           0
           0           0           0           0           0           0
           0           0           0           0           0           0
           0           0           0           0           0           0
           0           0           0           0           0           0
           0           0           0           0           0           0
           0           0           0           0           0           0
           0           0           0           0           0           0
           0           0           0           0           0           0
           0           0           0           0           0           0
           0           0           0           0           0           0
           0           0           0           0           0           0
           0           0           0           0           0           0
           0           0           0           0           0           0
           0           0           0           0           0           0
           0           0           0           0           0           0
           0           0           0           0           0           0
           0           0           0           0           0           0
           0           0           0           0           0           0
           0           0           0           0           0           0
           0           0           0           0           0           0
           0           0           0           0           0           0
           0           0           0           0           0           0
           0           0           0           0           0           0
           0           0           0           0           0           0
           0           0           0           0           0           0
           0           0           0           0           0           0
           0           0           0           0           0           0
           0           0           0           0           0           0
           0           0           0           0           0           0
           0           0           0           0           0           0
           0           0           0           0           0           0
           0           0           0           0           0           0
           0           0           0           0           0           0
           0           0           0           0           0           0
           0           0           0           0           0           0
           0           0           0           0           0           0
           0           0           0           0           0           0
           0           0           0           0           0           0
           0           0           0           0           0           0
           0           0           0           0           0           0
           0           0           0           0           0           0
           0           0           0           0           0           0
           0           0           0           0           0           0
           0           0           0           0           0           0
           0           0           0           0           0           0
           0           0           0           0           0           0
           0           0           0           0           0           0
           0           0           0           0           0           0
           0           0           0           0           0           0
           0           0           0           0           0           0
           0           0           0           0           0           0
           0           0           0           0           0           0
           0           0           0           0           0           0
           0           0           0           0           0           0
           0           0           0           0           0           0
           0           0           0           0           0           0
           0           0           0           0           0           0
           0           0           0           0           0           0
           0           0           0           0           0           0
           0           0           0           0           0           0
           0           0           0           0           0           0
           0           0           0           0           0           0
           0           0           0           0           0           0
           0           0           0           0           0           0
           0           0           0           0           0           0
           0           0           0           0           0           0
           0           0           0           0           0           0
           0           0           0           0           0           0
           0           0           0           0           0           0
           0           0           0           0           0           0
           0           0           0           0           0           0
           0           0           0           0           0           0
           0           0           0           0           0           0
           0           0           0           0           0           0
           0           0           0           0           0           0
           0           0           0           0           0           0
           0           0           0           0           0           0
           0           0           0           0           0           0
           0           0           0           0           0           0
           0           0           0           0           0           0
           0           0           0           0           0           0
           0           0           0           0           0           0
           0           0           0           0           0           0
           0           0           0           0           0           0
           0           0           0           0           0           0
           0           0           0           0           0           0
           0           0           0           0           0           0
           0           0           0           0           0           0
           0           0           0           0           0           0
           0           0           0           0           0           0
           0           0           0           0           0           0
           0           0           0           0           0           0
           0           0           0           0           0           0
           0           0           0           0           0           0
           0           0           0           0           0           0
           0           0           0           0           0           0
           0           0           0           0           0           0
           0           0           0           0           0           0
           0           0           0           0           0           0
           0           0           0           0           0           0
           0           0           0           0           0           0
           0           0           0           0           0           0
           0           0           0           0           0           0
           0           0           0           0           0           0
           0           0           0           0           0           0
           0           0           0           0           0           0
           0           0           0           0           0           0
           0           0           0           0           0           0
           0           0           0           0           0           0
           0           0           0           0           0           0
           0           0           0           0           0           0
           0           0           0           0           0           0
           0           0           0           0           0           0
           0           0           0           0           0           0
           0           0           0           0           0           0
           0           0           0           0           0           0
           0           0           0           0           0           0
           0           0           0           0           0           0
           0           0           0           0           0           0
           0           0           0           0           0           0
           0           0           0           0           0           0
           0           0           0           0           0           0
           0           0           0           0           0           0
           0           0           0           0           0           0
           0           0           0           0           0           0
           0           0           0           0           0           0
           0           0           0           0           0           0
           0           0           0           0           0           0
           0           0           0           0           0           0
           0           0           0           0           0           0
           0           0           0           0           0           0
           0           0           0           0           0           0
           0           0           0           0           0           0
           0           0           0           0           0           0
           0           0           0           0           0           0
           0           0           0           0           0           0
           0           0           0           0           0           0
           0           0           0           0           0           0
           0           0           0           0           0           0
           0           0           0           0           0           0
           0           0           0           0           0           0
           0           0           0           0           0           0
           0           0           0           0           0           0
           0           0           0           0           0           0
           0           0           0           0           0           0
           0           0           0           0           0           0
           0           0           0           0           0           0
           0           0           0           0           0           0
           0           0           0           0           0           0
           0           0           0           0           0           0
           0           0           0           0           0           0
           0           0           0           0           0           0
           0           0           0           0           0           0
           0           0           0           0           0           0
           0           0           0           0           0           0
           0           0           0           0           0           0
           0           0           0           0           0           0
           0           0           0           0           0           0
           0           0           0           0           0           0
           0           0           0           0           0           0
           0           0           0           0           0           0
           0           0           0           0           0           0
           0           0           0           0           0           0
           0           0           0           0           0           0
           0           0           0           0           0           0
           0           0           0           0           0           0
           0           0           0           0           0           0
           0           0           0           0           0           0
           0           0           0           0           0           0
           0           0           0           0           0           0
           0           0           0           0           0           0
           0           0           0           0           0           0
           0           0           0           0           0           0
           0           0           0           0           0           0
           0           0           0           0           0           0
           0           0           0           0           0           0
           0           0           0           0           0           0
           0           0           0           0           0           0
           0           0           0           0           0           0
           0           0           0           0           0           0
           0           0           0           0           0           0
           0           0           0           0           0           0
           0           0           0           0           0           0
           0           0           0           0           0           0
           0           0           0           0           0           0
           0           0           0           0           0           0
           0           0           0           0           0           0
           0           0           0           0           0           0
           0           0           0           0           0           0
           0           0           0           0           0           0
           0           0           0           0           0           0
           0           0           0           0           0           0
           0           0           0           0           0           0
           0           0           0           0           0           0
           0           0           0           0           0           0
           0           0           0           0           0           0
           0           0           0           0           0           0
           0           0           0           0           0           0
           0           0           0           0           0           0
           0           0           0           0           0           0
           0           0           0           0           0           0
           0           0           0           0           0           0
           0           0           0           0           0           0
           0           0           0           0           0           0
           0           0           0           0           0           0
           0           0           0           0           0           0
           0           0           0           0           0           0
           0           0           0           0           0           0
           0           0           0           0           0           0
           0           0           0           0           0           0
           0           0           0           0           0           0
           0           0           0           0           0           0
           0           0           0           0           0           0
           0           0           0           0           0           0
           0           0           0           0           0           0
           0           0           0           0           0           0
           0           0           0           0           0           0
           0           0           0           0           0           0
           0           0           0           0           0           0
           0           0           0           0           0           0
           0           0           0           0           0           0
           0           0           0           0           0           0
           0           0           0           0           0           0
           0           0           0           0           0           0
           0           0           0           0           0           0
           0           0           0           0           0           0
           0           0           0           0           0           0
ClPar Real Params                          R   N=        3200
  0.00000000E+00  0.00000000E+00  0.00000000E+00  0.00000000E+00  0.00000000E+00
  0.00000000E+00  0.00000000E+00  0.00000000E+00  0.00000000E+00  0.00000000E+00
  0.00000000E+00  0.00000000E+00  0.00000000E+00  0.00000000E+00  0.00000000E+00
  0.00000000E+00  0.00000000E+00  0.00000000E+00  0.00000000E+00  0.00000000E+00
  0.00000000E+00  0.00000000E+00  0.00000000E+00  0.00000000E+00  0.00000000E+00
  0.00000000E+00  0.00000000E+00  0.00000000E+00  0.00000000E+00  0.00000000E+00
  0.00000000E+00  0.00000000E+00  0.00000000E+00  0.00000000E+00  0.00000000E+00
  0.00000000E+00  0.00000000E+00  0.00000000E+00  0.00000000E+00  0.00000000E+00
  0.00000000E+00  0.00000000E+00  0.00000000E+00  0.00000000E+00  0.00000000E+00
  0.00000000E+00  0.00000000E+00  0.00000000E+00  0.00000000E+00  0.00000000E+00
  0.00000000E+00  0.00000000E+00  0.00000000E+00  0.00000000E+00  0.00000000E+00
  0.00000000E+00  0.00000000E+00  0.00000000E+00  0.00000000E+00  0.00000000E+00
  0.00000000E+00  0.00000000E+00  0.00000000E+00  0.00000000E+00  0.00000000E+00
  0.00000000E+00  0.00000000E+00  0.00000000E+00  0.00000000E+00  0.00000000E+00
  0.00000000E+00  0.00000000E+00  0.00000000E+00  0.00000000E+00  0.00000000E+00
  0.00000000E+00  0.00000000E+00  0.00000000E+00  0.00000000E+00  0.00000000E+00
  0.00000000E+00  0.00000000E+00  0.00000000E+00  0.00000000E+00  0.00000000E+00
  0.00000000E+00  0.00000000E+00  0.00000000E+00  0.00000000E+00  0.00000000E+00
  0.00000000E+00  0.00000000E+00  0.00000000E+00  0.00000000E+00  0.00000000E+00
  0.00000000E+00  0.00000000E+00  0.00000000E+00  0.00000000E+00  0.00000000E+00
  0.00000000E+00  0.00000000E+00  0.00000000E+00  0.00000000E+00  0.00000000E+00
  0.00000000E+00  0.00000000E+00  0.00000000E+00  0.00000000E+00  0.00000000E+00
  0.00000000E+00  0.00000000E+00  0.00000000E+00  0.00000000E+00  0.00000000E+00
  0.00000000E+00  0.00000000E+00  0.00000000E+00  0.00000000E+00  0.00000000E+00
  0.00000000E+00  0.00000000E+00  0.00000000E+00  0.00000000E+00  0.00000000E+00
  0.00000000E+00  0.00000000E+00  0.00000000E+00  0.00000000E+00  0.00000000E+00
  0.00000000E+00  0.00000000E+00  0.00000000E+00  0.00000000E+00  0.00000000E+00
  0.00000000E+00  0.00000000E+00  0.00000000E+00  0.00000000E+00  0.00000000E+00
  0.00000000E+00  0.00000000E+00  0.00000000E+00  0.00000000E+00  0.00000000E+00
  0.00000000E+00  0.00000000E+00  0.00000000E+00  0.00000000E+00  0.00000000E+00
  0.00000000E+00  0.00000000E+00  0.00000000E+00  0.00000000E+00  0.00000000E+00
  0.00000000E+00  0.00000000E+00  0.00000000E+00  0.00000000E+00  0.00000000E+00
  0.00000000E+00  0.00000000E+00  0.00000000E+00  0.00000000E+00  0.00000000E+00
  0.00000000E+00  0.00000000E+00  0.00000000E+00  0.00000000E+00  0.00000000E+00
  0.00000000E+00  0.00000000E+00  0.00000000E+00  0.00000000E+00  0.00000000E+00
  0.00000000E+00  0.00000000E+00  0.00000000E+00  0.00000000E+00  0.00000000E+00
  0.00000000E+00  0.00000000E+00  0.00000000E+00  0.00000000E+00  0.00000000E+00
  0.00000000E+00  0.00000000E+00  0.00000000E+00  0.00000000E+00  0.00000000E+00
  0.00000000E+00  0.00000000E+00  0.00000000E+00  0.00000000E+00  0.00000000E+00
  0.00000000E+00  0.00000000E+00  0.00000000E+00  0.00000000E+00  0.00000000E+00
  2.26000000E-01  4.43000000E-01  1.01000000E-01  1.47000000E-01  1.92000000E-01
  2.40000000E-01  2.75000000E-01  3.03000000E-01  3.25000000E-01  4.13000000E-01
  9.60000000E-02  1.35000000E-01  1.73000000E-01  2.11000000E-01  2.48000000E-01
  2.86000000E-01  3.23000000E-01  3.60000000E-01  8.20000000E-02  1.04000000E-01
  1.17000000E-01  1.23000000E-01  1.29000000E-01  1.34000000E-01  1.40000000E-01
  1.44000000E-01  1.48000000E-01  1.52000000E-01  1.55000000E-01  1.76000000E-01
  1.98000000E-01  2.19000000E-01  2.39000000E-01  2.60000000E-01  2.80000000E-01
  3.00000000E-01  7.90000000E-02  9.90000000E-02  1.19000000E-01  1.26000000E-01
  1.33000000E-01  1.40000000E-01  1.47000000E-01  1.53000000E-01  1.58000000E-01
  1.63000000E-01  1.57000000E-01  1.70000000E-01  1.87000000E-01  2.03000000E-01
  2.19000000E-01  2.34000000E-01  2.50000000E-01  2.65000000E-01  7.40000000E-02
  9.20000000E-02  1.05000000E-01  1.06000000E-01  1.07000000E-01  1.08000000E-01
  1.09000000E-01  1.10000000E-01  1.11000000E-01  1.12000000E-01  1.13000000E-01
  1.14000000E-01  1.15000000E-01  1.16000000E-01  1.17000000E-01  1.17000000E-01
  1.26000000E-01  1.36000000E-01  1.46000000E-01  1.55000000E-01  1.65000000E-01
  1.73000000E-01  1.82000000E-01  1.90000000E-01  1.62000000E-01  1.78000000E-01
  1.10000000E-01  1.35000000E-01  1.59000000E-01  1.83000000E-01  2.07000000E-01
  2.31000000E-01  6.90000000E-02  9.40000000E-02  1.02000000E-01  1.03000000E-01
  1.05000000E-01  1.07000000E-01  1.09000000E-01  1.11000000E-01  1.13000000E-01
  1.15000000E-01  1.17000000E-01  1.19000000E-01  1.20000000E-01  1.22000000E-01
  1.24000000E-01  1.26000000E-01  1.28000000E-01  1.28000000E-01  1.28000000E-01
  1.28000000E-01  1.28000000E-01  1.28000000E-01  1.28000000E-01  1.28000000E-01
  1.28000000E-01  1.28000000E-01  1.28000000E-01  1.28000000E-01  1.28000000E-01
  1.28000000E-01  1.28000000E-01  1.28000000E-01  1.28000000E-01  1.28000000E-01
  1.28000000E-01  1.28000000E-01  1.28000000E-01  1.28000000E-01  1.28000000E-01
  1.28000000E-01  1.28000000E-01  1.28000000E-01  1.28000000E-01  1.28000000E-01
  1.28000000E-01  1.28000000E-01  1.28000000E-01  1.28000000E-01  1.28000000E-01
  1.28000000E-01  1.28000000E-01  1.28000000E-01  1.28000000E-01  1.28000000E-01
  1.28000000E-01  1.28000000E-01  1.28000000E-01  1.28000000E-01  1.28000000E-01
  1.28000000E-01  1.28000000E-01  1.28000000E-01  1.28000000E-01  1.28000000E-01
  1.28000000E-01  1.28000000E-01  1.28000000E-01  1.28000000E-01  1.28000000E-01
  1.28000000E-01  1.28000000E-01  1.28000000E-01  1.28000000E-01  1.28000000E-01
  1.28000000E-01  1.28000000E-01  1.28000000E-01  1.28000000E-01  1.28000000E-01
  1.28000000E-01  1.28000000E-01  1.28000000E-01  1.28000000E-01  1.28000000E-01
  1.28000000E-01  1.28000000E-01  1.28000000E-01  1.28000000E-01  1.28000000E-01
  1.28000000E-01  1.28000000E-01  1.28000000E-01  1.28000000E-01  1.28000000E-01
  1.28000000E-01  1.28000000E-01  1.28000000E-01  1.28000000E-01  1.28000000E-01
  1.28000000E-01  1.28000000E-01  1.28000000E-01  1.28000000E-01  1.28000000E-01
  1.28000000E-01  1.28000000E-01  1.28000000E-01  1.28000000E-01  1.28000000E-01
  1.28000000E-01  1.28000000E-01  1.28000000E-01  1.28000000E-01  1.28000000E-01
  5.47000000E-01  5.92000000E-01  5.99000000E-01  6.68000000E-01  6.98000000E-01
  7.18000000E-01  7.26000000E-01  7.36000000E-01  7.43000000E-01  7.45000000E-01
  6.07000000E-01  6.66000000E-01  6.93000000E-01  7.09000000E-01  7.20000000E-01
  7.29000000E-01  7.35000000E-01  7.40000000E-01  6.08000000E-01  7.34000000E-01
  7.46000000E-01  7.55000000E-01  7.61000000E-01  7.65000000E-01  7.67000000E-01
  7.60000000E-01  7.49000000E-01  7.33000000E-01  7.08000000E-01  6.48000000E-01
  6.88000000E-01  7.09000000E-01  7.22000000E-01  7.31000000E-01  7.38000000E-01
  7.44000000E-01  6.09000000E-01  7.30000000E-01  7.41000000E-01  7.52000000E-01
  7.58000000E-01  7.63000000E-01  7.66000000E-01  7.58000000E-01  7.48000000E-01
  7.33000000E-01  7.01000000E-01  6.45000000E-01  6.86000000E-01  7.08000000E-01
  7.22000000E-01  7.31000000E-01  7.38000000E-01  7.44000000E-01  6.08000000E-01
  7.28000000E-01  7.32000000E-01  7.32000000E-01  7.32000000E-01  7.32000000E-01
  7.32000000E-01  7.32000000E-01  7.32000000E-01  7.32000000E-01  7.32000000E-01
  7.31000000E-01  7.31000000E-01  7.31000000E-01  7.31000000E-01  7.46000000E-01
  7.37000000E-01  7.46000000E-01  7.51000000E-01  7.55000000E-01  7.58000000E-01
  7.47000000E-01  7.32000000E-01  7.11000000E-01  7.41000000E-01  7.07000000E-01
  7.47000000E-01  7.43000000E-01  7.42000000E-01  7.42000000E-01  7.43000000E-01
  7.44000000E-01  6.05000000E-01  7.24000000E-01  7.26000000E-01  7.26000000E-01
  7.27000000E-01  7.27000000E-01  7.27000000E-01  7.28000000E-01  7.28000000E-01
  7.28000000E-01  7.28000000E-01  7.28000000E-01  7.29000000E-01  7.29000000E-01
  7.29000000E-01  7.29000000E-01  7.29000000E-01  7.29000000E-01  7.29000000E-01
  7.29000000E-01  7.29000000E-01  7.29000000E-01  7.29000000E-01  7.29000000E-01
  7.29000000E-01  7.29000000E-01  7.29000000E-01  7.29000000E-01  7.29000000E-01
  7.29000000E-01  7.29000000E-01  7.29000000E-01  7.29000000E-01  7.29000000E-01
  7.29000000E-01  7.29000000E-01  7.29000000E-01  7.29000000E-01  7.29000000E-01
  7.29000000E-01  7.29000000E-01  7.29000000E-01  7.29000000E-01  7.29000000E-01
  7.29000000E-01  7.29000000E-01  7.29000000E-01  7.29000000E-01  7.29000000E-01
  7.29000000E-01  7.29000000E-01  7.29000000E-01  7.29000000E-01  7.29000000E-01
  7.29000000E-01  7.29000000E-01  7.29000000E-01  7.29000000E-01  7.29000000E-01
  7.29000000E-01  7.29000000E-01  7.29000000E-01  7.29000000E-01  7.29000000E-01
  7.29000000E-01  7.29000000E-01  7.29000000E-01  7.29000000E-01  7.29000000E-01
  7.29000000E-01  7.29000000E-01  7.29000000E-01  7.29000000E-01  7.29000000E-01
  7.29000000E-01  7.29000000E-01  7.29000000E-01  7.29000000E-01  7.29000000E-01
  7.29000000E-01  7.29000000E-01  7.29000000E-01  7.29000000E-01  7.29000000E-01
  7.29000000E-01  7.29000000E-01  7.29000000E-01  7.29000000E-01  7.29000000E-01
  7.29000000E-01  7.29000000E-01  7.29000000E-01  7.29000000E-01  7.29000000E-01
  7.29000000E-01  7.29000000E-01  7.29000000E-01  7.29000000E-01  7.29000000E-01
  7.29000000E-01  7.29000000E-01  7.29000000E-01  7.29000000E-01  7.29000000E-01
  7.29000000E-01  7.29000000E-01  7.29000000E-01  7.29000000E-01  7.29000000E-01
  7.29000000E-01  7.29000000E-01  7.29000000E-01  7.29000000E-01  7.29000000E-01
  1.00000000E+00  1.70400000E+00  3.23000000E-01  3.89000000E-01  4.67000000E-01
  5.67000000E-01  6.36000000E-01  6.64000000E-01  6.96000000E-01  8.79000000E-01
  3.07000000E-01  3.48000000E-01  4.00000000E-01  4.54000000E-01  5.09000000E-01
  5.65000000E-01  6.21000000E-01  6.77000000E-01  2.56000000E-01  3.50000000E-01
  3.64000000E-01  3.62000000E-01  3.62000000E-01  3.62000000E-01  3.62000000E-01
  3.65000000E-01  3.69000000E-01  3.75000000E-01  3.86000000E-01  4.46000000E-01
  4.55000000E-01  4.74000000E-01  4.96000000E-01  5.20000000E-01  5.45000000E-01
  5.70000000E-01  2.45000000E-01  3.22000000E-01  3.55000000E-01  3.59000000E-01
  3.64000000E-01  3.70000000E-01  3.76000000E-01  3.85000000E-01  3.95000000E-01
  4.08000000E-01  3.76000000E-01  4.23000000E-01  4.22000000E-01  4.32000000E-01
  4.45000000E-01  4.59000000E-01  4.75000000E-01  4.91000000E-01  2.28000000E-01
  2.92000000E-01  2.89000000E-01  2.92000000E-01  2.95000000E-01  2.98000000E-01
  3.00000000E-01  3.03000000E-01  3.06000000E-01  3.09000000E-01  3.12000000E-01
  3.15000000E-01  3.18000000E-01  3.21000000E-01  3.24000000E-01  3.61000000E-01
  3.69000000E-01  3.70000000E-01  3.72000000E-01  3.75000000E-01  3.78000000E-01
  3.85000000E-01  3.94000000E-01  4.07000000E-01  5.26000000E-01  6.21000000E-01
  3.36000000E-01  3.54000000E-01  3.71000000E-01  3.86000000E-01  4.02000000E-01
  4.17000000E-01  2.09000000E-01  2.94000000E-01  2.65000000E-01  2.72000000E-01
  2.78000000E-01  2.84000000E-01  2.91000000E-01  2.97000000E-01  3.03000000E-01
  3.10000000E-01  3.16000000E-01  3.22000000E-01  3.29000000E-01  3.35000000E-01
  3.41000000E-01  3.48000000E-01  3.54000000E-01  3.54000000E-01  3.54000000E-01
  3.54000000E-01  3.54000000E-01  3.54000000E-01  3.54000000E-01  3.54000000E-01
  3.54000000E-01  3.54000000E-01  3.54000000E-01  3.54000000E-01  3.54000000E-01
  3.54000000E-01  3.54000000E-01  3.54000000E-01  3.54000000E-01  3.54000000E-01
  3.54000000E-01  3.54000000E-01  3.54000000E-01  3.54000000E-01  3.54000000E-01
  3.54000000E-01  3.54000000E-01  3.54000000E-01  3.54000000E-01  3.54000000E-01
  3.54000000E-01  3.54000000E-01  3.54000000E-01  3.54000000E-01  3.54000000E-01
  3.54000000E-01  3.54000000E-01  3.54000000E-01  3.54000000E-01  3.54000000E-01
  3.54000000E-01  3.54000000E-01  3.54000000E-01  3.54000000E-01  3.54000000E-01
  3.54000000E-01  3.54000000E-01  3.54000000E-01  3.54000000E-01  3.54000000E-01
  3.54000000E-01  3.54000000E-01  3.54000000E-01  3.54000000E-01  3.54000000E-01
  3.54000000E-01  3.54000000E-01  3.54000000E-01  3.54000000E-01  3.54000000E-01
  3.54000000E-01  3.54000000E-01  3.54000000E-01  3.54000000E-01  3.54000000E-01
  3.54000000E-01  3.54000000E-01  3.54000000E-01  3.54000000E-01  3.54000000E-01
  3.54000000E-01  3.54000000E-01  3.54000000E-01  3.54000000E-01  3.54000000E-01
  3.54000000E-01  3.54000000E-01  3.54000000E-01  3.54000000E-01  3.54000000E-01
  3.54000000E-01  3.54000000E-01  3.54000000E-01  3.54000000E-01  3.54000000E-01
  3.54000000E-01  3.54000000E-01  3.54000000E-01  3.54000000E-01  3.54000000E-01
  3.54000000E-01  3.54000000E-01  3.54000000E-01  3.54000000E-01  3.54000000E-01
  3.54000000E-01  3.54000000E-01  3.54000000E-01  3.54000000E-01  3.54000000E-01
  2.74000000E-01  2.96000000E-01  5.80000000E-02  4.40000000E-02  3.90000000E-02
  3.90000000E-02  3.60000000E-02  3.20000000E-02  2.90000000E-02  3.30000000E-02
  5.50000000E-02  3.90000000E-02  3.30000000E-02  3.00000000E-02  2.80000000E-02
  2.60000000E-02  2.50000000E-02  2.50000000E-02  4.50000000E-02  4.40000000E-02
  3.30000000E-02  2.50000000E-02  2.10000000E-02  1.80000000E-02  1.50000000E-02
  1.80000000E-02  2.10000000E-02  2.50000000E-02  3.30000000E-02  5.00000000E-02
  3.80000000E-02  3.10000000E-02  2.70000000E-02  2.40000000E-02  2.20000000E-02
  2.10000000E-02  4.30000000E-02  4.00000000E-02  3.20000000E-02  2.50000000E-02
  2.10000000E-02  1.80000000E-02  1.60000000E-02  1.90000000E-02  2.20000000E-02
  2.80000000E-02  3.10000000E-02  4.70000000E-02  3.40000000E-02  2.80000000E-02
  2.40000000E-02  2.10000000E-02  1.90000000E-02  1.80000000E-02  3.90000000E-02
  3.60000000E-02  2.50000000E-02  2.50000000E-02  2.50000000E-02  2.60000000E-02
  2.60000000E-02  2.60000000E-02  2.70000000E-02  2.70000000E-02  2.70000000E-02
  2.70000000E-02  2.80000000E-02  2.80000000E-02  2.80000000E-02  3.30000000E-02
  3.30000000E-02  2.60000000E-02  2.10000000E-02  1.80000000E-02  1.60000000E-02
  1.80000000E-02  2.20000000E-02  2.60000000E-02  4.90000000E-02  8.20000000E-02
  3.00000000E-02  2.40000000E-02  2.10000000E-02  1.80000000E-02  1.60000000E-02
  1.50000000E-02  3.50000000E-02  3.60000000E-02  2.20000000E-02  2.30000000E-02
  2.40000000E-02  2.40000000E-02  2.50000000E-02  2.50000000E-02  2.60000000E-02
  2.70000000E-02  2.70000000E-02  2.80000000E-02  2.80000000E-02  2.90000000E-02
  3.00000000E-02  3.00000000E-02  3.10000000E-02  3.10000000E-02  3.10000000E-02
  3.10000000E-02  3.10000000E-02  3.10000000E-02  3.10000000E-02  3.10000000E-02
  3.10000000E-02  3.10000000E-02  3.10000000E-02  3.10000000E-02  3.10000000E-02
  3.10000000E-02  3.10000000E-02  3.10000000E-02  3.10000000E-02  3.10000000E-02
  3.10000000E-02  3.10000000E-02  3.10000000E-02  3.10000000E-02  3.10000000E-02
  3.10000000E-02  3.10000000E-02  3.10000000E-02  3.10000000E-02  3.10000000E-02
  3.10000000E-02  3.10000000E-02  3.10000000E-02  3.10000000E-02  3.10000000E-02
  3.10000000E-02  3.10000000E-02  3.10000000E-02  3.10000000E-02  3.10000000E-02
  3.10000000E-02  3.10000000E-02  3.10000000E-02  3.10000000E-02  3.10000000E-02
  3.10000000E-02  3.10000000E-02  3.10000000E-02  3.10000000E-02  3.10000000E-02
  3.10000000E-02  3.10000000E-02  3.10000000E-02  3.10000000E-02  3.10000000E-02
  3.10000000E-02  3.10000000E-02  3.10000000E-02  3.10000000E-02  3.10000000E-02
  3.10000000E-02  3.10000000E-02  3.10000000E-02  3.10000000E-02  3.10000000E-02
  3.10000000E-02  3.10000000E-02  3.10000000E-02  3.10000000E-02  3.10000000E-02
  3.10000000E-02  3.10000000E-02  3.10000000E-02  3.10000000E-02  3.10000000E-02
  3.10000000E-02  3.10000000E-02  3.10000000E-02  3.10000000E-02  3.10000000E-02
  3.10000000E-02  3.10000000E-02  3.10000000E-02  3.10000000E-02  3.10000000E-02
  3.10000000E-02  3.10000000E-02  3.10000000E-02  3.10000000E-02  3.10000000E-02
  3.10000000E-02  3.10000000E-02  3.10000000E-02  3.10000000E-02  3.10000000E-02
  3.10000000E-02  3.10000000E-02  3.10000000E-02  3.10000000E-02  3.10000000E-02
 -5.92770000E-01 -9.17860000E-01 -2.48668000E+00 -8.36430000E-01 -3.18470000E-01
 -4.55790000E-01 -5.70730000E-01 -6.77940000E-01 -7.69860000E-01 -8.51140000E-01
 -1.51908000E+00 -3.18830000E-01 -2.17900000E-01 -3.01260000E-01 -3.72750000E-01
 -4.15890000E-01 -4.45930000E-01 -5.91320000E-01 -9.56370000E-01 -2.88450000E-01
 -4.87320000E-01 -6.34280000E-01 -7.17490000E-01 -7.91980000E-01 -8.68490000E-01
 -9.17520000E-01 -9.54890000E-01 -9.88460000E-01 -1.50055000E+00 -2.92560000E-01
 -2.14960000E-01 -2.91180000E-01 -3.42080000E-01 -3.84480000E-01 -4.34940000E-01
 -5.24310000E-01 -8.10070000E-01 -2.58460000E-01 -4.35550000E-01 -5.32740000E-01
 -6.08450000E-01 -6.10260000E-01 -7.58920000E-01 -8.90130000E-01 -8.45780000E-01
 -8.69340000E-01 -1.38234000E+00 -2.64850000E-01 -1.97280000E-01 -2.65040000E-01
 -2.94470000E-01 -3.16570000E-01 -3.63590000E-01 -4.57840000E-01 -8.61830000E-01
 -1.33004000E+00 -6.82880000E-01 -6.25540000E-01 -6.35430000E-01 -8.79690000E-01
 -9.02690000E-01 -9.59650000E-01 -1.01869000E+00 -6.81170000E-01 -7.96500000E-01
 -9.04950000E-01 -8.34790000E-01 -9.01560000E-01 -9.74130000E-01 -1.03326000E+00
 -7.15490000E-01 -7.83960000E-01 -8.28380000E-01 -5.61040000E-01 -1.03841000E+00
 -8.62500000E-01 -9.59300000E-01 -1.01755000E+00 -7.64900000E-01 -1.29467000E+00
 -1.92740000E-01 -2.56010000E-01 -3.19820000E-01 -1.94660000E-01 -2.60090000E-01
 -4.27990000E-01  0.00000000E+00  0.00000000E+00  0.00000000E+00  0.00000000E+00
  0.00000000E+00  0.00000000E+00  0.00000000E+00  0.00000000E+00  0.00000000E+00
  0.00000000E+00  0.00000000E+00  0.00000000E+00  0.00000000E+00  0.00000000E+00
  0.00000000E+00  0.00000000E+00  0.00000000E+00  0.00000000E+00  0.00000000E+00
  0.00000000E+00  0.00000000E+00  0.00000000E+00  0.00000000E+00  0.00000000E+00
  0.00000000E+00  0.00000000E+00  0.00000000E+00  0.00000000E+00  0.00000000E+00
  0.00000000E+00  0.00000000E+00  0.00000000E+00  0.00000000E+00  0.00000000E+00
  0.00000000E+00  0.00000000E+00  0.00000000E+00  0.00000000E+00  0.00000000E+00
  0.00000000E+00  0.00000000E+00  0.00000000E+00  0.00000000E+00  0.00000000E+00
  0.00000000E+00  0.00000000E+00  0.00000000E+00  0.00000000E+00  0.00000000E+00
  0.00000000E+00  0.00000000E+00  0.00000000E+00  0.00000000E+00  0.00000000E+00
  0.00000000E+00  0.00000000E+00  0.00000000E+00  0.00000000E+00  0.00000000E+00
  0.00000000E+00  0.00000000E+00  0.00000000E+00  0.00000000E+00  0.00000000E+00
  0.00000000E+00  0.00000000E+00  0.00000000E+00  0.00000000E+00  0.00000000E+00
  0.00000000E+00  0.00000000E+00  0.00000000E+00  0.00000000E+00  0.00000000E+00
  0.00000000E+00  0.00000000E+00  0.00000000E+00  0.00000000E+00  0.00000000E+00
  0.00000000E+00  0.00000000E+00  0.00000000E+00  0.00000000E+00  0.00000000E+00
  0.00000000E+00  0.00000000E+00  0.00000000E+00  0.00000000E+00  0.00000000E+00
  0.00000000E+00  0.00000000E+00  0.00000000E+00  0.00000000E+00  0.00000000E+00
  0.00000000E+00  0.00000000E+00  0.00000000E+00  0.00000000E+00  0.00000000E+00
  0.00000000E+00  0.00000000E+00  0.00000000E+00  0.00000000E+00  0.00000000E+00
  0.00000000E+00  0.00000000E+00  0.00000000E+00  0.00000000E+00  0.00000000E+00
  0.00000000E+00  0.00000000E+00  0.00000000E+00  0.00000000E+00  0.00000000E+00
  1.90440000E+00  1.36430000E+00  4.84000000E-01  7.31600000E+00  9.24030000E+00
  8.78200000E+00  5.61290000E+00  4.83340000E+00  3.24870000E+00  2.71090000E+00
  2.01130000E+00  1.50282000E+01  1.46788000E+01  2.13546000E+01  2.38290000E+01
  1.98022000E+01  1.50468000E+01  1.09745000E+01  1.27219000E+01  1.51949000E+01
  1.57342000E+01  2.79222000E+01  1.61366000E+01  2.21252000E+01  2.45676000E+01
  1.96016000E+01  1.79818000E+01  1.72396000E+01  5.01500000E+00  1.92898000E+01
  2.34477000E+01  2.23993000E+01  2.96586000E+01  2.60081000E+01  2.15580000E+01
  1.69594000E+01  1.56479000E+01  1.86897000E+01  1.93530000E+01  3.43444000E+01
  1.98480000E+01  2.72140000E+01  3.02182000E+01  2.41099000E+01  2.21176000E+01
  2.12047000E+01  7.56690000E+00  2.37264000E+01  2.93879000E+01  3.01278000E+01
  4.19382000E+01  3.85203000E+01  3.39511000E+01  2.75774000E+01  1.56460000E+01
  1.04460000E+01  2.01830000E+01  4.99540000E+01  4.76430000E+01  1.18690000E+01
  1.08670000E+01  9.96100000E+00  9.18700000E+00  3.67980000E+01  1.34070000E+01
  9.38200000E+00  9.81700000E+00  8.90800000E+00  8.40700000E+00  8.05800000E+00
  1.29600000E+01  2.67920000E+01  2.49300000E+01  3.45630000E+01  1.11860000E+01
  1.09440000E+01  1.01270000E+01  9.40400000E+00  1.36660000E+01  7.81000000E+00
  6.93600000E+01  5.86630000E+01  4.79690000E+01  4.52740000E+01  3.92290000E+01
  3.30660000E+01  0.00000000E+00  0.00000000E+00  0.00000000E+00  0.00000000E+00
  0.00000000E+00  0.00000000E+00  0.00000000E+00  0.00000000E+00  0.00000000E+00
  0.00000000E+00  0.00000000E+00  0.00000000E+00  0.00000000E+00  0.00000000E+00
  0.00000000E+00  0.00000000E+00  0.00000000E+00  0.00000000E+00  0.00000000E+00
  0.00000000E+00  0.00000000E+00  0.00000000E+00  0.00000000E+00  0.00000000E+00
  0.00000000E+00  0.00000000E+00  0.00000000E+00  0.00000000E+00  0.00000000E+00
  0.00000000E+00  0.00000000E+00  0.00000000E+00  0.00000000E+00  0.00000000E+00
  0.00000000E+00  0.00000000E+00  0.00000000E+00  0.00000000E+00  0.00000000E+00
  0.00000000E+00  0.00000000E+00  0.00000000E+00  0.00000000E+00  0.00000000E+00
  0.00000000E+00  0.00000000E+00  0.00000000E+00  0.00000000E+00  0.00000000E+00
  0.00000000E+00  0.00000000E+00  0.00000000E+00  0.00000000E+00  0.00000000E+00
  0.00000000E+00  0.00000000E+00  0.00000000E+00  0.00000000E+00  0.00000000E+00
  0.00000000E+00  0.00000000E+00  0.00000000E+00  0.00000000E+00  0.00000000E+00
  0.00000000E+00  0.00000000E+00  0.00000000E+00  0.00000000E+00  0.00000000E+00
  0.00000000E+00  0.00000000E+00  0.00000000E+00  0.00000000E+00  0.00000000E+00
  0.00000000E+00  0.00000000E+00  0.00000000E+00  0.00000000E+00  0.00000000E+00
  0.00000000E+00  0.00000000E+00  0.00000000E+00  0.00000000E+00  0.00000000E+00
  0.00000000E+00  0.00000000E+00  0.00000000E+00  0.00000000E+00  0.00000000E+00
  0.00000000E+00  0.00000000E+00  0.00000000E+00  0.00000000E+00  0.00000000E+00
  0.00000000E+00  0.00000000E+00  0.00000000E+00  0.00000000E+00  0.00000000E+00
  0.00000000E+00  0.00000000E+00  0.00000000E+00  0.00000000E+00  0.00000000E+00
  0.00000000E+00  0.00000000E+00  0.00000000E+00  0.00000000E+00  0.00000000E+00
  0.00000000E+00  0.00000000E+00  0.00000000E+00  0.00000000E+00  0.00000000E+00
  0.00000000E+00  0.00000000E+00  0.00000000E+00  0.00000000E+00  0.00000000E+00
  0.00000000E+00  0.00000000E+00  0.00000000E+00  0.00000000E+00  0.00000000E+00
  0.00000000E+00  0.00000000E+00  0.00000000E+00  0.00000000E+00  0.00000000E+00
  0.00000000E+00  0.00000000E+00  0.00000000E+00  0.00000000E+00  0.00000000E+00
  0.00000000E+00  0.00000000E+00  0.00000000E+00  0.00000000E+00  0.00000000E+00
  0.00000000E+00  0.00000000E+00  0.00000000E+00  0.00000000E+00  0.00000000E+00
  0.00000000E+00  0.00000000E+00  0.00000000E+00  0.00000000E+00  0.00000000E+00
  0.00000000E+00  0.00000000E+00  0.00000000E+00  0.00000000E+00  0.00000000E+00
  0.00000000E+00  0.00000000E+00  0.00000000E+00  0.00000000E+00  0.00000000E+00
  0.00000000E+00  0.00000000E+00  0.00000000E+00  0.00000000E+00  0.00000000E+00
  0.00000000E+00  0.00000000E+00  0.00000000E+00  0.00000000E+00  0.00000000E+00
  0.00000000E+00  0.00000000E+00  0.00000000E+00  0.00000000E+00  0.00000000E+00
  0.00000000E+00  0.00000000E+00  0.00000000E+00  0.00000000E+00  0.00000000E+00
  0.00000000E+00  0.00000000E+00  0.00000000E+00  0.00000000E+00  0.00000000E+00
  0.00000000E+00  0.00000000E+00  0.00000000E+00  0.00000000E+00  0.00000000E+00
  0.00000000E+00  0.00000000E+00  0.00000000E+00  0.00000000E+00  0.00000000E+00
  0.00000000E+00  0.00000000E+00  0.00000000E+00  0.00000000E+00  0.00000000E+00
  0.00000000E+00  0.00000000E+00  0.00000000E+00  0.00000000E+00  0.00000000E+00
  0.00000000E+00  0.00000000E+00  0.00000000E+00  0.00000000E+00  0.00000000E+00
  0.00000000E+00  0.00000000E+00  0.00000000E+00  0.00000000E+00  0.00000000E+00
  0.00000000E+00  0.00000000E+00  0.00000000E+00  0.00000000E+00  0.00000000E+00
  0.00000000E+00  0.00000000E+00  0.00000000E+00  0.00000000E+00  0.00000000E+00
  0.00000000E+00  0.00000000E+00  0.00000000E+00  0.00000000E+00  0.00000000E+00
  0.00000000E+00  0.00000000E+00  0.00000000E+00  0.00000000E+00  0.00000000E+00
  0.00000000E+00  0.00000000E+00  0.00000000E+00  0.00000000E+00  0.00000000E+00
  0.00000000E+00  0.00000000E+00  0.00000000E+00  0.00000000E+00  0.00000000E+00
  0.00000000E+00  0.00000000E+00  0.00000000E+00  0.00000000E+00  0.00000000E+00
  0.00000000E+00  0.00000000E+00  0.00000000E+00  0.00000000E+00  0.00000000E+00
  0.00000000E+00  0.00000000E+00  0.00000000E+00  0.00000000E+00  0.00000000E+00
  0.00000000E+00  0.00000000E+00  0.00000000E+00  0.00000000E+00  0.00000000E+00
  0.00000000E+00  0.00000000E+00  0.00000000E+00  0.00000000E+00  0.00000000E+00
  0.00000000E+00  0.00000000E+00  0.00000000E+00  0.00000000E+00  0.00000000E+00
  0.00000000E+00  0.00000000E+00  0.00000000E+00  0.00000000E+00  0.00000000E+00
  0.00000000E+00  0.00000000E+00  0.00000000E+00  0.00000000E+00  0.00000000E+00
  0.00000000E+00  0.00000000E+00  0.00000000E+00  0.00000000E+00  0.00000000E+00
  0.00000000E+00  0.00000000E+00  0.00000000E+00  0.00000000E+00  0.00000000E+00
  0.00000000E+00  0.00000000E+00  0.00000000E+00  0.00000000E+00  0.00000000E+00
  0.00000000E+00  0.00000000E+00  0.00000000E+00  0.00000000E+00  0.00000000E+00
  0.00000000E+00  0.00000000E+00  0.00000000E+00  0.00000000E+00  0.00000000E+00
  0.00000000E+00  0.00000000E+00  0.00000000E+00  0.00000000E+00  0.00000000E+00
  0.00000000E+00  0.00000000E+00  0.00000000E+00  0.00000000E+00  0.00000000E+00
  0.00000000E+00  0.00000000E+00  0.00000000E+00  0.00000000E+00  0.00000000E+00
  0.00000000E+00  0.00000000E+00  0.00000000E+00  0.00000000E+00  0.00000000E+00
  0.00000000E+00  0.00000000E+00  0.00000000E+00  0.00000000E+00  0.00000000E+00
  0.00000000E+00  0.00000000E+00  0.00000000E+00  0.00000000E+00  0.00000000E+00
  0.00000000E+00  0.00000000E+00  0.00000000E+00  0.00000000E+00  0.00000000E+00
  0.00000000E+00  0.00000000E+00  0.00000000E+00  0.00000000E+00  0.00000000E+00
  0.00000000E+00  0.00000000E+00  0.00000000E+00  0.00000000E+00  0.00000000E+00
  0.00000000E+00  0.00000000E+00  0.00000000E+00  0.00000000E+00  0.00000000E+00
  0.00000000E+00  0.00000000E+00  0.00000000E+00  0.00000000E+00  0.00000000E+00
  0.00000000E+00  0.00000000E+00  0.00000000E+00  0.00000000E+00  0.00000000E+00
  0.00000000E+00  0.00000000E+00  0.00000000E+00  0.00000000E+00  0.00000000E+00
  0.00000000E+00  0.00000000E+00  0.00000000E+00  0.00000000E+00  0.00000000E+00
  0.00000000E+00  0.00000000E+00  0.00000000E+00  0.00000000E+00  0.00000000E+00
  0.00000000E+00  0.00000000E+00  0.00000000E+00  0.00000000E+00  0.00000000E+00
  0.00000000E+00  0.00000000E+00  0.00000000E+00  0.00000000E+00  0.00000000E+00
  0.00000000E+00  0.00000000E+00  0.00000000E+00  0.00000000E+00  0.00000000E+00
  0.00000000E+00  0.00000000E+00  0.00000000E+00  0.00000000E+00  0.00000000E+00
  0.00000000E+00  0.00000000E+00  0.00000000E+00  0.00000000E+00  0.00000000E+00
  0.00000000E+00  0.00000000E+00  0.00000000E+00  0.00000000E+00  0.00000000E+00
  0.00000000E+00  0.00000000E+00  0.00000000E+00  0.00000000E+00  0.00000000E+00
  0.00000000E+00  0.00000000E+00  0.00000000E+00  0.00000000E+00  0.00000000E+00
  0.00000000E+00  0.00000000E+00  0.00000000E+00  0.00000000E+00  0.00000000E+00
  0.00000000E+00  0.00000000E+00  0.00000000E+00  0.00000000E+00  0.00000000E+00
  0.00000000E+00  0.00000000E+00  0.00000000E+00  0.00000000E+00  0.00000000E+00
  0.00000000E+00  0.00000000E+00  0.00000000E+00  0.00000000E+00  0.00000000E+00
  0.00000000E+00  0.00000000E+00  0.00000000E+00  0.00000000E+00  0.00000000E+00
  0.00000000E+00  0.00000000E+00  0.00000000E+00  0.00000000E+00  0.00000000E+00
  0.00000000E+00  0.00000000E+00  0.00000000E+00  0.00000000E+00  0.00000000E+00
  0.00000000E+00  0.00000000E+00  0.00000000E+00  0.00000000E+00  0.00000000E+00
  0.00000000E+00  0.00000000E+00  0.00000000E+00  0.00000000E+00  0.00000000E+00
  0.00000000E+00  0.00000000E+00  0.00000000E+00  0.00000000E+00  0.00000000E+00
  0.00000000E+00  0.00000000E+00  0.00000000E+00  0.00000000E+00  0.00000000E+00
  0.00000000E+00  0.00000000E+00  0.00000000E+00  0.00000000E+00  0.00000000E+00
  0.00000000E+00  0.00000000E+00  0.00000000E+00  0.00000000E+00  0.00000000E+00
  0.00000000E+00  0.00000000E+00  0.00000000E+00  0.00000000E+00  0.00000000E+00
  0.00000000E+00  0.00000000E+00  0.00000000E+00  0.00000000E+00  0.00000000E+00
  0.00000000E+00  0.00000000E+00  0.00000000E+00  0.00000000E+00  0.00000000E+00
  0.00000000E+00  0.00000000E+00  0.00000000E+00  0.00000000E+00  0.00000000E+00
  0.00000000E+00  0.00000000E+00  0.00000000E+00  0.00000000E+00  0.00000000E+00
  0.00000000E+00  0.00000000E+00  0.00000000E+00  0.00000000E+00  0.00000000E+00
  0.00000000E+00  0.00000000E+00  0.00000000E+00  0.00000000E+00  0.00000000E+00
  0.00000000E+00  0.00000000E+00  0.00000000E+00  0.00000000E+00  0.00000000E+00
  0.00000000E+00  0.00000000E+00  0.00000000E+00  0.00000000E+00  0.00000000E+00
  0.00000000E+00  0.00000000E+00  0.00000000E+00  0.00000000E+00  0.00000000E+00
  0.00000000E+00  0.00000000E+00  0.00000000E+00  0.00000000E+00  0.00000000E+00
  0.00000000E+00  0.00000000E+00  0.00000000E+00  0.00000000E+00  0.00000000E+00
  0.00000000E+00  0.00000000E+00  0.00000000E+00  0.00000000E+00  0.00000000E+00
  0.00000000E+00  0.00000000E+00  0.00000000E+00  0.00000000E+00  0.00000000E+00
  0.00000000E+00  0.00000000E+00  0.00000000E+00  0.00000000E+00  0.00000000E+00
  0.00000000E+00  0.00000000E+00  0.00000000E+00  0.00000000E+00  0.00000000E+00
  0.00000000E+00  0.00000000E+00  0.00000000E+00  0.00000000E+00  0.00000000E+00
  0.00000000E+00  0.00000000E+00  0.00000000E+00  0.00000000E+00  0.00000000E+00
  0.00000000E+00  0.00000000E+00  0.00000000E+00  0.00000000E+00  0.00000000E+00
  0.00000000E+00  0.00000000E+00  0.00000000E+00  0.00000000E+00  0.00000000E+00
  0.00000000E+00  0.00000000E+00  0.00000000E+00  0.00000000E+00  0.00000000E+00
  0.00000000E+00  0.00000000E+00  0.00000000E+00  0.00000000E+00  0.00000000E+00
  0.00000000E+00  0.00000000E+00  0.00000000E+00  0.00000000E+00  0.00000000E+00
  0.00000000E+00  0.00000000E+00  0.00000000E+00  0.00000000E+00  0.00000000E+00
  0.00000000E+00  0.00000000E+00  0.00000000E+00  0.00000000E+00  0.00000000E+00
  0.00000000E+00  0.00000000E+00  0.00000000E+00  0.00000000E+00  0.00000000E+00
  0.00000000E+00  0.00000000E+00  0.00000000E+00  0.00000000E+00  0.00000000E+00
  0.00000000E+00  0.00000000E+00  0.00000000E+00  0.00000000E+00  0.00000000E+00
  0.00000000E+00  0.00000000E+00  0.00000000E+00  0.00000000E+00  0.00000000E+00
  0.00000000E+00  0.00000000E+00  0.00000000E+00  0.00000000E+00  0.00000000E+00
  0.00000000E+00  0.00000000E+00  0.00000000E+00  0.00000000E+00  0.00000000E+00
  0.00000000E+00  0.00000000E+00  0.00000000E+00  0.00000000E+00  0.00000000E+00
  0.00000000E+00  0.00000000E+00  0.00000000E+00  0.00000000E+00  0.00000000E+00
  0.00000000E+00  0.00000000E+00  0.00000000E+00  0.00000000E+00  0.00000000E+00
  0.00000000E+00  0.00000000E+00  0.00000000E+00  0.00000000E+00  0.00000000E+00
  0.00000000E+00  0.00000000E+00  0.00000000E+00  0.00000000E+00  0.00000000E+00
  0.00000000E+00  0.00000000E+00  0.00000000E+00  0.00000000E+00  0.00000000E+00
  0.00000000E+00  0.00000000E+00  0.00000000E+00  0.00000000E+00  0.00000000E+00
  0.00000000E+00  0.00000000E+00  0.00000000E+00  0.00000000E+00  0.00000000E+00
  0.00000000E+00  0.00000000E+00  0.00000000E+00  0.00000000E+00  0.00000000E+00
  0.00000000E+00  0.00000000E+00  0.00000000E+00  0.00000000E+00  0.00000000E+00
  0.00000000E+00  0.00000000E+00  0.00000000E+00  0.00000000E+00  0.00000000E+00
  0.00000000E+00  0.00000000E+00  0.00000000E+00  0.00000000E+00  0.00000000E+00
  0.00000000E+00  0.00000000E+00  0.00000000E+00  0.00000000E+00  0.00000000E+00
  0.00000000E+00  0.00000000E+00  0.00000000E+00  0.00000000E+00  0.00000000E+00
  0.00000000E+00  0.00000000E+00  0.00000000E+00  0.00000000E+00  0.00000000E+00
  0.00000000E+00  0.00000000E+00  0.00000000E+00  0.00000000E+00  0.00000000E+00
  0.00000000E+00  0.00000000E+00  0.00000000E+00  0.00000000E+00  0.00000000E+00
  0.00000000E+00  0.00000000E+00  0.00000000E+00  0.00000000E+00  0.00000000E+00
  0.00000000E+00  0.00000000E+00  0.00000000E+00  0.00000000E+00  0.00000000E+00
  0.00000000E+00  0.00000000E+00  0.00000000E+00  0.00000000E+00  0.00000000E+00
  0.00000000E+00  0.00000000E+00  0.00000000E+00  0.00000000E+00  0.00000000E+00
  0.00000000E+00  0.00000000E+00  0.00000000E+00  0.00000000E+00  0.00000000E+00
  0.00000000E+00  0.00000000E+00  0.00000000E+00  0.00000000E+00  0.00000000E+00
  0.00000000E+00  0.00000000E+00  0.00000000E+00  0.00000000E+00  0.00000000E+00
  0.00000000E+00  0.00000000E+00  0.00000000E+00  0.00000000E+00  0.00000000E+00
  0.00000000E+00  0.00000000E+00  0.00000000E+00  0.00000000E+00  0.00000000E+00
  0.00000000E+00  0.00000000E+00  0.00000000E+00  0.00000000E+00  0.00000000E+00
  0.00000000E+00  0.00000000E+00  0.00000000E+00  0.00000000E+00  0.00000000E+00
  0.00000000E+00  0.00000000E+00  0.00000000E+00  0.00000000E+00  0.00000000E+00
  0.00000000E+00  0.00000000E+00  0.00000000E+00  0.00000000E+00  0.00000000E+00
  0.00000000E+00  0.00000000E+00  0.00000000E+00  0.00000000E+00  0.00000000E+00
  0.00000000E+00  0.00000000E+00  0.00000000E+00  0.00000000E+00  0.00000000E+00
  0.00000000E+00  0.00000000E+00  0.00000000E+00  0.00000000E+00  0.00000000E+00
  0.00000000E+00  0.00000000E+00  0.00000000E+00  0.00000000E+00  0.00000000E+00
  0.00000000E+00  0.00000000E+00  0.00000000E+00  0.00000000E+00  0.00000000E+00
  0.00000000E+00  0.00000000E+00  0.00000000E+00  0.00000000E+00  0.00000000E+00
  0.00000000E+00  0.00000000E+00  0.00000000E+00  0.00000000E+00  0.00000000E+00
  0.00000000E+00  0.00000000E+00  0.00000000E+00  0.00000000E+00  0.00000000E+00
  0.00000000E+00  0.00000000E+00  0.00000000E+00  0.00000000E+00  0.00000000E+00
  0.00000000E+00  0.00000000E+00  0.00000000E+00  0.00000000E+00  0.00000000E+00
  0.00000000E+00  0.00000000E+00  0.00000000E+00  0.00000000E+00  0.00000000E+00
  0.00000000E+00  0.00000000E+00  0.00000000E+00  0.00000000E+00  0.00000000E+00
  0.00000000E+00  0.00000000E+00  0.00000000E+00  0.00000000E+00  0.00000000E+00
  0.00000000E+00  0.00000000E+00  0.00000000E+00  0.00000000E+00  0.00000000E+00
  0.00000000E+00  0.00000000E+00  0.00000000E+00  0.00000000E+00  0.00000000E+00
  0.00000000E+00  0.00000000E+00  0.00000000E+00  0.00000000E+00  0.00000000E+00
  0.00000000E+00  0.00000000E+00  0.00000000E+00  0.00000000E+00  0.00000000E+00
  0.00000000E+00  0.00000000E+00  0.00000000E+00  0.00000000E+00  0.00000000E+00
  0.00000000E+00  0.00000000E+00  0.00000000E+00  0.00000000E+00  0.00000000E+00
  0.00000000E+00  0.00000000E+00  0.00000000E+00  0.00000000E+00  0.00000000E+00
  0.00000000E+00  0.00000000E+00  0.00000000E+00  0.00000000E+00  0.00000000E+00
  0.00000000E+00  0.00000000E+00  0.00000000E+00  0.00000000E+00  0.00000000E+00
  0.00000000E+00  0.00000000E+00  0.00000000E+00  0.00000000E+00  0.00000000E+00
  0.00000000E+00  0.00000000E+00  0.00000000E+00  0.00000000E+00  0.00000000E+00
  0.00000000E+00  0.00000000E+00  0.00000000E+00  0.00000000E+00  0.00000000E+00
  0.00000000E+00  0.00000000E+00  0.00000000E+00  0.00000000E+00  0.00000000E+00
  0.00000000E+00  0.00000000E+00  0.00000000E+00  0.00000000E+00  0.00000000E+00
  0.00000000E+00  0.00000000E+00  0.00000000E+00  0.00000000E+00  0.00000000E+00
  0.00000000E+00  0.00000000E+00  0.00000000E+00  0.00000000E+00  0.00000000E+00
  0.00000000E+00  0.00000000E+00  0.00000000E+00  0.00000000E+00  0.00000000E+00
  0.00000000E+00  0.00000000E+00  0.00000000E+00  0.00000000E+00  0.00000000E+00
  0.00000000E+00  0.00000000E+00  0.00000000E+00  0.00000000E+00  0.00000000E+00
  0.00000000E+00  0.00000000E+00  0.00000000E+00  0.00000000E+00  0.00000000E+00
  0.00000000E+00  0.00000000E+00  0.00000000E+00  0.00000000E+00  0.00000000E+00
  0.00000000E+00  0.00000000E+00  0.00000000E+00  0.00000000E+00  0.00000000E+00
  0.00000000E+00  0.00000000E+00  0.00000000E+00  0.00000000E+00  0.00000000E+00
  0.00000000E+00  0.00000000E+00  0.00000000E+00  0.00000000E+00  0.00000000E+00
  0.00000000E+00  0.00000000E+00  0.00000000E+00  0.00000000E+00  0.00000000E+00
  0.00000000E+00  0.00000000E+00  0.00000000E+00  0.00000000E+00  0.00000000E+00
  0.00000000E+00  0.00000000E+00  0.00000000E+00  0.00000000E+00  0.00000000E+00
  0.00000000E+00  0.00000000E+00  0.00000000E+00  0.00000000E+00  0.00000000E+00
  0.00000000E+00  0.00000000E+00  0.00000000E+00  0.00000000E+00  0.00000000E+00
  0.00000000E+00  0.00000000E+00  0.00000000E+00  0.00000000E+00  0.00000000E+00
  0.00000000E+00  0.00000000E+00  0.00000000E+00  0.00000000E+00  0.00000000E+00
  0.00000000E+00  0.00000000E+00  0.00000000E+00  0.00000000E+00  0.00000000E+00
  0.00000000E+00  0.00000000E+00  0.00000000E+00  0.00000000E+00  0.00000000E+00
  0.00000000E+00  0.00000000E+00  0.00000000E+00  0.00000000E+00  0.00000000E+00
  0.00000000E+00  0.00000000E+00  0.00000000E+00  0.00000000E+00  0.00000000E+00
  0.00000000E+00  0.00000000E+00  0.00000000E+00  0.00000000E+00  0.00000000E+00
  0.00000000E+00  0.00000000E+00  0.00000000E+00  0.00000000E+00  0.00000000E+00
  0.00000000E+00  0.00000000E+00  0.00000000E+00  0.00000000E+00  0.00000000E+00
  0.00000000E+00  0.00000000E+00  0.00000000E+00  0.00000000E+00  0.00000000E+00
  0.00000000E+00  0.00000000E+00  0.00000000E+00  0.00000000E+00  0.00000000E+00
  0.00000000E+00  0.00000000E+00  0.00000000E+00  0.00000000E+00  0.00000000E+00
  0.00000000E+00  0.00000000E+00  0.00000000E+00  0.00000000E+00  0.00000000E+00
  0.00000000E+00  0.00000000E+00  0.00000000E+00  0.00000000E+00  0.00000000E+00
  0.00000000E+00  0.00000000E+00  0.00000000E+00  0.00000000E+00  0.00000000E+00
  0.00000000E+00  0.00000000E+00  0.00000000E+00  0.00000000E+00  0.00000000E+00
  0.00000000E+00  0.00000000E+00  0.00000000E+00  0.00000000E+00  0.00000000E+00
  0.00000000E+00  0.00000000E+00  0.00000000E+00  0.00000000E+00  0.00000000E+00
  0.00000000E+00  0.00000000E+00  0.00000000E+00  0.00000000E+00  0.00000000E+00
  0.00000000E+00  0.00000000E+00  0.00000000E+00  0.00000000E+00  0.00000000E+00
  0.00000000E+00  0.00000000E+00  0.00000000E+00  0.00000000E+00  0.00000000E+00
  0.00000000E+00  0.00000000E+00  0.00000000E+00  0.00000000E+00  0.00000000E+00
  0.00000000E+00  0.00000000E+00  0.00000000E+00  0.00000000E+00  0.00000000E+00
  0.00000000E+00  0.00000000E+00  0.00000000E+00  0.00000000E+00  0.00000000E+00
  0.00000000E+00  0.00000000E+00  0.00000000E+00  0.00000000E+00  0.00000000E+00
  0.00000000E+00  0.00000000E+00  0.00000000E+00  0.00000000E+00  0.00000000E+00
  0.00000000E+00  0.00000000E+00  0.00000000E+00  0.00000000E+00  0.00000000E+00
  0.00000000E+00  0.00000000E+00  0.00000000E+00  0.00000000E+00  0.00000000E+00
  0.00000000E+00  0.00000000E+00  0.00000000E+00  0.00000000E+00  0.00000000E+00
  0.00000000E+00  0.00000000E+00  0.00000000E+00  0.00000000E+00  0.00000000E+00
  0.00000000E+00  0.00000000E+00  0.00000000E+00  0.00000000E+00  0.00000000E+00
  0.00000000E+00  0.00000000E+00  0.00000000E+00  0.00000000E+00  0.00000000E+00
  0.00000000E+00  0.00000000E+00  0.00000000E+00  0.00000000E+00  0.00000000E+00
  0.00000000E+00  0.00000000E+00  0.00000000E+00  0.00000000E+00  0.00000000E+00
  0.00000000E+00  0.00000000E+00  0.00000000E+00  0.00000000E+00  0.00000000E+00
  0.00000000E+00  0.00000000E+00  0.00000000E+00  0.00000000E+00  0.00000000E+00
  0.00000000E+00  0.00000000E+00  0.00000000E+00  0.00000000E+00  0.00000000E+00
  0.00000000E+00  0.00000000E+00  0.00000000E+00  0.00000000E+00  0.00000000E+00
  0.00000000E+00  0.00000000E+00  0.00000000E+00  0.00000000E+00  0.00000000E+00
  0.00000000E+00  0.00000000E+00  0.00000000E+00  0.00000000E+00  0.00000000E+00
  0.00000000E+00  0.00000000E+00  0.00000000E+00  0.00000000E+00  0.00000000E+00
  0.00000000E+00  0.00000000E+00  0.00000000E+00  0.00000000E+00  0.00000000E+00
  0.00000000E+00  0.00000000E+00  0.00000000E+00  0.00000000E+00  0.00000000E+00
  0.00000000E+00  0.00000000E+00  0.00000000E+00  0.00000000E+00  0.00000000E+00
  0.00000000E+00  0.00000000E+00  0.00000000E+00  0.00000000E+00  0.00000000E+00
  0.00000000E+00  0.00000000E+00  0.00000000E+00  0.00000000E+00  0.00000000E+00
  0.00000000E+00  0.00000000E+00  0.00000000E+00  0.00000000E+00  0.00000000E+00
  0.00000000E+00  0.00000000E+00  0.00000000E+00  0.00000000E+00  0.00000000E+00
  0.00000000E+00  0.00000000E+00  0.00000000E+00  0.00000000E+00  0.00000000E+00
  0.00000000E+00  0.00000000E+00  0.00000000E+00  0.00000000E+00  0.00000000E+00
  0.00000000E+00  0.00000000E+00  0.00000000E+00  0.00000000E+00  0.00000000E+00
  0.00000000E+00  0.00000000E+00  0.00000000E+00  0.00000000E+00  0.00000000E+00
  0.00000000E+00  0.00000000E+00  0.00000000E+00  0.00000000E+00  0.00000000E+00
  0.00000000E+00  0.00000000E+00  0.00000000E+00  0.00000000E+00  0.00000000E+00
  0.00000000E+00  0.00000000E+00  0.00000000E+00  0.00000000E+00  0.00000000E+00
  0.00000000E+00  0.00000000E+00  0.00000000E+00  0.00000000E+00  0.00000000E+00
  0.00000000E+00  0.00000000E+00  0.00000000E+00  0.00000000E+00  0.00000000E+00
  0.00000000E+00  0.00000000E+00  0.00000000E+00  0.00000000E+00  0.00000000E+00
  0.00000000E+00  0.00000000E+00  0.00000000E+00  0.00000000E+00  0.00000000E+00
  0.00000000E+00  0.00000000E+00  0.00000000E+00  0.00000000E+00  0.00000000E+00
  0.00000000E+00  0.00000000E+00  0.00000000E+00  0.00000000E+00  0.00000000E+00
  0.00000000E+00  0.00000000E+00  0.00000000E+00  0.00000000E+00  0.00000000E+00
  0.00000000E+00  0.00000000E+00  0.00000000E+00  0.00000000E+00  0.00000000E+00
  0.00000000E+00  0.00000000E+00  0.00000000E+00  0.00000000E+00  0.00000000E+00
  0.00000000E+00  0.00000000E+00  0.00000000E+00  0.00000000E+00  0.00000000E+00
  0.00000000E+00  0.00000000E+00  0.00000000E+00  0.00000000E+00  0.00000000E+00
  0.00000000E+00  0.00000000E+00  0.00000000E+00  0.00000000E+00  0.00000000E+00
  0.00000000E+00  0.00000000E+00  0.00000000E+00  0.00000000E+00  0.00000000E+00
  0.00000000E+00  0.00000000E+00  0.00000000E+00  0.00000000E+00  0.00000000E+00
  0.00000000E+00  0.00000000E+00  0.00000000E+00  0.00000000E+00  0.00000000E+00
  0.00000000E+00  0.00000000E+00  0.00000000E+00  0.00000000E+00  0.00000000E+00
  0.00000000E+00  0.00000000E+00  0.00000000E+00  0.00000000E+00  0.00000000E+00
  0.00000000E+00  0.00000000E+00  0.00000000E+00  0.00000000E+00  0.00000000E+00
  0.00000000E+00  0.00000000E+00  0.00000000E+00  0.00000000E+00  0.00000000E+00
  0.00000000E+00  0.00000000E+00  0.00000000E+00  0.00000000E+00  0.00000000E+00
  0.00000000E+00  0.00000000E+00  0.00000000E+00  0.00000000E+00  0.00000000E+00
  0.00000000E+00  0.00000000E+00  0.00000000E+00  0.00000000E+00  0.00000000E+00
  0.00000000E+00  0.00000000E+00  0.00000000E+00  0.00000000E+00  0.00000000E+00
  0.00000000E+00  0.00000000E+00  0.00000000E+00  0.00000000E+00  0.00000000E+00
  0.00000000E+00  0.00000000E+00  0.00000000E+00  0.00000000E+00  0.00000000E+00
  0.00000000E+00  0.00000000E+00  0.00000000E+00  0.00000000E+00  0.00000000E+00
  0.00000000E+00  0.00000000E+00  0.00000000E+00  0.00000000E+00  0.00000000E+00
  0.00000000E+00  0.00000000E+00  0.00000000E+00  0.00000000E+00  0.00000000E+00
  0.00000000E+00  0.00000000E+00  0.00000000E+00  0.00000000E+00  0.00000000E+00
  0.00000000E+00  0.00000000E+00  0.00000000E+00  0.00000000E+00  0.00000000E+00
  0.00000000E+00  0.00000000E+00  0.00000000E+00  0.00000000E+00  0.00000000E+00
  0.00000000E+00  0.00000000E+00  0.00000000E+00  0.00000000E+00  0.00000000E+00
  0.00000000E+00  0.00000000E+00  0.00000000E+00  0.00000000E+00  0.00000000E+00
  0.00000000E+00  0.00000000E+00  0.00000000E+00  0.00000000E+00  0.00000000E+00
  0.00000000E+00  0.00000000E+00  0.00000000E+00  0.00000000E+00  0.00000000E+00
  0.00000000E+00  0.00000000E+00  0.00000000E+00  0.00000000E+00  0.00000000E+00
  0.00000000E+00  0.00000000E+00  0.00000000E+00  0.00000000E+00  0.00000000E+00
  0.00000000E+00  0.00000000E+00  0.00000000E+00  0.00000000E+00  0.00000000E+00
  0.00000000E+00  0.00000000E+00  0.00000000E+00  0.00000000E+00  0.00000000E+00
  0.00000000E+00  0.00000000E+00  0.00000000E+00  0.00000000E+00  0.00000000E+00
  0.00000000E+00  0.00000000E+00  0.00000000E+00  0.00000000E+00  0.00000000E+00
  0.00000000E+00  0.00000000E+00  0.00000000E+00  0.00000000E+00  0.00000000E+00
  0.00000000E+00  0.00000000E+00  0.00000000E+00  0.00000000E+00  0.00000000E+00
  0.00000000E+00  0.00000000E+00  0.00000000E+00  0.00000000E+00  0.00000000E+00
  0.00000000E+00  0.00000000E+00  0.00000000E+00  0.00000000E+00  0.00000000E+00
  0.00000000E+00  0.00000000E+00  0.00000000E+00  0.00000000E+00  0.00000000E+00
  0.00000000E+00  0.00000000E+00  0.00000000E+00  0.00000000E+00  0.00000000E+00
  0.00000000E+00  0.00000000E+00  0.00000000E+00  0.00000000E+00  0.00000000E+00
  0.00000000E+00  0.00000000E+00  0.00000000E+00  0.00000000E+00  0.00000000E+00
  0.00000000E+00  0.00000000E+00  0.00000000E+00  0.00000000E+00  0.00000000E+00
  0.00000000E+00  0.00000000E+00  0.00000000E+00  0.00000000E+00  0.00000000E+00
  0.00000000E+00  0.00000000E+00  0.00000000E+00  0.00000000E+00  0.00000000E+00
  0.00000000E+00  0.00000000E+00  0.00000000E+00  0.00000000E+00  0.00000000E+00
  0.00000000E+00  0.00000000E+00  0.00000000E+00  0.00000000E+00  0.00000000E+00
  0.00000000E+00  0.00000000E+00  0.00000000E+00  0.00000000E+00  0.00000000E+00
  0.00000000E+00  0.00000000E+00  0.00000000E+00  0.00000000E+00  0.00000000E+00
  0.00000000E+00  0.00000000E+00  0.00000000E+00  0.00000000E+00  0.00000000E+00
  0.00000000E+00  0.00000000E+00  0.00000000E+00  0.00000000E+00  0.00000000E+00
  0.00000000E+00  0.00000000E+00  0.00000000E+00  0.00000000E+00  0.00000000E+00
  0.00000000E+00  0.00000000E+00  0.00000000E+00  0.00000000E+00  0.00000000E+00
  0.00000000E+00  0.00000000E+00  0.00000000E+00  0.00000000E+00  0.00000000E+00
  0.00000000E+00  0.00000000E+00  0.00000000E+00  0.00000000E+00  0.00000000E+00
  0.00000000E+00  0.00000000E+00  0.00000000E+00  0.00000000E+00  0.00000000E+00
  0.00000000E+00  0.00000000E+00  0.00000000E+00  0.00000000E+00  0.00000000E+00
  0.00000000E+00  0.00000000E+00  0.00000000E+00  0.00000000E+00  0.00000000E+00
  0.00000000E+00  0.00000000E+00  0.00000000E+00  0.00000000E+00  0.00000000E+00
  0.00000000E+00  0.00000000E+00  0.00000000E+00  0.00000000E+00  0.00000000E+00
  0.00000000E+00  0.00000000E+00  0.00000000E+00  0.00000000E+00  0.00000000E+00
  0.00000000E+00  0.00000000E+00  0.00000000E+00  0.00000000E+00  0.00000000E+00
  0.00000000E+00  0.00000000E+00  0.00000000E+00  0.00000000E+00  0.00000000E+00
  0.00000000E+00  0.00000000E+00  0.00000000E+00  0.00000000E+00  0.00000000E+00
  0.00000000E+00  0.00000000E+00  0.00000000E+00  0.00000000E+00  0.00000000E+00
  0.00000000E+00  0.00000000E+00  0.00000000E+00  0.00000000E+00  0.00000000E+00
  0.00000000E+00  0.00000000E+00  0.00000000E+00  0.00000000E+00  0.00000000E+00
  0.00000000E+00  0.00000000E+00  0.00000000E+00  0.00000000E+00  0.00000000E+00
  0.00000000E+00  0.00000000E+00  0.00000000E+00  0.00000000E+00  0.00000000E+00
  0.00000000E+00  0.00000000E+00  0.00000000E+00  0.00000000E+00  0.00000000E+00
  0.00000000E+00  0.00000000E+00  0.00000000E+00  0.00000000E+00  0.00000000E+00
  0.00000000E+00  0.00000000E+00  0.00000000E+00  0.00000000E+00  0.00000000E+00
  0.00000000E+00  0.00000000E+00  0.00000000E+00  0.00000000E+00  0.00000000E+00
  0.00000000E+00  0.00000000E+00  0.00000000E+00  0.00000000E+00  0.00000000E+00
  0.00000000E+00  0.00000000E+00  0.00000000E+00  0.00000000E+00  0.00000000E+00
  0.00000000E+00  0.00000000E+00  0.00000000E+00  0.00000000E+00  0.00000000E+00
  0.00000000E+00  0.00000000E+00  0.00000000E+00  0.00000000E+00  0.00000000E+00
  0.00000000E+00  0.00000000E+00  0.00000000E+00  0.00000000E+00  0.00000000E+00
  0.00000000E+00  0.00000000E+00  0.00000000E+00  0.00000000E+00  0.00000000E+00
  0.00000000E+00  0.00000000E+00  0.00000000E+00  0.00000000E+00  0.00000000E+00
  0.00000000E+00  0.00000000E+00  0.00000000E+00  0.00000000E+00  0.00000000E+00
  0.00000000E+00  0.00000000E+00  0.00000000E+00  0.00000000E+00  0.00000000E+00
  0.00000000E+00  0.00000000E+00  0.00000000E+00  0.00000000E+00  0.00000000E+00
  0.00000000E+00  0.00000000E+00  0.00000000E+00  0.00000000E+00  0.00000000E+00
  0.00000000E+00  0.00000000E+00  0.00000000E+00  0.00000000E+00  0.00000000E+00
  0.00000000E+00  0.00000000E+00  0.00000000E+00  0.00000000E+00  0.00000000E+00
  0.00000000E+00  0.00000000E+00  0.00000000E+00  0.00000000E+00  0.00000000E+00
  0.00000000E+00  0.00000000E+00  0.00000000E+00  0.00000000E+00  0.00000000E+00
  0.00000000E+00  0.00000000E+00  0.00000000E+00  0.00000000E+00  0.00000000E+00
  0.00000000E+00  0.00000000E+00  0.00000000E+00  0.00000000E+00  0.00000000E+00
  0.00000000E+00  0.00000000E+00  0.00000000E+00  0.00000000E+00  0.00000000E+00
  0.00000000E+00  0.00000000E+00  0.00000000E+00  0.00000000E+00  0.00000000E+00
  0.00000000E+00  0.00000000E+00  0.00000000E+00  0.00000000E+00  0.00000000E+00
  0.00000000E+00  0.00000000E+00  0.00000000E+00  0.00000000E+00  0.00000000E+00
  0.00000000E+00  0.00000000E+00  0.00000000E+00  0.00000000E+00  0.00000000E+00
  0.00000000E+00  0.00000000E+00  0.00000000E+00  0.00000000E+00  0.00000000E+00
  0.00000000E+00  0.00000000E+00  0.00000000E+00  0.00000000E+00  0.00000000E+00
  0.00000000E+00  0.00000000E+00  0.00000000E+00  0.00000000E+00  0.00000000E+00
  0.00000000E+00  0.00000000E+00  0.00000000E+00  0.00000000E+00  0.00000000E+00
  0.00000000E+00  0.00000000E+00  0.00000000E+00  0.00000000E+00  0.00000000E+00
  0.00000000E+00  0.00000000E+00  0.00000000E+00  0.00000000E+00  0.00000000E+00
  0.00000000E+00  0.00000000E+00  0.00000000E+00  0.00000000E+00  0.00000000E+00
  0.00000000E+00  0.00000000E+00  0.00000000E+00  0.00000000E+00  0.00000000E+00
  0.00000000E+00  0.00000000E+00  0.00000000E+00  0.00000000E+00  0.00000000E+00
  0.00000000E+00  0.00000000E+00  0.00000000E+00  0.00000000E+00  0.00000000E+00
  0.00000000E+00  0.00000000E+00  0.00000000E+00  0.00000000E+00  0.00000000E+00
  0.00000000E+00  0.00000000E+00  0.00000000E+00  0.00000000E+00  0.00000000E+00
  0.00000000E+00  0.00000000E+00  0.00000000E+00  0.00000000E+00  0.00000000E+00
  0.00000000E+00  0.00000000E+00  0.00000000E+00  0.00000000E+00  0.00000000E+00
  0.00000000E+00  0.00000000E+00  0.00000000E+00  0.00000000E+00  0.00000000E+00
  0.00000000E+00  0.00000000E+00  0.00000000E+00  0.00000000E+00  0.00000000E+00
  0.00000000E+00  0.00000000E+00  0.00000000E+00  0.00000000E+00  0.00000000E+00
  0.00000000E+00  0.00000000E+00  0.00000000E+00  0.00000000E+00  0.00000000E+00
  0.00000000E+00  0.00000000E+00  0.00000000E+00  0.00000000E+00  0.00000000E+00
  0.00000000E+00  0.00000000E+00  0.00000000E+00  0.00000000E+00  0.00000000E+00
  0.00000000E+00  0.00000000E+00  0.00000000E+00  0.00000000E+00  0.00000000E+00
  0.00000000E+00  0.00000000E+00  0.00000000E+00  0.00000000E+00  0.00000000E+00
  0.00000000E+00  0.00000000E+00  0.00000000E+00  0.00000000E+00  0.00000000E+00
  0.00000000E+00  0.00000000E+00  0.00000000E+00  0.00000000E+00  0.00000000E+00
  0.00000000E+00  0.00000000E+00  0.00000000E+00  0.00000000E+00  0.00000000E+00
Gaussian Version                           C   N=           2
AppleM1-GDVRevJ.32+     
