C2H2                                                                    
Freq      RB3LYP                                                      6-31G(d)            
Number of atoms                            I                4
Info1-9                                    I   N=           9
          14          13           0           0           0         100
           6          18        -502
Full Title                                 C   N=           1
C2H2        
Route                                      C   N=           5
#B3LYP 6-31G* freq=anharm symm=com output=pickett           
Point Group                                C   N=           2
C*V                     
Point Group NOp                            I                4
Point Group Abelian NOp                    I                4
Point Group NClass                         I                4
Point Group NIrrep                         I                4
Point Group NGen                           I                2
Point Group NOp symm assign                I                2
Point Group Irrep Names                    H   N=           4
A1      A2      B1      B2      
Point Group Class Names                    H   N=           4
E       C2      Sgm     Sgm'    
Point Group Generators                     I   N=           2
           2           3
Point Group Class of Operators             I   N=           4
           1           2           3           4
Point Group Rotations                      R   N=          48
  1.00000000E+00  0.00000000E+00  0.00000000E+00  0.00000000E+00  1.00000000E+00
  0.00000000E+00  0.00000000E+00  0.00000000E+00  1.00000000E+00  0.00000000E+00
  0.00000000E+00  0.00000000E+00 -1.00000000E+00 -1.22464680E-16  0.00000000E+00
  1.22464680E-16 -1.00000000E+00  0.00000000E+00  0.00000000E+00  0.00000000E+00
  1.00000000E+00  0.00000000E+00  0.00000000E+00  0.00000000E+00 -1.00000000E+00
  0.00000000E+00  0.00000000E+00  0.00000000E+00  1.00000000E+00  0.00000000E+00
  0.00000000E+00  0.00000000E+00  1.00000000E+00  0.00000000E+00  0.00000000E+00
  0.00000000E+00  1.00000000E+00 -1.22464680E-16  0.00000000E+00 -1.22464680E-16
 -1.00000000E+00  0.00000000E+00  0.00000000E+00  0.00000000E+00  1.00000000E+00
  0.00000000E+00  0.00000000E+00  0.00000000E+00
Point Group Cell Trans                     I   N=          12
           0           0           0           0           0           0
           0           0           0           0           0           0
Point Group Char Table                     R   N=          16
  1.00000000E+00  1.00000000E+00  1.00000000E+00  1.00000000E+00  1.00000000E+00
  1.00000000E+00 -1.00000000E+00 -1.00000000E+00  1.00000000E+00 -1.00000000E+00
 -1.00000000E+00  1.00000000E+00  1.00000000E+00 -1.00000000E+00  1.00000000E+00
 -1.00000000E+00
Point Group Atom Permutations              I   N=          16
           1           2           3           4           1           2
           3           4           1           2           3           4
           1           2           3           4
Charge                                     I                0
Multiplicity                               I                1
Number of electrons                        I               14
Number of alpha electrons                  I                7
Number of beta electrons                   I                7
Number of basis functions                  I               34
Number of independent functions            I               34
Number of point charges in /Mol/           I                0
Number of translation vectors              I                0
Atomic numbers                             I   N=           4
           1           6           6           1
Nuclear charges                            R   N=           4
  1.00000000E+00  6.00000000E+00  6.00000000E+00  1.00000000E+00
Current cartesian coordinates              R   N=          12
  0.00000000E+00  0.00000000E+00  3.27163117E+00  0.00000000E+00  0.00000000E+00
  1.25598692E+00  0.00000000E+00  0.00000000E+00 -1.02106881E+00  0.00000000E+00
  0.00000000E+00 -3.03671305E+00
Number of symbols in /Mol/                 I                0
Int Atom Types                             I   N=           4
           0           0           0           0
Force Field                                I                0
Atom Types                                 C   N=           4
                                                
MM charges                                 R   N=           4
  0.00000000E+00  0.00000000E+00  0.00000000E+00  0.00000000E+00
Integer atomic weights                     I   N=           4
           1          12          12           2
Real atomic weights                        R   N=           4
  1.00782504E+00  1.20000000E+01  1.20000000E+01  2.01410179E+00
Atom fragment info                         I   N=           4
           0           0           0           0
Atom residue num                           I   N=           4
           0           0           0           0
Nuclear spins                              I   N=           4
           1           0           0           2
Nuclear ZEff                               R   N=           4
 -1.00000000E+00 -3.60000000E+00 -3.60000000E+00 -1.00000000E+00
Nuclear ZNuc                               R   N=           4
  1.00000000E+00  6.00000000E+00  6.00000000E+00  1.00000000E+00
Nuclear QMom                               R   N=           4
  0.00000000E+00  0.00000000E+00  0.00000000E+00  2.86000000E-01
Nuclear GFac                               R   N=           4
  2.79284600E+00  0.00000000E+00  0.00000000E+00  8.57438000E-01
MicOpt                                     I   N=           4
          -1          -1          -1          -1
Number of residues                         I                0
Number of secondary structures             I                0
SymInf integers                            I   N=          26
           1           4           1           1           1          -1
          -1           1          -1           1           1           1
          -1           1           0           0           0           0
           0           0           0           0           0           0
           0           0
RotTr to input orientation                 R   N=          12
  1.00000000E+00  0.00000000E+00  0.00000000E+00  0.00000000E+00  1.00000000E+00
  0.00000000E+00  0.00000000E+00  0.00000000E+00  1.00000000E+00  9.07096648E-17
  0.00000000E+00 -1.17459058E-01
Number of contracted shells                I               12
Number of primitive shells                 I               30
Pure/Cartesian d shells                    I                1
Pure/Cartesian f shells                    I                0
Highest angular momentum                   I                2
Largest degree of contraction              I                6
Shell types                                I   N=          12
           0           0           0          -1          -1           2
           0          -1          -1           2           0           0
Number of primitives per shell             I   N=          12
           3           1           6           3           1           1
           6           3           1           1           3           1
Shell to atom map                          I   N=          12
           1           1           2           2           2           2
           3           3           3           3           4           4
Primitive exponents                        R   N=          30
  1.87311370E+01  2.82539436E+00  6.40121692E-01  1.61277759E-01  3.04752488E+03
  4.57369518E+02  1.03948685E+02  2.92101553E+01  9.28666296E+00  3.16392696E+00
  7.86827235E+00  1.88128854E+00  5.44249258E-01  1.68714478E-01  8.00000000E-01
  3.04752488E+03  4.57369518E+02  1.03948685E+02  2.92101553E+01  9.28666296E+00
  3.16392696E+00  7.86827235E+00  1.88128854E+00  5.44249258E-01  1.68714478E-01
  8.00000000E-01  1.87311370E+01  2.82539436E+00  6.40121692E-01  1.61277759E-01
Contraction coefficients                   R   N=          30
  3.34946043E-02  2.34726953E-01  8.13757326E-01  1.00000000E+00  1.83473713E-03
  1.40373228E-02  6.88426223E-02  2.32184443E-01  4.67941348E-01  3.62311985E-01
 -1.19332420E-01 -1.60854152E-01  1.14345644E+00  1.00000000E+00  1.00000000E+00
  1.83473713E-03  1.40373228E-02  6.88426223E-02  2.32184443E-01  4.67941348E-01
  3.62311985E-01 -1.19332420E-01 -1.60854152E-01  1.14345644E+00  1.00000000E+00
  1.00000000E+00  3.34946043E-02  2.34726953E-01  8.13757326E-01  1.00000000E+00
P(S=P) Contraction coefficients            R   N=          30
  0.00000000E+00  0.00000000E+00  0.00000000E+00  0.00000000E+00  0.00000000E+00
  0.00000000E+00  0.00000000E+00  0.00000000E+00  0.00000000E+00  0.00000000E+00
  6.89990666E-02  3.16423961E-01  7.44308291E-01  1.00000000E+00  0.00000000E+00
  0.00000000E+00  0.00000000E+00  0.00000000E+00  0.00000000E+00  0.00000000E+00
  0.00000000E+00  6.89990666E-02  3.16423961E-01  7.44308291E-01  1.00000000E+00
  0.00000000E+00  0.00000000E+00  0.00000000E+00  0.00000000E+00  0.00000000E+00
Coordinates of each shell                  R   N=          36
  0.00000000E+00  0.00000000E+00  3.27163117E+00  0.00000000E+00  0.00000000E+00
  3.27163117E+00  0.00000000E+00  0.00000000E+00  1.25598692E+00  0.00000000E+00
  0.00000000E+00  1.25598692E+00  0.00000000E+00  0.00000000E+00  1.25598692E+00
  0.00000000E+00  0.00000000E+00  1.25598692E+00  0.00000000E+00  0.00000000E+00
 -1.02106881E+00  0.00000000E+00  0.00000000E+00 -1.02106881E+00  0.00000000E+00
  0.00000000E+00 -1.02106881E+00  0.00000000E+00  0.00000000E+00 -1.02106881E+00
  0.00000000E+00  0.00000000E+00 -3.03671305E+00  0.00000000E+00  0.00000000E+00
 -3.03671305E+00
Constraint Structure                       R   N=          12
 -9.07096648E-17  0.00000000E+00  3.27163117E+00 -9.07096648E-17  0.00000000E+00
  1.25598692E+00 -9.07096648E-17  0.00000000E+00 -1.02106881E+00 -9.07096648E-17
  0.00000000E+00 -3.03671305E+00
Constraint Force Constants                 R   N=          12
  0.00000000E+00  0.00000000E+00  0.00000000E+00  0.00000000E+00  0.00000000E+00
  0.00000000E+00  0.00000000E+00  0.00000000E+00  0.00000000E+00  0.00000000E+00
  0.00000000E+00  0.00000000E+00
Num ILSW                                   I              100
ILSW                                       I   N=         100
           0           1           0           1           2           0
           0           0           0           0        4002          -1
           5           0           0           0           2          -1
           0           0           0           0           1           0
           1           0           0           0           0           0
           0           0      100000           0          -1           0
           0           0           0           0           0           0
           0           0           0           1           0           0
           0 -2000000000           1           0           0           0
           0           0        2004          68           0           0
           0           0           5           0           0           0
           0           0           0           0           0           1
           0           0           0           0           0           0
           0           0           0           0           0           0
           0           0           0           0           0           0
           0           0           1           0           0           0
           0           0           0           0
Num RLSW                                   I               68
RLSW                                       R   N=          68
  8.00000000E-01  7.20000000E-01  1.00000000E+00  8.10000000E-01  2.00000000E-01
  0.00000000E+00  0.00000000E+00  1.00000000E+00  0.00000000E+00  0.00000000E+00
  0.00000000E+00  0.00000000E+00  1.00000000E+00  0.00000000E+00  0.00000000E+00
  0.00000000E+00  0.00000000E+00  1.00000000E+00  0.00000000E+00  0.00000000E+00
  0.00000000E+00  0.00000000E+00  1.00000000E+00  0.00000000E+00  0.00000000E+00
  0.00000000E+00  0.00000000E+00  1.00000000E+00  0.00000000E+00  0.00000000E+00
  0.00000000E+00  0.00000000E+00  1.00000000E+00  0.00000000E+00  0.00000000E+00
  0.00000000E+00  0.00000000E+00  0.00000000E+00  1.00000000E+00  1.00000000E+00
  0.00000000E+00  1.00000000E+00  0.00000000E+00  0.00000000E+00  0.00000000E+00
  0.00000000E+00  0.00000000E+00  0.00000000E+00  0.00000000E+00  0.00000000E+00
  0.00000000E+00  0.00000000E+00  1.00000000E+00  1.00000000E+00  1.00000000E+00
  1.00000000E+00  1.00000000E+00  1.00000000E+00  0.00000000E+00  0.00000000E+00
  0.00000000E+00  0.00000000E+00  0.00000000E+00  0.00000000E+00  0.00000000E+00
  0.00000000E+00  2.00000000E-10  3.00000000E-02
MxBond                                     I                2
NBond                                      I   N=           4
           1           2           2           1
IBond                                      I   N=           8
           2           0           1           3           2           4
           3           0
RBond                                      R   N=           8
  1.00000000E+00  0.00000000E+00  1.00000000E+00  3.00000000E+00  3.00000000E+00
  1.00000000E+00  1.00000000E+00  0.00000000E+00
Virial Ratio                               R      2.010303969281300E+00
SCF Energy                                 R     -7.732564599909907E+01
Total Energy                               R     -7.732564599909907E+01
RMS Force                                  R      5.555167283880198E-07
RMS Density                                R      5.751979653442917E-09
NImag                                      I                0
Zero-point Energy                          R      2.384967129433867E-02
Job Status                                 I                1
Nuclear derivative order                   I                3
Energy with zero-point                     R     -7.730179632780472E+01
Thermal Energy                             R     -7.729870885302090E+01
Thermal Enthalpy                           R     -7.729776466820726E+01
Thermal Free Energy                        R     -7.732177519357542E+01
External E-field                           R   N=         105
  0.00000000E+00  0.00000000E+00  0.00000000E+00  0.00000000E+00  0.00000000E+00
  0.00000000E+00  0.00000000E+00  0.00000000E+00  0.00000000E+00  0.00000000E+00
  0.00000000E+00  0.00000000E+00  0.00000000E+00  0.00000000E+00  0.00000000E+00
  0.00000000E+00  0.00000000E+00  0.00000000E+00  0.00000000E+00  0.00000000E+00
  0.00000000E+00  0.00000000E+00  0.00000000E+00  0.00000000E+00  0.00000000E+00
  0.00000000E+00  0.00000000E+00  0.00000000E+00  0.00000000E+00  0.00000000E+00
  0.00000000E+00  0.00000000E+00  0.00000000E+00  0.00000000E+00  0.00000000E+00
  0.00000000E+00  0.00000000E+00  0.00000000E+00  0.00000000E+00  0.00000000E+00
  0.00000000E+00  0.00000000E+00  0.00000000E+00  0.00000000E+00  0.00000000E+00
  0.00000000E+00  0.00000000E+00  0.00000000E+00  0.00000000E+00  0.00000000E+00
  0.00000000E+00  0.00000000E+00  0.00000000E+00  0.00000000E+00  0.00000000E+00
  0.00000000E+00  0.00000000E+00  0.00000000E+00  0.00000000E+00  0.00000000E+00
  0.00000000E+00  0.00000000E+00  0.00000000E+00  0.00000000E+00  0.00000000E+00
  0.00000000E+00  0.00000000E+00  0.00000000E+00  0.00000000E+00  0.00000000E+00
  0.00000000E+00  0.00000000E+00  0.00000000E+00  0.00000000E+00  0.00000000E+00
  0.00000000E+00  0.00000000E+00  0.00000000E+00  0.00000000E+00  0.00000000E+00
  0.00000000E+00  0.00000000E+00  0.00000000E+00  0.00000000E+00  0.00000000E+00
  0.00000000E+00  0.00000000E+00  0.00000000E+00  0.00000000E+00  0.00000000E+00
  0.00000000E+00  0.00000000E+00  0.00000000E+00  0.00000000E+00  0.00000000E+00
  0.00000000E+00  0.00000000E+00  0.00000000E+00  0.00000000E+00  0.00000000E+00
  0.00000000E+00  0.00000000E+00  0.00000000E+00  0.00000000E+00  0.00000000E+00
IOpCl                                      I                0
IROHF                                      I                0
Alpha Orbital Energies                     R   N=          34
 -1.01921681E+01 -1.01896359E+01 -7.42638332E-01 -5.67164810E-01 -4.92807135E-01
 -2.81802095E-01 -2.81802095E-01  5.18180582E-02  5.18180582E-02  1.07236575E-01
  1.50544323E-01  4.25935954E-01  4.70558854E-01  5.33135492E-01  5.33135492E-01
  6.53979984E-01  6.53979984E-01  7.47092521E-01  8.26431661E-01  1.03167187E+00
  1.21933525E+00  1.50487207E+00  1.50487207E+00  1.50793432E+00  1.54947955E+00
  1.54947957E+00  1.94272712E+00  1.94272714E+00  2.43554171E+00  2.48481280E+00
  2.48481280E+00  3.19325058E+00  4.13707868E+00  4.33518957E+00
Alpha MO coefficients                      R   N=        1156
 -7.70701892E-04  1.35637287E-03  7.01462477E-01  3.38612424E-02  0.00000000E+00
  0.00000000E+00  3.76890025E-04 -4.05607093E-03  0.00000000E+00  0.00000000E+00
 -5.52205971E-04 -7.45251561E-03 -7.45251561E-03 -6.12883182E-03  0.00000000E+00
  0.00000000E+00  0.00000000E+00  7.01462477E-01  3.38612424E-02  0.00000000E+00
  0.00000000E+00 -3.76890025E-04 -4.05607092E-03  0.00000000E+00  0.00000000E+00
  5.52205973E-04 -7.45251560E-03 -7.45251560E-03 -6.12883182E-03  0.00000000E+00
  0.00000000E+00  0.00000000E+00 -7.70701892E-04  1.35637287E-03 -8.05476026E-04
 -2.93574451E-04  7.02274175E-01  3.55278029E-02  0.00000000E+00  0.00000000E+00
 -6.06153637E-04 -1.65754411E-02  0.00000000E+00  0.00000000E+00  6.67011571E-03
 -6.99414172E-03 -6.99414172E-03 -6.00262332E-03  0.00000000E+00  0.00000000E+00
  0.00000000E+00 -7.02274175E-01 -3.55278029E-02  0.00000000E+00  0.00000000E+00
 -6.06153637E-04  1.65754411E-02  0.00000000E+00  0.00000000E+00  6.67011571E-03
  6.99414172E-03  6.99414172E-03  6.00262332E-03  0.00000000E+00  0.00000000E+00
  0.00000000E+00  8.05476026E-04  2.93574451E-04  7.69534331E-02 -8.71981931E-03
 -1.74823192E-01  3.29856351E-01  0.00000000E+00  0.00000000E+00 -1.42539334E-01
  2.56366914E-01  0.00000000E+00  0.00000000E+00  2.51183454E-02 -1.65031420E-02
 -1.65031420E-02  1.48028235E-02  0.00000000E+00  0.00000000E+00  0.00000000E+00
 -1.74823192E-01  3.29856351E-01  0.00000000E+00  0.00000000E+00  1.42539334E-01
  2.56366914E-01  0.00000000E+00  0.00000000E+00 -2.51183454E-02 -1.65031420E-02
 -1.65031420E-02  1.48028235E-02  0.00000000E+00  0.00000000E+00  0.00000000E+00
  7.69534331E-02 -8.71981931E-03  2.15896788E-01  1.20397084E-01 -1.12420040E-01
  2.28006460E-01  0.00000000E+00  0.00000000E+00  2.04715018E-01  2.11012965E-01
  0.00000000E+00  0.00000000E+00  6.35784060E-02 -1.15309924E-02 -1.15309924E-02
  2.17865120E-02  0.00000000E+00  0.00000000E+00  0.00000000E+00  1.12420040E-01
 -2.28006460E-01  0.00000000E+00  0.00000000E+00  2.04715018E-01 -2.11012965E-01
  0.00000000E+00  0.00000000E+00  6.35784060E-02  1.15309924E-02  1.15309924E-02
 -2.17865120E-02  0.00000000E+00  0.00000000E+00  0.00000000E+00 -2.15896788E-01
 -1.20397084E-01  2.23400982E-01  1.89513998E-01  4.15704656E-03  2.43728085E-03
  0.00000000E+00  0.00000000E+00  3.92613959E-01  7.49259284E-03  0.00000000E+00
  0.00000000E+00  6.15285922E-02  1.45194143E-03  1.45194143E-03  1.19260148E-02
  0.00000000E+00  0.00000000E+00  0.00000000E+00  4.15704656E-03  2.43728085E-03
  0.00000000E+00  0.00000000E+00 -3.92613959E-01  7.49259284E-03  0.00000000E+00
  0.00000000E+00 -6.15285922E-02  1.45194143E-03  1.45194143E-03  1.19260148E-02
  0.00000000E+00  0.00000000E+00  0.00000000E+00  2.23400982E-01  1.89513998E-01
  0.00000000E+00  0.00000000E+00  0.00000000E+00  0.00000000E+00  4.18878402E-01
  0.00000000E+00  0.00000000E+00  0.00000000E+00  2.54429507E-01  0.00000000E+00
  0.00000000E+00  0.00000000E+00  0.00000000E+00  0.00000000E+00  0.00000000E+00
 -1.63519177E-02  0.00000000E+00  0.00000000E+00  0.00000000E+00  4.18878402E-01
  0.00000000E+00  0.00000000E+00  0.00000000E+00  2.54429507E-01  0.00000000E+00
  0.00000000E+00  0.00000000E+00  0.00000000E+00  0.00000000E+00  0.00000000E+00
  1.63519177E-02  0.00000000E+00  0.00000000E+00  0.00000000E+00  0.00000000E+00
  0.00000000E+00  0.00000000E+00  0.00000000E+00  0.00000000E+00  4.18878402E-01
  0.00000000E+00  0.00000000E+00  0.00000000E+00  2.54429507E-01  0.00000000E+00
  0.00000000E+00  0.00000000E+00  0.00000000E+00  0.00000000E+00  0.00000000E+00
 -1.63519177E-02  0.00000000E+00  0.00000000E+00  0.00000000E+00  4.18878402E-01
  0.00000000E+00  0.00000000E+00  0.00000000E+00  2.54429507E-01  0.00000000E+00
  0.00000000E+00  0.00000000E+00  0.00000000E+00  0.00000000E+00  0.00000000E+00
  1.63519177E-02  0.00000000E+00  0.00000000E+00  0.00000000E+00  0.00000000E+00
  0.00000000E+00  0.00000000E+00  4.13497890E-01  0.00000000E+00  0.00000000E+00
  0.00000000E+00  7.06321296E-01  0.00000000E+00  0.00000000E+00  0.00000000E+00
  0.00000000E+00  0.00000000E+00  0.00000000E+00  3.44147397E-02  0.00000000E+00
  0.00000000E+00  0.00000000E+00 -4.13497890E-01  0.00000000E+00  0.00000000E+00
  0.00000000E+00 -7.06321296E-01  0.00000000E+00  0.00000000E+00  0.00000000E+00
  0.00000000E+00  0.00000000E+00  0.00000000E+00  3.44147397E-02  0.00000000E+00
  0.00000000E+00  0.00000000E+00  0.00000000E+00  0.00000000E+00  0.00000000E+00
  0.00000000E+00  0.00000000E+00  4.13497890E-01  0.00000000E+00  0.00000000E+00
  0.00000000E+00  7.06321296E-01  0.00000000E+00  0.00000000E+00  0.00000000E+00
  0.00000000E+00  0.00000000E+00  0.00000000E+00  3.44147397E-02  0.00000000E+00
  0.00000000E+00  0.00000000E+00 -4.13497890E-01  0.00000000E+00  0.00000000E+00
  0.00000000E+00 -7.06321296E-01  0.00000000E+00  0.00000000E+00  0.00000000E+00
  0.00000000E+00  0.00000000E+00  0.00000000E+00  3.44147397E-02  0.00000000E+00
  0.00000000E+00  1.33367356E-01  1.78234073E+00  1.01693410E-01 -2.38216379E-01
  0.00000000E+00  0.00000000E+00 -9.17847572E-02  3.11452666E-01  0.00000000E+00
  0.00000000E+00 -1.62017157E+00 -7.02032409E-03 -7.02032409E-03  2.73982622E-02
  0.00000000E+00  0.00000000E+00  0.00000000E+00 -1.01693410E-01  2.38216379E-01
  0.00000000E+00  0.00000000E+00 -9.17847572E-02 -3.11452666E-01  0.00000000E+00
  0.00000000E+00 -1.62017157E+00  7.02032409E-03  7.02032409E-03 -2.73982622E-02
  0.00000000E+00  0.00000000E+00  0.00000000E+00 -1.33367356E-01 -1.78234073E+00
  6.76258908E-02  1.60366422E+00  4.91717971E-02 -3.18893504E-02  0.00000000E+00
  0.00000000E+00 -3.11981820E-01 -1.29035065E+00  0.00000000E+00  0.00000000E+00
 -7.44383471E-01 -2.93081571E-04 -2.93081571E-04  1.10455115E-02  0.00000000E+00
  0.00000000E+00  0.00000000E+00  4.91717971E-02 -3.18893504E-02  0.00000000E+00
  0.00000000E+00  3.11981820E-01 -1.29035065E+00  0.00000000E+00  0.00000000E+00
  7.44383471E-01 -2.93081571E-04 -2.93081571E-04  1.10455115E-02  0.00000000E+00
  0.00000000E+00  0.00000000E+00  6.76258908E-02  1.60366422E+00 -3.90364599E-01
  2.25477488E+00 -1.12044235E-01 -5.89490006E-02  0.00000000E+00  0.00000000E+00
 -2.25159299E-01  6.27352201E+00  0.00000000E+00  0.00000000E+00 -4.91861535E+00
  5.49756944E-03  5.49756944E-03 -7.65792939E-02  0.00000000E+00  0.00000000E+00
  0.00000000E+00  1.12044235E-01  5.89490006E-02  0.00000000E+00  0.00000000E+00
 -2.25159299E-01 -6.27352201E+00  0.00000000E+00  0.00000000E+00 -4.91861535E+00
 -5.49756944E-03 -5.49756944E-03  7.65792939E-02  0.00000000E+00  0.00000000E+00
  0.00000000E+00  3.90364599E-01 -2.25477488E+00  3.87451396E-01 -6.64278547E-01
  5.93011079E-03  7.10693965E-01  0.00000000E+00  0.00000000E+00 -1.89697610E-01
 -3.41482102E-01  0.00000000E+00  0.00000000E+00  5.90830218E-01  1.92848572E-02
  1.92848572E-02  1.15252017E-01  0.00000000E+00  0.00000000E+00  0.00000000E+00
  5.93011079E-03  7.10693965E-01  0.00000000E+00  0.00000000E+00  1.89697610E-01
 -3.41482102E-01  0.00000000E+00  0.00000000E+00 -5.90830218E-01  1.92848572E-02
  1.92848572E-02  1.15252017E-01  0.00000000E+00  0.00000000E+00  0.00000000E+00
  3.87451396E-01 -6.64278547E-01  0.00000000E+00  0.00000000E+00  0.00000000E+00
  0.00000000E+00  6.96437183E-01  0.00000000E+00  0.00000000E+00  0.00000000E+00
 -6.49450982E-01  0.00000000E+00  0.00000000E+00  0.00000000E+00  0.00000000E+00
  0.00000000E+00  0.00000000E+00 -6.03370794E-02  0.00000000E+00  0.00000000E+00
  0.00000000E+00  6.96437183E-01  0.00000000E+00  0.00000000E+00  0.00000000E+00
 -6.49450982E-01  0.00000000E+00  0.00000000E+00  0.00000000E+00  0.00000000E+00
  0.00000000E+00  0.00000000E+00  6.03370794E-02  0.00000000E+00  0.00000000E+00
  0.00000000E+00  0.00000000E+00  0.00000000E+00  0.00000000E+00  0.00000000E+00
  0.00000000E+00  6.96437183E-01  0.00000000E+00  0.00000000E+00  0.00000000E+00
 -6.49450982E-01  0.00000000E+00  0.00000000E+00  0.00000000E+00  0.00000000E+00
  0.00000000E+00  0.00000000E+00 -6.03370794E-02  0.00000000E+00  0.00000000E+00
  0.00000000E+00  6.96437183E-01  0.00000000E+00  0.00000000E+00  0.00000000E+00
 -6.49450982E-01  0.00000000E+00  0.00000000E+00  0.00000000E+00  0.00000000E+00
  0.00000000E+00  0.00000000E+00  6.03370794E-02  0.00000000E+00  0.00000000E+00
  0.00000000E+00  0.00000000E+00  0.00000000E+00  0.00000000E+00 -7.97494523E-01
  0.00000000E+00  0.00000000E+00  0.00000000E+00  1.20521252E+00  0.00000000E+00
  0.00000000E+00  0.00000000E+00  0.00000000E+00  0.00000000E+00  0.00000000E+00
 -3.92525427E-02  0.00000000E+00  0.00000000E+00  0.00000000E+00  7.97494523E-01
  0.00000000E+00  0.00000000E+00  0.00000000E+00 -1.20521252E+00  0.00000000E+00
  0.00000000E+00  0.00000000E+00  0.00000000E+00  0.00000000E+00  0.00000000E+00
 -3.92525427E-02  0.00000000E+00  0.00000000E+00  0.00000000E+00  0.00000000E+00
  0.00000000E+00  0.00000000E+00  0.00000000E+00  0.00000000E+00 -7.97494523E-01
  0.00000000E+00  0.00000000E+00  0.00000000E+00  1.20521252E+00  0.00000000E+00
  0.00000000E+00  0.00000000E+00  0.00000000E+00  0.00000000E+00  0.00000000E+00
 -3.92525427E-02  0.00000000E+00  0.00000000E+00  0.00000000E+00  7.97494523E-01
  0.00000000E+00  0.00000000E+00  0.00000000E+00 -1.20521252E+00  0.00000000E+00
  0.00000000E+00  0.00000000E+00  0.00000000E+00  0.00000000E+00  0.00000000E+00
 -3.92525427E-02  0.00000000E+00  0.00000000E+00 -1.80682343E-01 -2.71801316E+00
  2.92813932E-02 -6.35636006E-01  0.00000000E+00  0.00000000E+00 -4.42704615E-01
 -4.63186232E+00  0.00000000E+00  0.00000000E+00  5.91143507E+00 -1.16893472E-02
 -1.16893472E-02 -1.86783122E-01  0.00000000E+00  0.00000000E+00  0.00000000E+00
 -2.92813932E-02  6.35636006E-01  0.00000000E+00  0.00000000E+00 -4.42704615E-01
  4.63186232E+00  0.00000000E+00  0.00000000E+00  5.91143507E+00  1.16893472E-02
  1.16893472E-02  1.86783122E-01  0.00000000E+00  0.00000000E+00  0.00000000E+00
  1.80682343E-01  2.71801316E+00  1.24435463E-01 -2.11209920E+00  1.83250158E-02
 -6.37208446E-01  0.00000000E+00  0.00000000E+00 -6.44669311E-01  2.44397643E+00
  0.00000000E+00  0.00000000E+00  2.17425483E+00 -6.80195718E-02 -6.80195718E-02
 -1.06396655E-02  0.00000000E+00  0.00000000E+00  0.00000000E+00  1.83250158E-02
 -6.37208446E-01  0.00000000E+00  0.00000000E+00  6.44669311E-01  2.44397643E+00
  0.00000000E+00  0.00000000E+00 -2.17425483E+00 -6.80195718E-02 -6.80195718E-02
 -1.06396655E-02  0.00000000E+00  0.00000000E+00  0.00000000E+00  1.24435463E-01
 -2.11209920E+00 -8.55506212E-01 -3.17744880E-01 -1.16798020E-02  5.85209290E-01
  0.00000000E+00  0.00000000E+00 -1.14200328E-01  4.18016442E-01  0.00000000E+00
  0.00000000E+00  1.37315837E+00  5.02791072E-02  5.02791072E-02 -4.11075799E-02
  0.00000000E+00  0.00000000E+00  0.00000000E+00 -1.16798020E-02  5.85209290E-01
  0.00000000E+00  0.00000000E+00  1.14200328E-01  4.18016442E-01  0.00000000E+00
  0.00000000E+00 -1.37315837E+00  5.02791072E-02  5.02791072E-02 -4.11075799E-02
  0.00000000E+00  0.00000000E+00  0.00000000E+00 -8.55506212E-01 -3.17744880E-01
 -6.06729359E-01  6.59859274E-01  2.30406753E-02 -7.56887282E-01  0.00000000E+00
  0.00000000E+00  8.70171214E-01  2.41732604E+00  0.00000000E+00  0.00000000E+00
 -1.48048339E+00 -9.60678160E-02 -9.60678160E-02  1.72971476E-01  0.00000000E+00
  0.00000000E+00  0.00000000E+00 -2.30406753E-02  7.56887282E-01  0.00000000E+00
  0.00000000E+00  8.70171214E-01 -2.41732604E+00  0.00000000E+00  0.00000000E+00
 -1.48048339E+00  9.60678160E-02  9.60678160E-02 -1.72971476E-01  0.00000000E+00
  0.00000000E+00  0.00000000E+00  6.06729359E-01 -6.59859274E-01  7.91153874E-01
  2.60406819E+00 -4.78191626E-02 -1.30404922E+00  0.00000000E+00  0.00000000E+00
 -8.79613805E-02  1.46201418E+01  0.00000000E+00  0.00000000E+00 -1.02499926E+01
 -9.96193345E-02 -9.96193345E-02  2.79651624E-01  0.00000000E+00  0.00000000E+00
  0.00000000E+00  4.78191626E-02  1.30404922E+00  0.00000000E+00  0.00000000E+00
 -8.79613805E-02 -1.46201418E+01  0.00000000E+00  0.00000000E+00 -1.02499926E+01
  9.96193345E-02  9.96193345E-02 -2.79651624E-01  0.00000000E+00  0.00000000E+00
  0.00000000E+00 -7.91153874E-01 -2.60406819E+00  0.00000000E+00  0.00000000E+00
  0.00000000E+00  0.00000000E+00  2.24312198E-01  0.00000000E+00  0.00000000E+00
  0.00000000E+00 -6.81088601E-02  0.00000000E+00  0.00000000E+00  0.00000000E+00
  0.00000000E+00  0.00000000E+00  0.00000000E+00  6.08143489E-01  0.00000000E+00
  0.00000000E+00  0.00000000E+00  2.24312198E-01  0.00000000E+00  0.00000000E+00
  0.00000000E+00 -6.81088601E-02  0.00000000E+00  0.00000000E+00  0.00000000E+00
  0.00000000E+00  0.00000000E+00  0.00000000E+00 -6.08143489E-01  0.00000000E+00
  0.00000000E+00  0.00000000E+00  0.00000000E+00  0.00000000E+00  0.00000000E+00
  0.00000000E+00  0.00000000E+00  2.24312198E-01  0.00000000E+00  0.00000000E+00
  0.00000000E+00 -6.81088601E-02  0.00000000E+00  0.00000000E+00  0.00000000E+00
  0.00000000E+00  0.00000000E+00  0.00000000E+00  6.08143489E-01  0.00000000E+00
  0.00000000E+00  0.00000000E+00  2.24312198E-01  0.00000000E+00  0.00000000E+00
  0.00000000E+00 -6.81088601E-02  0.00000000E+00  0.00000000E+00  0.00000000E+00
  0.00000000E+00  0.00000000E+00  0.00000000E+00 -6.08143489E-01  0.00000000E+00
  0.00000000E+00 -3.83941479E-14 -1.57885462E-13  2.19508069E-15  6.62629606E-14
  0.00000000E+00  0.00000000E+00 -8.74201894E-16 -7.51647316E-13  0.00000000E+00
  0.00000000E+00  5.55815506E-13  5.77175114E-01 -5.77175114E-01 -1.41751644E-14
  0.00000000E+00  0.00000000E+00  0.00000000E+00 -3.49961088E-15 -7.19621975E-14
  0.00000000E+00  0.00000000E+00  5.63010760E-15  8.00406272E-13  0.00000000E+00
  0.00000000E+00  5.22073349E-13  5.77175114E-01 -5.77175114E-01  1.15612357E-14
  0.00000000E+00  0.00000000E+00  0.00000000E+00  4.30690903E-14  1.12014554E-13
  0.00000000E+00  0.00000000E+00  0.00000000E+00  0.00000000E+00  0.00000000E+00
  0.00000000E+00  0.00000000E+00  0.00000000E+00  0.00000000E+00  0.00000000E+00
  0.00000000E+00  0.00000000E+00  0.00000000E+00  0.00000000E+00  6.66464415E-01
  0.00000000E+00  0.00000000E+00  0.00000000E+00  0.00000000E+00  0.00000000E+00
  0.00000000E+00  0.00000000E+00  0.00000000E+00  0.00000000E+00  0.00000000E+00
  0.00000000E+00  0.00000000E+00  0.00000000E+00  0.00000000E+00  6.66464415E-01
  0.00000000E+00  0.00000000E+00  0.00000000E+00  0.00000000E+00  1.87193026E-14
  9.80586004E-14 -5.22925809E-16 -4.37344174E-14  0.00000000E+00  0.00000000E+00
  7.93184362E-15  4.31552528E-13  0.00000000E+00  0.00000000E+00 -3.26434366E-13
  6.54909289E-01 -6.54909289E-01  8.40828725E-15  0.00000000E+00  0.00000000E+00
  0.00000000E+00  2.61280271E-15  3.42052489E-14  0.00000000E+00  0.00000000E+00
  6.53008888E-15 -4.50021871E-13  0.00000000E+00  0.00000000E+00 -3.16028619E-13
 -6.54909289E-01  6.54909289E-01 -2.77697586E-15  0.00000000E+00  0.00000000E+00
  0.00000000E+00 -1.62341283E-14 -8.67056513E-14  0.00000000E+00  0.00000000E+00
  0.00000000E+00  0.00000000E+00  0.00000000E+00  0.00000000E+00  0.00000000E+00
  0.00000000E+00  0.00000000E+00  0.00000000E+00  0.00000000E+00  0.00000000E+00
  0.00000000E+00  0.00000000E+00  7.56224109E-01  0.00000000E+00  0.00000000E+00
  0.00000000E+00  0.00000000E+00  0.00000000E+00  0.00000000E+00  0.00000000E+00
  0.00000000E+00  0.00000000E+00  0.00000000E+00  0.00000000E+00  0.00000000E+00
  0.00000000E+00  0.00000000E+00 -7.56224109E-01  0.00000000E+00  0.00000000E+00
  0.00000000E+00  0.00000000E+00  4.64152898E-01 -3.75268728E-01  1.07884493E-01
 -1.56267249E-02  0.00000000E+00  0.00000000E+00 -3.55704933E-01 -1.53845989E-01
  0.00000000E+00  0.00000000E+00  4.40298205E-01  6.14542902E-01  6.14542902E-01
 -5.66897893E-01  0.00000000E+00  0.00000000E+00  0.00000000E+00  1.07884493E-01
 -1.56267249E-02  0.00000000E+00  0.00000000E+00  3.55704933E-01 -1.53845989E-01
  0.00000000E+00  0.00000000E+00 -4.40298205E-01  6.14542902E-01  6.14542902E-01
 -5.66897893E-01  0.00000000E+00  0.00000000E+00  0.00000000E+00  4.64152898E-01
 -3.75268728E-01  0.00000000E+00  0.00000000E+00  0.00000000E+00  0.00000000E+00
 -2.48426046E-01  0.00000000E+00  0.00000000E+00  0.00000000E+00 -3.05216588E-01
  0.00000000E+00  0.00000000E+00  0.00000000E+00  0.00000000E+00  0.00000000E+00
  0.00000000E+00  1.00303045E+00  0.00000000E+00  0.00000000E+00  0.00000000E+00
  2.48426046E-01  0.00000000E+00  0.00000000E+00  0.00000000E+00  3.05216588E-01
  0.00000000E+00  0.00000000E+00  0.00000000E+00  0.00000000E+00  0.00000000E+00
  0.00000000E+00  1.00303045E+00  0.00000000E+00  0.00000000E+00  0.00000000E+00
  0.00000000E+00  0.00000000E+00  0.00000000E+00  0.00000000E+00  0.00000000E+00
 -2.48426046E-01  0.00000000E+00  0.00000000E+00  0.00000000E+00 -3.05216588E-01
  0.00000000E+00  0.00000000E+00  0.00000000E+00  0.00000000E+00  0.00000000E+00
  0.00000000E+00  1.00303045E+00  0.00000000E+00  0.00000000E+00  0.00000000E+00
  2.48426046E-01  0.00000000E+00  0.00000000E+00  0.00000000E+00  3.05216588E-01
  0.00000000E+00  0.00000000E+00  0.00000000E+00  0.00000000E+00  0.00000000E+00
  0.00000000E+00  1.00303045E+00  0.00000000E+00  0.00000000E+00 -4.26617290E-01
  5.05664036E-01 -6.85219625E-02  1.14052997E+00  0.00000000E+00  0.00000000E+00
 -1.04566736E+00  2.44404759E+00  0.00000000E+00  0.00000000E+00 -1.43458448E+00
 -7.98790970E-01 -7.98790970E-01  1.10738294E+00  0.00000000E+00  0.00000000E+00
  0.00000000E+00  6.85219625E-02 -1.14052997E+00  0.00000000E+00  0.00000000E+00
 -1.04566736E+00 -2.44404759E+00  0.00000000E+00  0.00000000E+00 -1.43458448E+00
  7.98790970E-01  7.98790970E-01 -1.10738294E+00  0.00000000E+00  0.00000000E+00
  0.00000000E+00  4.26617290E-01 -5.05664036E-01  2.79104151E-01 -3.36775823E-01
 -2.91764314E-01  2.42267916E+00  0.00000000E+00  0.00000000E+00 -1.91838733E-01
  5.89476579E-01  0.00000000E+00  0.00000000E+00  1.63499933E-01 -1.16073666E+00
 -1.16073666E+00 -1.44846231E+00  0.00000000E+00  0.00000000E+00  0.00000000E+00
 -2.91764314E-01  2.42267916E+00  0.00000000E+00  0.00000000E+00  1.91838733E-01
  5.89476579E-01  0.00000000E+00  0.00000000E+00 -1.63499933E-01 -1.16073666E+00
 -1.16073666E+00 -1.44846231E+00  0.00000000E+00  0.00000000E+00  0.00000000E+00
  2.79104151E-01 -3.36775823E-01  4.14069556E-01  1.28932071E-01 -3.69740061E-01
  1.55021493E+00  0.00000000E+00  0.00000000E+00  7.75574250E-01  3.75474117E+00
  0.00000000E+00  0.00000000E+00 -1.86434557E+00 -1.11785072E+00 -1.11785072E+00
 -2.00640808E+00  0.00000000E+00  0.00000000E+00  0.00000000E+00  3.69740061E-01
 -1.55021493E+00  0.00000000E+00  0.00000000E+00  7.75574250E-01 -3.75474117E+00
  0.00000000E+00  0.00000000E+00 -1.86434557E+00  1.11785072E+00  1.11785072E+00
  2.00640808E+00  0.00000000E+00  0.00000000E+00  0.00000000E+00 -4.14069556E-01
 -1.28932071E-01
Orthonormal basis                          R   N=        1156
  4.27800138E-02  7.87744606E-02  2.77856451E-02  1.33201244E-01  0.00000000E+00
 -1.23168437E-20 -4.41445256E-02  1.48821822E-01  3.75175925E-21 -1.35689850E-20
 -6.35795863E-02  9.32744424E-02  9.32744424E-02  1.21971709E-01 -3.81629008E-41
 -1.65747600E-22  8.34957724E-21  2.76574325E-02  1.32672982E-01  1.27621716E-21
  1.88973663E-20  4.45895844E-02  1.48383860E-01  2.38893188E-21  2.80553404E-20
  6.43350338E-02  9.28819932E-02  9.28819932E-02  1.21556276E-01  3.65784111E-40
  1.65243867E-21  4.65399864E-21  4.16831473E-02  7.75049259E-02  1.21358671E-01
  1.45365342E-01  2.94516860E-02  1.17396902E-01  0.00000000E+00 -2.83086889E-21
  9.33285395E-02  9.74216438E-02 -6.30510702E-20 -7.59642552E-21  1.71075404E-01
  9.12684220E-02  9.12684220E-02  8.18820958E-02  1.34351202E-39  5.83963104E-21
 -7.13057606E-21 -2.96891991E-02 -1.18538634E-01 -2.55397629E-20 -2.26831779E-20
  9.23135851E-02 -9.86669306E-02 -4.37592688E-20 -2.88441356E-20  1.70275006E-01
 -9.21064390E-02 -9.21064390E-02 -8.28403269E-02 -6.01379972E-39 -2.71246902E-20
  2.75042033E-20 -1.20635144E-01 -1.45636008E-01 -2.88688003E-17 -3.45348092E-18
 -1.52507976E-16  5.27735638E-17  2.71196949E-01 -5.04828361E-03 -1.29887157E-16
 -1.74735908E-17  3.44835853E-01 -6.41905888E-03  2.86178963E-17 -3.26681258E-17
  5.72068945E-17  8.38619299E-17  3.17554470E-23 -1.31042739E-01  2.43933759E-03
 -1.63564145E-16 -4.69220187E-17  2.71196949E-01 -5.04828361E-03  4.91604546E-17
 -1.99447184E-17  3.44835853E-01 -6.41905888E-03 -3.69479066E-17  6.05851732E-17
  2.68255770E-17 -9.63076567E-17 -1.26395217E-17  1.31042739E-01 -2.43933759E-03
 -4.32100930E-17  3.88368691E-17  3.12843455E-18  7.69673598E-19 -4.47363935E-18
 -4.83603907E-17  5.04828361E-03  2.71196949E-01 -2.37243930E-17  1.03052259E-16
  6.41905888E-03  3.44835853E-01 -1.76382983E-17 -2.66423760E-17  6.15474877E-17
 -1.23270656E-17  1.79750158E-17 -2.43933759E-03 -1.31042739E-01 -3.33355704E-17
  1.17228243E-17  5.04828361E-03  2.71196949E-01  2.67121040E-18 -3.55488210E-17
  6.41905888E-03  3.44835853E-01 -7.25512198E-17 -7.92576957E-17  8.83456417E-17
 -9.24368690E-18 -8.84197726E-18  2.43933759E-03  1.31042739E-01 -4.22548500E-17
 -2.34917925E-17  2.31841091E-01  1.92998864E-01 -1.18531893E-02 -1.80789757E-02
  1.80498944E-17  2.29076789E-18  2.68048138E-01  4.07146572E-02  3.20250409E-17
  3.79490668E-18  2.11922943E-01 -1.94545523E-02 -1.94545523E-02  6.64252630E-03
 -4.00886680E-33 -1.14178648E-17 -1.38325259E-18 -1.19634596E-02 -1.82302308E-02
  2.42011122E-17  2.88475482E-18 -2.67866512E-01  4.11326827E-02  3.12805355E-17
  3.75193816E-18 -2.13018247E-01 -1.94671159E-02 -1.94671159E-02  6.42963785E-03
 -6.02829782E-34  1.22775950E-17  1.34246029E-18  2.32544506E-01  1.95069068E-01
  1.55148533E-18 -9.00986771E-17 -4.05748972E-17 -7.32890839E-17 -1.91485563E-02
  4.34847055E-02 -4.07160067E-17  5.93814718E-17 -7.45650395E-02  1.69330718E-01
  1.24645573E-16  7.39919357E-17 -1.05809357E-17 -5.18382313E-19 -4.98752486E-16
 -2.35844651E-01  5.35582685E-01 -4.02587114E-17  2.41334860E-17 -1.91485563E-02
  4.34847055E-02  2.63217232E-18  4.58473606E-17 -7.45650395E-02  1.69330718E-01
 -9.56329114E-18  5.16759257E-18 -5.36191247E-18  1.71669254E-17 -4.79923917E-16
  2.35844651E-01 -5.35582685E-01 -1.29246802E-17 -7.25963032E-18  5.28915016E-17
  1.14821114E-16 -4.27531518E-16  5.97050733E-17  4.34847055E-02  1.91485563E-02
 -3.53726638E-17 -4.97168371E-17  1.69330718E-01  7.45650395E-02 -1.90494383E-17
 -2.49417597E-16  4.35669929E-17  7.91492889E-17  1.49383311E-16  5.35582685E-01
  2.35844651E-01  6.22556597E-17  2.03151664E-16  4.34847055E-02  1.91485563E-02
  4.67443840E-17  1.21612177E-16  1.69330718E-01  7.45650395E-02 -1.47029548E-17
 -1.01386824E-16 -4.88289640E-17 -1.37411429E-16  5.35848771E-17 -5.35582685E-01
 -2.35844651E-01 -2.78296944E-17 -9.00627977E-17 -3.12864813E-01 -1.32512822E-01
  2.28519874E-01  2.24241414E-01  9.98295369E-17  1.00098754E-16 -9.37680372E-02
  3.34286974E-02  7.86423023E-17  6.06321750E-17 -4.18095861E-02  2.70687498E-01
  2.70687498E-01 -1.60953821E-01  3.48628103E-26  1.97750292E-16  1.47357472E-16
 -2.29373226E-01 -2.25322143E-01 -3.33287730E-17 -1.14642510E-16 -8.62759974E-02
 -3.39880174E-02  3.81590851E-17 -4.99435302E-17 -4.21682451E-02 -2.72272647E-01
 -2.72272647E-01  1.62104563E-01  8.50631414E-27 -1.42166167E-16 -6.96357422E-18
  3.15854796E-01  1.35682451E-01  1.58867874E-16  1.49325418E-16 -1.54426344E-16
 -1.06479863E-16 -3.26007685E-02  5.11463209E-01 -1.03397781E-16 -7.79152755E-18
 -1.63907096E-02  2.57148690E-01 -1.70882720E-18 -3.76688425E-17 -2.91190724E-16
  1.35955949E-16 -3.01697447E-15 -2.10756689E-02  3.30649543E-01 -1.95705234E-16
  3.38117217E-17  3.26007685E-02 -5.11463209E-01  1.97469671E-16 -3.20681441E-17
  1.63907096E-02 -2.57148690E-01 -7.25744820E-17  7.00447733E-17 -3.09817840E-17
  8.01625222E-17 -2.65354530E-15 -2.10756689E-02  3.30649543E-01 -6.98342972E-17
  2.39473393E-17 -3.12896888E-17 -2.95070256E-16 -1.78565818E-16 -2.12285783E-16
  5.11463209E-01  3.26007685E-02 -6.83804280E-17  5.21476589E-17  2.57148690E-01
  1.63907096E-02  3.32421676E-16  5.33458508E-17  2.09359317E-16  1.48978437E-16
 -5.61991776E-15  3.30649543E-01  2.10756689E-02  1.31300188E-16  6.06509432E-16
 -5.11463209E-01 -3.26007685E-02 -1.63056023E-16  5.75099690E-17 -2.57148690E-01
 -1.63907096E-02  1.44004432E-16 -4.09655299E-16  1.41100142E-16 -3.70492310E-16
 -5.38878366E-15  3.30649543E-01  2.10756689E-02 -9.74173959E-17  6.14228745E-17
 -1.16502494E-18 -7.52317459E-17 -7.92717187E-18  6.60291408E-17  3.98661663E-15
  2.45815507E-15 -1.11698427E-17  5.28561689E-17  2.00953266E-15  1.28523841E-15
  9.42820156E-17  2.30490536E-16 -2.84635449E-16 -3.91820388E-17  6.66646210E-01
  2.14088126E-15  2.16724376E-15  5.14783733E-19 -3.40661819E-17 -4.11162749E-15
 -2.33892612E-15  2.96283988E-17  1.62932577E-16 -1.80287271E-15 -1.03525061E-15
 -1.04193571E-16  2.87468411E-16 -2.84284198E-16  4.34327710E-18  6.66646210E-01
  2.84232796E-15  1.14868677E-15  1.61642026E-18 -1.33077477E-16  2.12668884E-01
  1.25422430E-02  2.43333461E-01 -1.25335722E-02  2.76676343E-17 -1.10687526E-16
 -2.98319926E-01 -1.38957711E-01  1.81007173E-16 -1.23362050E-16  1.16433859E-01
 -2.50278333E-01 -2.50278333E-01  3.79891165E-01 -2.63906021E-23  3.54013199E-17
 -9.04764637E-17  2.52135213E-01 -1.21364368E-02 -1.03354858E-16  1.62581207E-16
  3.02472972E-01 -1.38502027E-01  5.59987463E-17  6.97254640E-17 -1.16988117E-01
 -2.48863799E-01 -2.48863799E-01  3.74887125E-01 -2.33419028E-22  1.17040412E-16
 -1.18236469E-16  2.11552325E-01  1.49469191E-02 -9.86063069E-02 -2.02913488E-02
  6.71541068E-01  1.20459125E-02  1.02292012E-16  2.82202495E-16  1.71344327E-01
  5.73622428E-02  2.03300829E-16  8.63152453E-17 -5.31193238E-02  1.64234056E-02
  1.64234056E-02 -1.80307248E-01  6.45803704E-22  6.19568857E-17  2.72362118E-16
  6.51730446E-01  1.33508198E-02  1.73246802E-16 -1.57168796E-16 -1.73298988E-01
  5.74133962E-02  2.26048714E-16  2.13574831E-17  5.33627678E-02  1.91484770E-02
  1.91484770E-02 -1.77227436E-01 -3.53195737E-21 -1.25164594E-16  7.30660130E-17
 -1.00646122E-01 -2.20457709E-02 -1.09194042E-01 -3.86103359E-02 -6.59054286E-01
  7.95026226E-02 -2.45251416E-16 -5.68905652E-17 -2.26895393E-02  1.20712374E-02
 -3.73159646E-17  1.60991230E-16 -1.07659693E-02  1.74061694E-01  1.74061694E-01
 -1.33616640E-03 -8.67710661E-22 -3.11436397E-16 -4.01366098E-17  6.75190852E-01
 -7.96717932E-02  7.19382445E-17 -9.96033035E-17 -2.86821843E-02 -8.43447378E-03
 -2.38499935E-18 -4.32126099E-17 -7.97342746E-03 -1.70743203E-01 -1.70743203E-01
 -9.25859400E-03  3.19733710E-21  1.13613505E-16  1.64796168E-16  1.04629444E-01
  3.95638393E-02 -3.91753790E-19 -9.16258462E-17 -3.21256169E-18  1.53914561E-17
  8.07834382E-17  1.07881675E-16 -1.85904007E-17  9.84494674E-17  2.28320561E-16
 -1.29885811E-16  8.73990858E-17  1.66124471E-16 -1.88720602E-16 -1.51117636E-17
  7.55958773E-01 -1.13911183E-17  1.20116345E-17 -4.37698800E-18  1.61372825E-17
 -3.98334515E-17 -1.29776326E-16  1.95746416E-17  1.07662945E-16  5.76225696E-17
 -7.89681693E-17 -9.86587628E-17 -2.46854706E-17 -5.39205970E-18 -1.89771310E-17
 -7.55958773E-01 -6.46983283E-17  3.32044886E-16  9.45009725E-19 -1.05164002E-16
  2.38366043E-17  5.67582891E-17 -7.75473845E-18 -4.92970265E-17 -6.83369548E-17
 -2.02765224E-16  1.17084813E-16  8.80352486E-17  4.58418027E-16 -8.00392892E-17
 -1.79218881E-16  5.77332553E-01 -5.77332553E-01 -9.67655314E-17 -7.13316018E-16
  2.62014747E-16 -3.36299497E-16 -2.11619918E-17 -4.14508437E-18 -3.63971724E-16
 -2.55540721E-16 -1.48648096E-16 -2.01421801E-16  4.80281722E-17  3.11769719E-16
  4.97427497E-16  5.77332553E-01 -5.77332553E-01  1.85110307E-16 -4.13342448E-16
 -2.24449537E-16 -2.18380401E-16  1.15557351E-16  1.19144317E-16  3.84166012E-02
 -4.25864497E-01  3.81286733E-02  2.12612296E-01 -6.12674306E-16  8.90426348E-18
  5.33620467E-01 -9.53440555E-02  4.48192515E-16 -9.67179135E-17 -2.76793082E-01
  1.48387998E-02  1.48387998E-02  4.24150200E-01  5.20299012E-20 -2.46861984E-17
  7.63342801E-17 -3.50820936E-02 -2.25175278E-01 -5.80728725E-16  1.04736181E-16
  5.58586816E-01  1.06290895E-01  2.99599159E-16 -9.57407142E-18 -2.74609086E-01
 -1.05256791E-02 -1.05256791E-02 -4.54663296E-01 -1.56802963E-20  1.46403176E-16
  1.22488577E-17 -3.15674979E-02  4.45651538E-01 -5.93742522E-17  1.18479720E-16
 -1.74438927E-17 -3.13778551E-16 -1.98928983E-16  2.65630620E-15  2.04072432E-16
  5.08259829E-16 -2.73128452E-17 -2.00698199E-15 -2.53290044E-16  6.54679501E-01
 -6.54679501E-01 -1.47138400E-16 -3.73472553E-16 -8.72712685E-17  9.11913939E-17
 -6.50470869E-17 -8.57561160E-16  2.29064930E-17  2.34665365E-15  1.53750430E-15
  7.28121695E-16  3.16511150E-16 -1.85662404E-15 -8.54742479E-17 -6.54679501E-01
  6.54679501E-01 -1.14328104E-15  2.20026592E-16 -2.29009251E-16 -8.47577164E-16
 -3.43976323E-17  1.56909772E-15 -3.49446092E-03 -5.20118371E-01 -2.94191644E-02
  2.70162410E-01  5.33337357E-16  6.62821572E-16  5.31807828E-01 -2.42484486E-01
 -3.36414697E-16 -4.53693100E-16 -1.40116322E-01  1.96009766E-02  1.96009766E-02
  4.47453696E-01  8.55667649E-19  2.15239805E-17  1.85135390E-16 -3.09764120E-02
  2.53098516E-01  5.76440213E-16  5.07955719E-16 -5.10845964E-01 -2.34589435E-01
 -3.69354957E-16 -3.36564253E-16  1.18697627E-01  1.06707754E-02  1.06707754E-02
  4.30938160E-01 -2.43142661E-19 -9.54460715E-17 -3.80692407E-18 -1.50623540E-02
 -4.92024853E-01  3.69867795E-16 -6.25098523E-17  6.80157107E-17 -1.74344026E-16
  7.81658720E-01 -1.55355071E-01  7.66830810E-17 -7.03837966E-16 -5.70331432E-01
  1.13353664E-01 -2.32696779E-16  1.01078442E-15 -4.71411563E-16  2.83612982E-16
  4.04868981E-16  1.16852978E-01 -2.32245893E-02  1.74014214E-16 -4.98644172E-16
  7.81658720E-01 -1.55355071E-01  8.78017919E-16  5.61558966E-17 -5.70331432E-01
  1.13353664E-01  9.22215228E-17 -3.75491982E-16  6.25601607E-16 -6.08050933E-16
 -9.23309118E-17 -1.16852978E-01  2.32245893E-02  3.61057337E-16  8.04990877E-16
 -1.04465857E-16  3.98998877E-16 -1.03071319E-16 -4.08541258E-16  1.55355071E-01
  7.81658720E-01 -6.16430599E-16  4.50596793E-16 -1.13353664E-01 -5.70331432E-01
  1.83148108E-16 -2.04819574E-15  2.11560480E-15 -2.27248142E-16 -1.96974807E-16
  2.32245893E-02  1.16852978E-01  2.52928705E-16 -2.39189699E-16  1.55355071E-01
  7.81658720E-01  4.53669641E-16  8.07566843E-17 -1.13353664E-01 -5.70331432E-01
  1.60084999E-17  2.77534684E-15 -2.53094687E-15 -9.15073791E-16  8.51595849E-17
 -2.32245893E-02 -1.16852978E-01  4.21397416E-16  4.07256700E-16 -3.23001544E-16
  2.19097035E-16 -2.44841469E-18  6.45999376E-17 -5.16077907E-01  2.32438009E-01
  9.84966660E-17  2.19679744E-17 -3.84659331E-02  1.73247969E-02  6.53608067E-18
  7.09714732E-17 -2.23325280E-16 -5.26018014E-19  4.16324353E-16  8.28207182E-01
 -3.73018930E-01  4.34646101E-18  1.72502706E-16  5.16077907E-01 -2.32438009E-01
 -6.72468274E-17  1.03657091E-17  3.84659331E-02 -1.73247969E-02  6.95265682E-17
 -2.03453528E-16  1.01818686E-16 -7.50915003E-17  9.61808056E-17  8.28207182E-01
 -3.73018930E-01  1.33676776E-16 -1.17621301E-16  2.83927348E-17  5.90995055E-17
  9.45022617E-18  3.62130453E-17 -2.32438009E-01 -5.16077907E-01 -3.82824979E-17
  2.03904232E-17 -1.73247969E-02 -3.84659331E-02  4.28016691E-18  4.23869930E-16
 -5.74636911E-16 -1.43231732E-16  7.47906683E-18  3.73018930E-01  8.28207182E-01
 -1.11817072E-16 -2.38459806E-17  2.32438009E-01  5.16077907E-01  5.46675921E-17
  1.68400502E-16  1.73247969E-02  3.84659331E-02  2.92141938E-17 -1.76757876E-16
 -9.42172542E-18  1.07155579E-16  8.09776852E-17  3.73018930E-01  8.28207182E-01
  8.32526687E-17 -7.83608284E-17 -8.96762169E-01  3.22906171E-01 -3.00543561E-02
 -1.99804555E-01  3.96270512E-16 -1.49015530E-16  5.33650922E-01  1.57169944E-01
 -2.29098900E-16 -1.97385194E-16  2.97813513E-01 -2.18741823E-01 -2.18741823E-01
  9.80001208E-02 -1.93512362E-19 -2.04155696E-16  1.28129147E-16  3.50907765E-02
  1.97131184E-01 -3.64059447E-16 -2.66393190E-16  5.35029315E-01 -1.71680728E-01
  5.74563326E-16  5.73192996E-16  3.41385939E-01  2.37683376E-01  2.37683376E-01
 -1.25997451E-01  4.76231221E-20 -8.28438829E-17  2.07611656E-16  9.93564033E-01
 -3.79209797E-01  1.09691999E+00 -4.77247741E-01  3.84533605E-02 -1.60200913E-01
 -2.11437402E-16  5.33219552E-17 -1.97780766E-01 -3.96140514E-02 -8.67021806E-16
 -1.87220755E-16 -5.02526179E-01  1.58774844E-01  1.58774844E-01 -3.98073390E-01
 -8.25983794E-19  3.20696071E-16  1.39338704E-17  3.55640332E-02 -1.78108399E-01
 -8.26986097E-16 -2.14538867E-16  1.20594491E-01 -2.38531482E-02  1.70774413E-15
  3.15166874E-16  4.74074596E-01  1.38776126E-01  1.38776126E-01 -3.87535490E-01
  1.19956760E-19  4.10043808E-16  2.28358579E-18  1.00069505E+00 -4.51423308E-01
 -8.27279687E-02  7.13649026E-02 -1.44441659E-01 -4.59408591E-01 -1.96404308E-15
  5.96456952E-16  3.60303206E-01  7.86081205E-01  5.83163004E-15 -1.71628751E-15
 -7.34396669E-01 -5.68124204E-01 -5.68124204E-01  1.68835539E-01 -7.27516130E-18
 -1.16620020E-15  2.23620917E-16 -1.44184662E-01 -4.58144820E-01  2.47536183E-15
 -7.25757472E-16 -3.50450547E-01  7.86153492E-01 -6.22786416E-15  1.71008892E-15
  7.33465895E-01 -5.67117087E-01 -5.67117087E-01  1.69094103E-01  1.83497052E-18
 -1.10751667E-15  1.98160349E-16 -7.26328423E-02  6.60829807E-02  1.43103253E-15
 -1.29829721E-15  7.14002628E-16  2.67460850E-15 -5.27556472E-01  7.91857125E-02
 -1.78135824E-15 -2.77263293E-15  1.38904139E+00 -2.08493760E-01  3.69796066E-15
  2.21731853E-15  2.24726934E-15 -2.30824264E-15 -4.91341538E-16 -2.64220682E-01
  3.96592670E-02  6.21668752E-16  1.95202856E-15  5.27556472E-01 -7.91857125E-02
  2.31350730E-15 -2.82329824E-15 -1.38904139E+00  2.08493760E-01 -3.33649546E-15
  2.52249760E-15  3.20337932E-15 -9.73613853E-16 -5.65354013E-17 -2.64220682E-01
  3.96592670E-02  1.78161745E-15 -1.73226424E-15  9.13359170E-17 -3.05052040E-16
  2.96792391E-16 -5.25243871E-16 -7.91857125E-02 -5.27556472E-01  7.69499084E-16
  9.33430061E-16  2.08493760E-01  1.38904139E+00 -6.09972078E-16 -4.23823758E-16
 -2.14168103E-16 -1.42832088E-16  2.94504238E-16 -3.96592670E-02 -2.64220682E-01
 -2.09497880E-17 -1.58743174E-16  7.91857125E-02  5.27556472E-01  2.54216114E-16
  5.70581924E-16 -2.08493760E-01 -1.38904139E+00  1.51503786E-16 -7.56147107E-17
 -3.41875214E-16  1.31504949E-16  1.36833533E-16 -3.96592670E-02 -2.64220682E-01
  6.92114059E-16 -9.68306912E-16 -4.89378962E-01 -9.29527597E-02  2.98685060E-03
  9.13507020E-01 -1.61068845E-16 -6.90371440E-16 -1.35923169E+00  2.30520855E-01
  2.84642982E-17  4.85568471E-16  2.36133015E-01 -4.83664659E-01 -4.83664659E-01
  1.41857980E+00  8.62955746E-18 -4.40789651E-18  3.59006948E-17 -4.79449297E-03
 -9.00052194E-01  5.66547821E-17 -9.69631885E-18 -1.37028072E+00 -2.32898511E-01
 -5.90353269E-16 -2.25458226E-16  2.38490493E-01  4.75985846E-01  4.75985846E-01
 -1.41225445E+00 -1.65880350E-18 -1.68291634E-16  1.11598089E-16  4.69030181E-01
  1.02658009E-01 -1.60930491E-02 -1.18864628E+00  2.14055108E-01 -2.05179466E+00
 -2.65569306E-15 -2.93247827E-16 -3.97694639E-01  9.09418073E-01  6.80518720E-16
 -2.13716328E-16  8.39338731E-01  7.00719707E-01  7.00719707E-01  1.02582615E+00
 -3.69931466E-16 -2.04606726E-15 -1.27145264E-15 -2.18368175E-01  2.09294206E+00
  2.41384038E-15 -3.27895421E-16 -4.09613820E-01 -9.45880001E-01 -8.60147719E-16
  1.19758447E-16  8.86267312E-01 -7.16650379E-01 -7.16650379E-01 -1.03962166E+00
  2.22788285E-16 -1.16631809E-15  9.10612699E-16  1.56561968E-02  1.22721030E+00
  2.12990842E-01  2.27987486E-01 -3.10504742E-01  2.63654613E+00  3.93361856E-16
 -3.31408749E-17 -4.90843210E-02 -1.20408387E-01 -1.59047577E-15  2.83965027E-16
 -2.97055158E-01 -1.13226466E+00 -1.13226466E+00 -1.34362660E+00  4.96900865E-17
  1.46897498E-16 -1.26250406E-16 -3.02925251E-01  2.59410098E+00  5.00268845E-16
  2.72739935E-16  6.60530875E-02 -1.13079486E-01  6.60428223E-16 -4.77561581E-16
  2.94184983E-01 -1.11281929E+00 -1.11281929E+00 -1.29551845E+00  5.02439734E-17
  2.13363246E-16  1.26415038E-17  2.00518913E-01  2.23192202E-01  3.10170888E-01
 -1.87477206E+00 -3.14248410E-01  9.37308123E-01  8.55509202E-16  2.49543345E-16
  3.27130887E-01  1.51025268E+00 -9.30664091E-16  1.50764185E-15  1.39082697E+00
 -9.12161661E-01 -9.12161661E-01 -1.44348977E+00 -2.67313829E-17  1.50525450E-16
 -1.36874909E-16  3.20297082E-01 -9.76968359E-01 -4.81241502E-16  1.54706794E-16
  3.06677134E-01 -1.59663238E+00  7.46943197E-16 -5.46410202E-16  1.48546006E+00
  9.34445624E-01  9.34445624E-01  1.46933211E+00 -4.01605377E-17  1.56411883E-16
 -1.66558267E-16 -3.05587853E-01  1.95614414E+00 -4.45036245E-03 -2.80224119E+00
 -7.64064361E-02  2.49368934E-01  2.33665270E-15 -1.28974438E-17 -5.30711348E-01
  2.86348249E+00 -7.30363670E-15 -3.44703214E-16  2.66390591E+00 -2.52339381E-01
 -2.52339381E-01 -3.79781900E-01 -1.88239606E-15  9.72911428E-16 -1.30910179E-15
 -6.63279948E-02  2.49845246E-01  2.65954781E-15 -1.03954563E-15  5.32439755E-01
  2.71751202E+00  2.43584742E-15  1.93103382E-15 -2.57455410E+00 -2.23230893E-01
 -2.23230893E-01 -3.44719960E-01 -7.55048009E-16  3.80024733E-16  4.18697412E-16
 -1.48225878E-02 -2.65318136E+00 -5.20310057E-01 -4.31858405E+00  1.59258338E-01
  5.48247674E-01 -1.08048626E-14  3.86907398E-15 -1.17325379E-01 -1.71294162E+01
  4.66557692E-16  1.43302625E-15  1.31660896E+01  3.95920814E-01  3.95920814E-01
 -5.49171525E-02  4.39804216E-16 -1.66857387E-15 -1.23799294E-15 -1.59645140E-01
 -5.52441504E-01 -3.19349559E-15  3.93536006E-15 -1.17307461E-01  1.72324987E+01
  1.09581375E-14 -7.20241875E-15  1.31016113E+01 -3.96917369E-01 -3.96917369E-01
  5.93631729E-02 -1.04286641E-15 -4.04197382E-15  1.55344429E-15  5.16970613E-01
  4.21879550E+00
Total SCF Density                          R   N=         595
  2.06192613E-01  1.36047952E-01  1.01689377E-01 -7.65762629E-02 -2.10165704E-02
  2.05701690E+00  1.51516699E-01  5.03349657E-02 -6.93386257E-02  3.26877177E-01
  1.05103038E-16  1.85499664E-15 -2.50148304E-16 -1.81685535E-16  3.50840203E-01
 -4.33038098E-17 -2.95481467E-15 -3.23690457E-16  1.77545589E-16  2.40786309E-16
  3.50840203E-01  2.43211951E-01  2.01947860E-01  5.98027657E-03  2.67372862E-03
  2.21593850E-16  1.10739332E-16  4.34525408E-01  1.35867371E-01  4.97803663E-02
 -1.66642549E-01  2.65419854E-01  4.16414495E-15 -4.60303209E-15  2.10027285E-02
  2.23392464E-01  2.19947276E-17  1.10107444E-15  7.66607111E-16 -8.78172528E-17
  2.13430904E-01  2.51341331E-17  7.82382017E-17  2.48850270E-15  1.29839028E-01
 -2.50672341E-17 -1.81506662E-15  7.41587317E-16  2.40048467E-16 -8.59628531E-16
  2.13430904E-01  2.33541253E-18 -2.74895130E-15 -6.09817477E-16  1.29839028E-01
  5.49128423E-02  3.55234138E-02 -1.28542509E-02  4.37649904E-02 -3.93380857E-15
  5.54355551E-15  6.23325451E-02  3.83386678E-02 -2.39633501E-15  3.37935413E-15
  1.47614153E-02 -7.01858393E-03 -2.03753186E-03 -1.18930525E-02 -1.72224582E-02
 -7.57287613E-17 -5.32683262E-17  9.13747208E-04 -1.31406427E-02 -5.40106169E-17
 -4.68702165E-17 -2.11589237E-03  1.03045712E-03 -7.01858393E-03 -2.03753186E-03
 -1.18930525E-02 -1.72224582E-02  7.08680045E-18  4.07796819E-17  9.13747208E-04
 -1.31406427E-02 -3.63041507E-18  1.03431566E-17 -2.11589237E-03  1.03045712E-03
  1.03045712E-03  1.72241439E-02  9.59633095E-03 -2.69982742E-02  1.90295406E-02
  1.37993386E-17 -2.01966182E-16  1.43049697E-02  1.73940832E-02 -2.87615440E-18
 -1.28211374E-16  4.61511910E-03 -7.94818592E-04 -7.94818592E-04  1.83795225E-03
  4.75136398E-17  2.19387034E-17  2.72773798E-16  7.63635826E-17  1.28171920E-16
 -1.39737598E-16  3.93332944E-17  5.70692820E-17  7.79723891E-17 -8.50082793E-17
  1.48297031E-17 -6.50982185E-18 -6.50982185E-18  3.20526613E-18  2.57948343E-31
  3.47580112E-17 -2.95222028E-17 -1.94967971E-17 -3.96104707E-17 -1.35045546E-02
 -9.22570256E-17  9.87428872E-17 -1.89936047E-16 -8.21539058E-03 -1.70333377E-17
  1.60762800E-16  5.88431644E-18  2.69657665E-18  8.69290290E-19 -4.93359847E-18
  5.19817835E-04  6.27376301E-18  1.10937465E-16 -2.70109117E-16  1.39030683E-17
  6.77850215E-17 -1.35045546E-02 -2.59296743E-17  2.19997852E-16  4.64847948E-17
 -8.21539058E-03 -2.19991324E-16  2.54368622E-18 -1.07641332E-18  1.12296018E-17
  5.37878501E-18  5.75908903E-19  5.19817835E-04  2.35035996E-02  3.42732289E-02
  3.34797987E-02 -6.62065733E-02  6.62675898E-16 -8.79110062E-17  1.00484018E-01
 -2.44633289E-02 -3.66549642E-16 -2.54877570E-16 -4.76480476E-03  2.53514935E-03
  2.53514935E-03 -3.09588120E-04  5.91396014E-17 -1.68227951E-17  1.33998036E-15
  2.05687266E+00 -4.63924350E-02 -5.99558340E-02 -6.63281576E-02  1.13273892E-01
  6.35510007E-17 -2.37259842E-16 -1.85348451E-01  7.36864044E-02  6.88076362E-17
 -1.13504835E-16 -1.13646094E-02 -5.59254144E-03 -5.59254144E-03 -1.62485949E-04
 -1.33297322E-16 -9.16227384E-17  1.19979590E-16 -6.91921183E-02  3.26560838E-01
  1.54016841E-17  1.77124160E-15  1.57020367E-16 -1.04771486E-16  3.50781552E-01
  3.08230353E-16  9.98928278E-18  4.17647618E-15  2.13395224E-01 -8.25124435E-16
 -3.95014823E-15 -8.28203380E-17 -1.86208752E-20  5.68617446E-18  1.28150493E-16
 -1.35022970E-02  6.53377279E-17 -1.75804377E-16  2.93533434E-16  3.50722910E-01
 -1.01961648E-16 -3.02294246E-15  1.48574328E-16  2.88870122E-16  9.30355295E-16
  3.50781552E-01 -6.41112820E-17 -4.53671248E-15  4.30923330E-16  2.13395224E-01
  5.52758871E-15 -6.37518667E-17  3.02804190E-17 -2.06640948E-16 -1.39714238E-16
 -1.18033552E-16 -1.35022970E-02  5.97202023E-16 -1.37465683E-16  1.00029632E-15
  3.50722910E-01 -6.50319209E-02 -1.02673658E-01 -1.00282453E-01  1.84936650E-01
  1.22302768E-16 -8.09329189E-17 -2.65330258E-01  1.53673875E-01  4.81442347E-17
  5.29777293E-17 -1.35947161E-02 -1.04660028E-02 -1.04660028E-02  3.74166275E-03
  1.34654497E-16 -7.29898122E-17  1.90176592E-17 -6.59586290E-03 -1.44140515E-03
  1.43527693E-16  1.13636649E-16  4.32769149E-01 -5.20783502E-02 -5.54001591E-02
 -2.34521408E-02  7.13785439E-02 -4.84438022E-15  5.95392006E-15 -1.58598354E-01
  3.96489381E-02 -2.86831866E-15  3.66121114E-15 -1.26014115E-02 -3.60431836E-03
 -3.60431836E-03 -1.93481761E-03 -1.16375119E-16  1.15372222E-16 -2.17196790E-16
 -1.66570343E-01  2.65253157E-01 -4.60644242E-15  5.99481459E-15 -1.75752022E-02
  2.23633547E-01  9.91271075E-19  1.11006972E-15 -1.92737222E-16 -2.56979968E-16
  2.13279468E-01 -2.23748716E-16  1.37373922E-16  2.41373906E-15  1.29746903E-01
 -7.53791540E-16 -2.41080477E-15 -3.76394986E-17  1.27049568E-17  4.54769890E-19
  7.79170650E-17 -8.20956148E-03  5.56267302E-17  5.25554574E-16  5.37735136E-17
  2.13243813E-01  1.89938868E-16 -6.26674529E-17 -2.92825571E-15  1.29654843E-01
 -1.00087360E-16 -1.85467885E-15 -6.58219221E-16  6.08675536E-17  8.13212104E-16
  2.13279468E-01 -4.38152499E-17 -2.81010020E-15  4.10464481E-16  1.29746903E-01
  3.34819830E-15 -2.68317966E-17  3.03409816E-17 -1.23406566E-16 -8.49479631E-17
 -8.15084256E-17 -8.20956148E-03  7.27552217E-17 -1.68281378E-16  8.42497674E-16
  2.13243813E-01  6.82023907E-17  3.58940057E-15  2.66281746E-16  1.29654843E-01
 -6.26637100E-03 -9.25697180E-03  4.70543616E-03  1.12614720E-02 -3.44217582E-15
  4.32931025E-15 -1.82608425E-02  1.16003827E-02 -2.09911459E-15  2.64970046E-15
 -1.21076291E-03 -8.49307054E-04 -8.49307054E-04  2.92474726E-04  4.05411266E-17
  1.33574255E-16 -1.77644076E-16  1.35002528E-02 -4.53344997E-02 -3.46909470E-15
  4.34999404E-15  6.81973980E-02 -3.93629262E-02 -2.11535351E-15  2.65230660E-15
  1.70724071E-02  3.09786289E-03  3.61790569E-03  2.54471984E-03 -5.59366366E-03
  1.42054627E-18 -6.39741608E-18  1.05625360E-02 -3.71020356E-03  4.69991098E-18
 -4.63222037E-18  8.43552830E-04  2.92384187E-04  2.92384187E-04  6.14181869E-05
  6.41579585E-18  4.97087182E-18 -1.58297579E-17 -1.18932147E-02 -1.71499458E-02
 -5.03078917E-18 -1.78271059E-17 -1.09899416E-03 -1.31004635E-02 -7.08632140E-19
 -3.88102717E-18  2.14686785E-03  1.02426821E-03  3.09786289E-03  3.61790569E-03
  2.54471984E-03 -5.59366366E-03  1.00765731E-16 -2.75999834E-18  1.05625360E-02
 -3.71020356E-03  6.51357803E-17 -2.41942562E-18  8.43552830E-04  2.92384187E-04
  2.92384187E-04  6.14181869E-05  6.41579585E-18  1.14687314E-18 -1.59697695E-17
 -1.18932147E-02 -1.71499458E-02  9.42977879E-17 -1.41902962E-17 -1.09899416E-03
 -1.31004635E-02  5.96843559E-17 -1.66980248E-18  2.14686785E-03  1.02426821E-03
  1.02426821E-03 -1.80824339E-03 -1.00980318E-03 -3.67266434E-04 -1.27824960E-04
  1.06514991E-17  1.54254636E-16 -3.78127265E-03 -1.61602528E-03  1.78919556E-17
  9.43009466E-17 -4.27805137E-04  5.78591907E-05  5.78591907E-05 -2.27950327E-04
 -1.27416794E-17 -3.31077108E-18 -1.55726321E-17 -2.69995208E-02  1.89181915E-02
  3.24696964E-17  1.45700360E-16 -1.40945086E-02  1.72466616E-02  1.08605658E-17
  8.75687271E-17 -4.87088915E-03 -7.82040471E-04 -7.82040471E-04  1.81974585E-03
  7.73492432E-17  4.16464233E-17  3.72012675E-16  1.28376170E-16  1.08773460E-16
 -1.56927663E-17  4.77247096E-17  8.19301870E-17  6.61714873E-17 -9.54657212E-18
  2.23749582E-17 -9.56825817E-18 -9.56825817E-18  4.11000621E-18  9.32610499E-32
 -4.18691222E-18  6.04046564E-19  1.00511481E-16  8.67568918E-17  1.08755276E-16
 -1.56901429E-17 -2.33616623E-17  6.17577548E-17  6.61245364E-17 -9.53979851E-18
 -1.43201899E-17 -5.30162042E-18 -5.30162042E-18  3.89686446E-18  1.97658908E-31
  3.15429591E-17  8.40431956E-17 -1.80933921E-16  3.11680446E-17  1.36813051E-02
  2.10366572E-16  1.96868948E-17  2.03203529E-16  8.32291539E-03  8.82730782E-17
 -1.46444496E-16 -3.71770385E-18 -4.88242232E-19  4.99792566E-18  4.99817048E-18
 -5.26621323E-04 -5.08164449E-18  3.02533259E-17  9.09078521E-18  1.36790180E-02
  2.37207299E-16  2.94297122E-17 -1.88963794E-16  8.31701000E-03  1.53838196E-16
 -1.32417094E-16 -2.50705426E-19  3.62334258E-18 -2.43623296E-19  4.24171144E-18
  5.33513857E-04 -1.30717086E-16 -2.02000950E-16 -2.42505243E-16 -1.09145380E-16
  1.66503973E-17  1.36813051E-02 -1.37365136E-16 -2.43033998E-16  4.74183806E-18
  8.32291539E-03  1.74037281E-16  4.66223204E-18  8.32971223E-18 -1.55520586E-17
 -5.44918371E-18 -3.84191125E-18 -5.26621323E-04  1.38293268E-15 -7.36805506E-17
  1.82583962E-17  1.36790180E-02  1.65992838E-16  1.06574709E-16 -4.55975000E-18
  8.31701000E-03  2.07828708E-16 -8.05643116E-18 -7.91458704E-18 -1.81009089E-17
 -6.11952456E-19  8.47085080E-18  5.33513857E-04  1.84034127E-02  3.14959881E-02
  2.35082778E-02 -4.64909665E-02 -1.12352947E-16  1.07024430E-16  6.51451565E-02
 -4.84927310E-02 -2.25532631E-17  2.73801787E-17  3.54696014E-03  3.05988484E-03
  3.05988484E-03 -1.81156223E-03 -1.35894082E-16  2.11927833E-18  6.12211976E-18
 -7.58775116E-02  1.50353075E-01 -1.21990737E-18  2.73052058E-17 -2.41946354E-01
  1.33554401E-01  1.05070150E-17 -1.55482983E-17 -5.89471116E-02 -6.86558397E-03
 -6.86558397E-03  1.70448601E-02  5.17169077E-17 -1.46511847E-17 -1.54287003E-16
  2.04943257E-01  3.06326455E-02  4.27381607E-02  3.40861692E-02 -5.98312118E-02
 -1.23627505E-15  1.57405515E-15  1.01169744E-01 -5.28421611E-02 -7.30800007E-16
  9.18285020E-16  6.70092617E-03  3.57020053E-03  3.57020053E-03 -1.04472323E-03
 -8.04343230E-17  6.62129038E-17 -5.98020546E-17 -2.10959378E-02  5.04146282E-02
 -1.20710736E-15  1.49413785E-15 -2.00169589E-01  4.86261823E-02 -6.90231494E-16
  8.95194861E-16 -3.85391750E-02 -1.97846772E-03 -1.97846772E-03  9.50406391E-03
  2.71673979E-17 -5.74867842E-17 -4.09922410E-17  1.35159785E-01  1.00572020E-01
Grdnt Energy                               R     -7.732564599909907E+01
Grdnt NVar                                 I                0
Grdnt IGetFC                               I                4
Quartic Cent Dist                          R   N=          10
  0.00000000E+00  0.00000000E+00  0.00000000E+00  0.00000000E+00  0.00000000E+00
  1.00705589E-06  0.00000000E+00  0.00000000E+00  0.00000000E+00  0.00000000E+00
Sextic Cent Dist                           R   N=          14
  0.00000000E+00  0.00000000E+00  0.00000000E+00  0.00000000E+00  0.00000000E+00
  0.00000000E+00  0.00000000E+00  7.25700022E-13  0.00000000E+00  0.00000000E+00
  0.00000000E+00  0.00000000E+00  0.00000000E+00  0.00000000E+00
Mulliken Charges                           R   N=           4
  1.85212648E-01 -1.86576869E-01 -1.87068664E-01  1.88432885E-01
APT Charges                                R   N=           4
  1.94835976E-01 -1.95146403E-01 -1.94696633E-01  1.95007060E-01
Optimization MaxStp                        I                2
Optimization MaxJob                        I                1
Optimization Job offset                    I                0
Optimization Num results per geometry      I                8
Optimization Num geometry variables        I               12
Optimization Reference Energy              R     -7.700000000000000E+01
Optimization Number of geometries          I   N=           1
           1
Opt point       1 Results for each geome   R   N=           8
 -3.25645999E-01  0.00000000E+00  1.20584559E-06  5.55516728E-07  1.25853291E-06
  5.23569308E-07  0.00000000E+00  0.00000000E+00
Opt point       1 Geometries               R   N=          12
  0.00000000E+00  0.00000000E+00  3.27163117E+00  0.00000000E+00  0.00000000E+00
  1.25598692E+00  0.00000000E+00  0.00000000E+00 -1.02106881E+00  0.00000000E+00
  0.00000000E+00 -3.03671305E+00
Opt point       1 Gradient at each geome   R   N=          12
  0.00000000E+00  0.00000000E+00  6.30499469E-07  0.00000000E+00  0.00000000E+00
 -1.20584535E-06  0.00000000E+00  0.00000000E+00  1.20584559E-06  0.00000000E+00
  0.00000000E+00 -6.30499695E-07
ONIOM Charges                              I   N=          16
           0           0           0           0           0           0
           0           0           0           0           0           0
           0           0           0           0
ONIOM Multiplicities                       I   N=          16
           1           0           0           0           0           0
           0           0           0           0           0           0
           0           0           0           0
Atom Layers                                I   N=           4
           1           1           1           1
Atom Modifiers                             I   N=           4
           0           0           0           0
Int Atom Modified Types                    I   N=           4
           0           0           0           0
Atom Modified Types                        C   N=           4
                                                
Link Atoms                                 I   N=           4
           0           0           0           0
Atom Modified MM Charges                   R   N=           4
  0.00000000E+00  0.00000000E+00  0.00000000E+00  0.00000000E+00
Link Distances                             R   N=          16
  0.00000000E+00  0.00000000E+00  0.00000000E+00  0.00000000E+00  0.00000000E+00
  0.00000000E+00  0.00000000E+00  0.00000000E+00  0.00000000E+00  0.00000000E+00
  0.00000000E+00  0.00000000E+00  0.00000000E+00  0.00000000E+00  0.00000000E+00
  0.00000000E+00
Cartesian Gradient                         R   N=          12
  0.00000000E+00  0.00000000E+00  6.30499469E-07  0.00000000E+00  0.00000000E+00
 -1.20584535E-06  0.00000000E+00  0.00000000E+00  1.20584559E-06  0.00000000E+00
  0.00000000E+00 -6.30499695E-07
Cartesian Force Constants                  R   N=          78
  1.38928095E-02  0.00000000E+00  1.38928095E-02  0.00000000E+00  0.00000000E+00
  4.16944666E-01 -1.97696806E-02  5.33900306E-33  0.00000000E+00  3.60488853E-02
  0.00000000E+00 -1.97696806E-02  0.00000000E+00  0.00000000E+00  3.60488853E-02
  0.00000000E+00  0.00000000E+00 -4.22042694E-01  0.00000000E+00  0.00000000E+00
  1.56227594E+00 -1.37790064E-03 -1.30968755E-35  0.00000000E+00 -1.49013041E-02
  2.08468380E-32  0.00000000E+00  3.60488853E-02  0.00000000E+00 -1.37790064E-03
  0.00000000E+00  0.00000000E+00 -1.49013041E-02  0.00000000E+00  0.00000000E+00
  3.60488853E-02  0.00000000E+00  0.00000000E+00  5.36371411E-03  0.00000000E+00
  0.00000000E+00 -1.14559696E+00  0.00000000E+00  0.00000000E+00  1.56227594E+00
  7.25477172E-03  3.11782564E-36  0.00000000E+00 -1.37790064E-03 -3.09960470E-35
  0.00000000E+00 -1.97696806E-02 -3.10520458E-33  0.00000000E+00  1.38928095E-02
  0.00000000E+00  7.25477172E-03  0.00000000E+00  0.00000000E+00 -1.37790064E-03
  0.00000000E+00  0.00000000E+00 -1.97696806E-02  0.00000000E+00  0.00000000E+00
  1.38928095E-02  0.00000000E+00  0.00000000E+00 -2.65685737E-04  0.00000000E+00
  0.00000000E+00  5.36371401E-03  0.00000000E+00  0.00000000E+00 -4.22042694E-01
  0.00000000E+00  0.00000000E+00  4.16944666E-01
Cartesian 3rd/4th derivatives              R   N=        1092
  4.70003779E-14  2.24832630E-16 -6.46255196E-14 -7.04741607E-02 -1.14845351E-15
 -1.01344565E-13 -9.40007558E-14  1.08948180E-18  6.68167911E-02  1.30191047E-11
  9.67618507E-16  3.05502456E-13 -1.68879921E-14 -1.97533074E-15 -1.16560937E-11
  9.20277687E-02  6.20138435E-15  2.51158269E-13  6.46983573E-03 -1.36864762E-13
  1.30191047E-11  9.27155892E-15 -1.64295895E-16  1.84524866E-03 -1.41001134E-13
  1.61331480E-15 -7.00610795E-02  3.39812732E-11 -1.02469803E-15 -1.54816674E-13
  1.63582327E-14  1.71896748E-15 -1.88001512E-13  1.18471406E-13 -8.16261624E-16
 -2.25601814E-12 -2.44603869E-02 -4.69830582E-15 -1.86899940E-13 -7.60274445E-02
  1.25569165E-13 -1.64501323E-13 -4.57256036E-02 -1.23266857E-13 -3.03387439E-11
  5.38393001E-14 -6.16262166E-17  1.81212086E-03  3.91975808E-14 -6.05602570E-16
 -2.84365250E-02 -5.87504724E-14  1.21992175E-16  1.46213435E-01 -1.17500945E-14
 -1.67753105E-16  1.09032615E-13  1.67821290E-15  2.55273776E-16 -6.91236026E-14
  1.21919715E-14 -6.32757283E-16  5.28754251E-14  2.39599785E-15  5.45236612E-16
 -1.58626275E-13  2.90677885E-03 -3.54625028E-16 -3.13947837E-14  2.74081759E-03
  2.81835892E-14  4.29612829E-14  1.13941434E-01 -1.15627820E-14 -3.67190452E-14
 -1.19589031E-01 -1.62661822E-14 -4.70003779E-14  1.41001134E-13 -1.95686308E-16
 -1.17500945E-14  1.18885441E-14 -7.04741607E-02 -1.76251417E-13  2.93752362E-14
 -1.27155723E-15  2.41384281E-14  8.17806575E-12  6.17090830E-16  3.52502834E-14
  6.68167911E-02  4.22242994E-15  8.60106915E-12 -1.25277598E-14  9.20277687E-02
  2.24720557E-13  1.93164388E-13  6.46983573E-03 -2.72719693E-11 -1.42837086E-13
  1.45679216E-15 -3.51089782E-14  6.11004913E-13 -4.54147310E-15 -1.86690026E-13
  2.41111939E-11 -6.59063232E-16 -5.09476753E-15  1.84524866E-03 -3.36377723E-15
  2.82002267E-13 -7.00610795E-02  3.20146505E-15  2.33121874E-11  2.63316795E-15
 -2.44603869E-02 -2.38673794E-14 -1.83784129E-13 -7.60274445E-02  9.40007558E-14
  1.98904750E-13 -4.57256036E-02  3.15960040E-11  1.27277391E-13  1.04513669E-17
 -9.17993987E-16 -2.36975538E-13 -2.98047658E-16  6.05339794E-15  2.17376748E-13
  8.21375400E-16 -1.77537892E-14 -1.88001512E-13  2.37658709E-16  3.87156433E-14
  1.81212086E-03  4.12904527E-16 -6.93071979E-14 -2.84365250E-02 -1.16784124E-16
 -3.52502834E-14  1.46213435E-01 -5.33779108E-16  6.46255196E-14 -1.99395229E-15
  2.90677885E-03  4.36956638E-14 -3.35186867E-14  2.74081759E-03 -8.22506613E-14
  2.28942537E-14  1.13941434E-01  2.79064744E-14  1.26183852E-14 -1.19589031E-01
  6.60942814E-14 -1.29251039E-13  2.59723731E-15  4.70003779E-14  1.73604903E-01
 -5.36809137E-14 -4.02440736E-13 -3.52502834E-14  6.38700271E-15 -1.66691390E-01
 -2.41581942E-11 -4.97212515E-15 -7.05005668E-14 -7.27163933E-14 -1.60636903E-14
 -4.23003401E-13 -1.96942879E-01  3.34122506E-14  1.73313893E-13  1.81141521E-01
 -4.67108694E-13  1.32306064E-11  9.63874937E-15 -8.00894193E-15 -2.97483727E-03
 -6.58005291E-13  1.76238969E-14  1.23935667E-02  3.19602570E-12  3.57053898E-15
 -3.76370214E-14  1.19385953E-13  1.64517680E-14  5.64004535E-13  4.09638942E-13
 -1.52911522E-14 -2.07271667E-11  2.21233097E-02  2.11053294E-14  1.06485231E-13
 -1.56877951E-02  4.55176891E-13  2.46751984E-13 -6.45330342E-02 -4.93215955E-13
 -2.02689130E-11  3.85549975E-15 -9.75298091E-16 -3.93867547E-03  3.07522004E-14
  3.41191849E-15  3.40779047E-03 -1.64501323E-13 -4.73115481E-15  5.80975196E-02
  1.17500945E-14 -1.19565115E-15  3.57551703E-14  7.01135413E-15 -6.77508044E-15
 -6.43042280E-14  2.40575017E-14  5.67619718E-15  1.41001134E-13  1.69337345E-14
  2.29453441E-15 -4.11253307E-14  1.21466588E-03 -8.36666217E-16 -3.69026405E-14
  1.23766397E-03  8.46481962E-14 -1.27782277E-13  5.51143047E-02 -3.58089396E-14
  2.24720557E-13 -5.75666346E-02 -4.80025904E-14 -4.99379015E-14  8.81257086E-14
  2.47944613E-15  1.93876559E-13 -4.00906029E-15  1.73604903E-01 -1.11625897E-13
 -1.46876181E-13  1.31109282E-16  1.82398996E-14 -2.80122252E-11  1.39296750E-15
 -1.41001134E-13 -1.66691390E-01 -1.34756891E-14  2.02101625E-11 -1.78648836E-14
 -1.96942879E-01  4.40628543E-15  1.36788614E-14  1.81141521E-01 -4.95853987E-12
  8.52799825E-14 -1.20234834E-15 -1.34420199E-14  5.17004157E-13  1.31292494E-14
 -1.69486955E-14 -8.36606727E-12 -2.80592033E-15 -7.89459472E-15 -2.97483727E-03
  1.57003632E-14  7.99006424E-13  1.23935667E-02 -1.44391421E-14 -3.16312543E-11
  2.01251916E-14  2.21233097E-02 -6.24223769E-15 -5.31452613E-14 -1.56877951E-02
  2.58502078E-13  4.56191401E-14 -6.45330342E-02 -2.84704789E-11  9.79939520E-15
 -1.40820707E-15 -7.88819478E-16 -1.83044440E-13 -1.04652779E-15  2.11347177E-14
  3.58377881E-13  1.54469915E-15 -1.25990704E-14 -2.23251795E-13 -1.06649331E-15
 -1.79234840E-14 -3.93867547E-03 -2.35578344E-15 -2.04341487E-13  3.40779047E-03
  2.51224102E-15  2.58502078E-13  5.80975196E-02  9.10035726E-16 -1.76251417E-14
  1.74875223E-15  1.21466588E-03  2.75392839E-15  2.12265003E-14  1.23766397E-03
 -9.17976131E-14 -1.52284247E-14  5.51143047E-02  9.84070412E-14 -7.74682776E-15
 -5.75666346E-02  8.81257086E-14 -1.08247901E-02  6.56771936E-15 -1.08247901E-02
 -2.09918009E-14 -3.52722074E-14  1.21310952E-01  1.67710703E-03  8.24497791E-15
 -3.28895142E-14 -1.24385779E-01  6.26586435E-15  1.67710703E-03 -6.25421709E-14
 -6.29437634E-14 -1.24385779E-01  1.03196422E-14  2.65397549E-14 -1.20255827E-01
 -2.64299178E-13 -4.88179796E-13  1.15252380E+00  9.42868916E-03 -1.17845992E-14
  5.16658142E-14  1.11795839E-01  6.75452487E-14  2.41083133E-13 -1.58870451E-01
 -8.71337060E-15  9.42868916E-03  9.03616672E-14  5.98631678E-14  1.11795839E-01
  4.29940429E-13 -5.68146515E-14 -1.58870451E-01  9.37040264E-15  8.96754966E-15
 -4.30681667E-04  2.39747586E-13  4.37542645E-13 -1.03365562E+00 -2.65003221E-13
 -4.67736044E-13  1.40662613E+00 -2.81006101E-04 -3.35416127E-15  2.21550087E-15
  1.09128324E-02 -1.09162385E-14  1.28964032E-14  3.76459228E-02  6.00006427E-15
  1.58852317E-14 -4.82777491E-02 -3.49512034E-15 -2.81006101E-04  7.45271104E-15
 -6.64178931E-15  1.09128324E-02  3.16996126E-14  2.22279283E-15  3.76459228E-02
  2.12258489E-14  7.95385883E-15 -4.82777491E-02  1.30175601E-15 -2.35097218E-16
 -6.24443459E-04  5.74411060E-14  1.13179322E-13  1.38764367E-03 -2.77457262E-14
 -5.25660522E-14 -3.72539829E-01 -3.09971358E-14 -6.03781726E-14  3.71776628E-01
  1.98655955E-02 -1.08433759E-16  1.98655955E-02 -1.91324587E-14  2.54572453E-14
 -1.71170066E-01 -1.18027488E-02 -6.22836164E-16 -4.74748527E-14  1.10826950E-01
  4.11285054E-15 -1.18027488E-02  4.98937310E-14 -1.73575365E-14  1.10826950E-01
  1.07842823E-14 -1.54163645E-14  1.72016165E-01 -3.54521201E-13  4.01730207E-13
 -9.72257312E-01 -1.19540910E-02 -8.56013942E-16  6.30006736E-14 -9.32915319E-02
  2.33621112E-14  3.22231333E-13 -3.37792311E-02 -5.64698255E-16 -1.19540910E-02
 -7.07115728E-14  9.78998656E-15 -9.32915319E-02 -3.65243958E-13 -1.49888673E-14
 -3.37792311E-02  7.18978546E-15 -9.18647383E-15 -8.06423259E-04  3.24758617E-13
 -3.68963613E-13  7.93424807E-01 -3.51099878E-13  3.97690167E-13  9.31245986E-02
  3.89124433E-03  1.37764834E-15  3.60663776E-15 -5.73266956E-03 -1.03956674E-14
  2.15055856E-14  1.39024854E-01  5.55683586E-15  1.91514760E-14 -1.37183429E-01
 -2.80343998E-15  3.89124433E-03 -4.63940350E-15  7.06109413E-15 -5.73266956E-03
 -2.10698851E-14 -7.12204765E-15  1.39024854E-01 -1.95400802E-14  3.55901434E-15
 -1.37183429E-01  1.15839096E-15 -8.54406973E-16 -3.96761347E-05  7.72374367E-14
 -8.26603249E-14  6.81633928E-03 -3.41321283E-14  3.82653631E-14 -8.85742982E-01
 -4.42636994E-14  4.52493688E-14  8.78966319E-01  1.96128200E-01  4.95081535E-15
  1.96128200E-01  3.38527347E-14 -7.62139612E-15 -1.28771829E+00 -1.93191789E-01
 -3.48344668E-15  4.15927776E-14  1.21526430E-01 -3.63809272E-15 -1.93191789E-01
 -1.19985029E-14  1.89336318E-14  1.21526430E-01 -1.58462561E-14  2.56278615E-15
  1.29634799E+00  3.69750423E-13 -6.61851642E-14 -8.24893541E-01  2.59233881E-03
  1.52676741E-15 -7.37960290E-14  6.19435580E-02 -1.99170692E-14 -3.45781480E-13
 -4.42678575E-02 -1.09156313E-15  2.59233881E-03  1.84097776E-14 -1.16723687E-14
  6.19435580E-02  5.67032764E-14  1.79963367E-14 -4.42678575E-02 -1.45836447E-14
  4.83886467E-15 -9.10759756E-03 -3.38288746E-13  5.85174792E-14 -4.71084895E-01
  3.74902897E-13 -6.86234778E-14  3.96209526E-01 -5.52874976E-03 -2.53019068E-15
 -1.64948334E-15  9.72180109E-03  2.66540710E-15 -8.12268714E-15 -2.02680393E-02
 -3.50487610E-15 -2.20305064E-14  1.60749879E-02 -3.59572827E-16 -5.52874976E-03
  1.21012141E-15 -4.73388470E-15  9.72180108E-03  6.91910159E-15  1.70915077E-15
 -2.02680393E-02  5.26713393E-15  3.14895553E-15  1.60749879E-02 -3.42283395E-15
  2.19745299E-16  4.77896940E-04 -7.30544550E-14  1.96661878E-14 -3.69554257E-04
  4.46746121E-14 -6.48957622E-15  8.39829664E-02  3.18026769E-14 -1.33963569E-14
 -8.40913090E-02  5.85301448E-02 -5.02594212E-14  2.04607902E-02  1.07464921E-11
  1.59830862E-13 -1.04473919E-01 -9.18387733E-02 -1.33495816E-14 -1.38639343E-11
  2.08320540E-01  1.38560114E-13 -3.35446512E-02 -2.09643778E-13 -4.62550527E-14
  6.87159525E-02  9.20659475E-12 -3.31897599E-13  1.09146620E-01 -2.40554318E-11
  4.77504461E-13 -2.51610039E-01  5.91686240E-02  1.01766113E-13  5.84383774E-12
 -1.70882099E-01 -2.20481428E-13  3.17111993E-11  2.68310093E-01 -1.34397504E-13
  2.02697458E-02  5.51040339E-14  7.57518551E-14 -5.33873063E-02 -3.52386904E-13
  2.28971670E-13  8.68722397E-02 -3.10481205E-11  1.62411130E-13 -8.20111620E-03
  6.17319119E-11 -3.67862202E-13  1.63328021E-01 -6.26257325E-11  3.02642243E-13
 -4.88407930E-01 -2.58599955E-02 -3.81571098E-14 -2.81413820E-12  5.44003333E-02
  1.28176367E-13 -1.67360615E-11 -1.56596625E-01 -1.70326021E-13  3.16917684E-11
  1.28056287E-01  4.60968120E-14 -7.18588483E-03 -5.29111802E-15 -1.61472210E-14
  1.82160085E-02  2.06780042E-13 -1.10256354E-13 -5.37546880E-02 -9.71911704E-14
  8.03067631E-14  4.27245643E-02  1.10351850E-11  9.65560737E-15  3.52841525E-03
 -2.39437043E-11  1.00001519E-13 -2.08646047E-02  2.50658377E-11 -5.35937316E-15
  3.33281019E-01 -1.20811508E-11 -1.04297753E-13 -3.15944829E-01  2.04607902E-02
 -6.75426991E-14  5.85301448E-02 -1.23525046E-13 -6.87853221E-12 -1.04473920E-01
 -3.35446512E-02 -2.35023990E-13  2.37422464E-13  6.87159490E-02  1.94902375E-13
 -9.18387733E-02 -3.02635986E-12  5.44529228E-13  2.08320539E-01  1.22682990E-13
  1.20835797E-12  1.09146620E-01 -3.27783200E-13  9.42397774E-12 -2.51610039E-01
  2.02697458E-02  3.35556428E-13 -8.28210408E-14 -5.33873063E-02 -8.31406658E-13
  2.69419233E-13  8.68722433E-02 -2.21798163E-13  5.91686240E-02  1.01696378E-11
 -4.35933430E-13 -1.70882099E-01 -1.16390983E-11  6.92508045E-13  2.68310093E-01
  1.44838512E-14  5.10971474E-12 -8.20111561E-03  1.81325104E-13  8.58844982E-12
  1.63328021E-01 -3.46460922E-13 -1.19499924E-11 -4.88407918E-01 -7.18588483E-03
 -3.29897395E-14 -3.10763771E-14  1.82160085E-02  9.19750561E-14 -6.43190221E-14
 -5.37546880E-02 -3.47764531E-14  1.50651967E-13  4.27245643E-02  9.44384868E-14
 -2.58599955E-02 -2.87668135E-13  1.26428194E-13  5.44003334E-02  1.70991761E-12
 -1.96657817E-13 -1.56596625E-01 -2.32199039E-12 -2.42088633E-14  1.28056287E-01
 -1.36417953E-14  4.68276665E-13  3.52841525E-03 -9.09643668E-14 -1.49472059E-11
 -2.08646047E-02  1.59862730E-13  1.39173692E-11  3.33281011E-01 -5.52565678E-14
  6.46076825E-13 -3.15944822E-01  2.30133772E-01 -1.90415711E-12  7.64417097E-02
  7.83064542E-12  6.05335809E-13 -6.84330861E-01 -2.28300580E-01 -3.04662055E-12
 -1.17265373E-11  2.29839663E-01  1.71325113E-12 -7.72765765E-02  5.87456284E-14
  1.07259365E-11  7.48453457E-02  1.11387531E-11 -5.09997257E-13  7.12449630E-01
 -2.35514433E-11  5.05031575E-12 -7.40558591E-01  8.87581764E-03  4.11564455E-12
  7.59808205E-12 -2.07239949E-02 -1.20262676E-11  2.73975435E-11  5.01347132E-02
 -7.99956058E-13  4.75163166E-03 -6.29798791E-13 -1.07946736E-11 -7.50860979E-03
 -4.24661170E-12  1.06476875E-11  2.03138548E-02 -2.71821340E-11 -5.90272415E-14
 -2.75908625E-02  5.25022430E-11 -4.08564365E-12  2.57488945E-02 -5.59706554E-11
  4.62664525E-12 -7.76431764E-02 -1.07090098E-02  8.35133114E-13 -3.91680280E-12
  1.91849133E-02 -4.12920053E-13 -1.48791978E-11 -3.82865404E-02  9.46942182E-13
  3.03996148E-11  2.98106368E-02  9.90862040E-13 -3.91676487E-03 -3.42826457E-14
  3.11535768E-12  9.93984467E-03 -2.93706792E-13 -2.73706448E-12 -1.75568858E-02
 -4.81974362E-13 -1.36915524E-12  1.15338060E-02  8.13121688E-12 -3.63113108E-14
 -5.27906407E-04 -1.72157614E-11 -1.02341773E-12  2.36006768E-03  2.08736249E-11
  2.49765236E-13  7.94851389E-02 -1.16099520E-11  8.09963800E-13 -8.13173002E-02
  7.64417097E-02  2.40578998E-12  2.30133772E-01  7.40594159E-13 -6.09158149E-12
 -6.84330861E-01 -7.72765765E-02 -3.33608921E-12  6.36043648E-13  7.48453477E-02
  5.45795611E-12 -2.28300580E-01 -3.48784331E-12 -1.43151129E-11  2.29839668E-01
 -6.81789500E-13  3.09922567E-12  7.12449630E-01  1.81393817E-12  5.62038260E-12
 -7.40558592E-01  4.75163170E-03  2.27683838E-12 -1.29320482E-12 -7.50860987E-03
  1.41886507E-11 -1.09026795E-12  2.03138598E-02 -6.79254565E-12  8.87581771E-03
  9.27885334E-12  1.60024160E-11 -2.07239951E-02 -8.88962849E-12 -1.37081688E-11
  5.01347133E-02 -9.47749924E-14  2.40168737E-12 -2.75908625E-02 -2.47508545E-12
  9.14222995E-12  2.57488945E-02  2.65584229E-12 -1.02012130E-11 -7.76431723E-02
 -3.91676488E-03 -1.34653914E-12 -8.34329840E-14  9.93984469E-03 -5.33149389E-12
 -4.18807243E-14 -1.75568858E-02  4.49829842E-12 -8.59818474E-14  1.15338060E-02
 -1.07120044E-12 -1.07090098E-02  2.68730615E-13  1.64878612E-12  1.91849134E-02
  6.61257201E-13 -2.75732029E-12 -3.82865404E-02 -2.15197018E-12  2.17973461E-12
  2.98106368E-02  3.59703334E-14  5.86266141E-13 -5.27906405E-04  2.51036250E-14
 -1.12771981E-11  2.36006768E-03 -2.72369514E-13  9.73001413E-12  7.94851389E-02
  2.11295556E-13  1.11727571E-12 -8.13173002E-02 -6.56759935E-03 -1.86822541E-13
 -6.56759935E-03  2.04418789E-12 -8.49507934E-13  3.03322368E-02  4.37865905E-03
 -6.35462158E-14  1.86780672E-12 -1.70688294E-01 -1.08743719E-13  4.37865905E-03
  1.75652981E-12  1.65509410E-12 -1.70688294E-01 -9.05769604E-13 -1.88156511E-13
 -3.25126537E-02  1.69412180E-11  7.80023072E-12  8.42282717E-01  1.14967057E-03
  4.42311225E-14 -3.79141184E-12  1.61645931E-01 -1.26691835E-12 -1.52982555E-11
 -2.21790634E-01  1.54658803E-13  1.14967058E-03 -4.96567656E-13 -1.71386586E-12
  1.61645931E-01 -5.24176992E-12  1.13729054E-12 -2.21790634E-01 -1.02977733E-12
  7.25417470E-13  2.19558315E-03 -1.50523573E-11 -6.85064422E-12 -8.16722556E-01
  1.70135446E-11  5.88575471E-12  1.12479944E+00  1.03926973E-03  2.25300020E-13
 -1.20582781E-13  4.66370562E-03 -2.62214947E-13 -7.37192849E-13  5.89950249E-02
  4.29520797E-13 -9.31409950E-13 -6.46980002E-02  1.14411330E-13  1.03926973E-03
 -4.10454215E-13  3.68510836E-13  4.66370563E-03 -2.37030429E-12 -2.19969912E-13
  5.89950249E-02  2.39472045E-13 -3.06936004E-13 -6.46980002E-02 -1.08640962E-13
  3.12246975E-13 -1.51662529E-05 -3.75666740E-12 -2.70611630E-12  6.95248994E-03
  2.07612278E-12 -1.47417129E-13 -3.10272475E-01  1.78918558E-12  2.54128646E-12
  3.03335151E-01 -1.11714481E-02 -1.87078582E-13 -1.11714481E-02 -2.50966220E-12
  4.22742100E-12  6.45904143E-02  5.38978558E-03  1.44797228E-13 -2.77550002E-12
 -9.44953596E-02  1.85533790E-13  5.38978558E-03  5.41193885E-12 -1.34875653E-12
 -9.44953596E-02  1.13742370E-12 -2.02919165E-12 -6.69371524E-02 -2.64932263E-11
  4.56914154E-11  5.51414330E-01  4.41305645E-03 -1.45628544E-13  5.14065540E-12
  8.79916339E-02  1.09530573E-12  2.49250539E-11 -4.84495429E-01 -3.51773575E-14
  4.41305645E-03 -9.13270093E-12  1.19872599E-12  8.79916339E-02 -4.11500323E-11
 -1.34329293E-12 -4.84495429E-01  1.16049001E-12 -2.01159506E-12  2.10839971E-03
  2.42080203E-11 -4.08766422E-11 -4.91106632E-01 -2.72116648E-11  4.50832763E-11
  2.20805663E+00  1.36860605E-03  9.83491913E-14  1.44506831E-13  1.11393842E-03
  1.81449118E-16  4.30748676E-13  3.92090733E-01  2.51610567E-13  1.84315456E-12
 -3.94573277E-01  1.21602435E-14  1.36860604E-03 -5.06658919E-13 -3.16784660E-14
  1.11393843E-03 -2.51219147E-12  4.94988838E-13  3.92090732E-01 -2.19503907E-12
 -3.90040608E-13 -3.94573277E-01  2.11748493E-13 -1.86634290E-13  2.38338402E-04
  5.06070609E-12 -1.02267120E-11  6.62945187E-03 -2.85404452E-12  5.19945686E-12
 -1.71905840E+00 -2.41841007E-12  5.21388946E-12  1.71219061E+00 -8.35806613E-01
  7.04149388E-13 -8.35806613E-01  1.92116445E-12  1.84115717E-12  3.66954289E+00
  8.25881740E-01  1.68970771E-13  3.02511138E-12 -8.40472415E-01 -4.57912700E-13
  8.25881740E-01  6.20372566E-13 -1.51893297E-12 -8.40472415E-01 -1.05215352E-12
 -1.06653108E-13 -3.69258012E+00  2.55224512E-11  9.35125710E-12  3.87569885E+00
  6.46112165E-03 -6.83492079E-13 -4.73607183E-12  1.39228855E-02  2.28735057E-12
 -2.36351298E-11 -1.85560267E-02 -1.46498436E-14  6.46112165E-03 -2.57772379E-12
  1.81009936E-12  1.39228855E-02 -9.40545643E-12 -1.75380907E-12 -1.85560267E-02
 -7.57360629E-13 -1.49218608E-12  2.31341349E-02 -2.36412521E-11 -8.46661873E-12
 -1.83266894E-01  2.55608343E-11  1.06893316E-11  1.76663365E-01  3.46375135E-03
 -1.91202952E-13 -2.10203997E-13  6.67791821E-04 -2.70052214E-13 -8.35167899E-13
 -1.82798561E-03 -1.13610616E-13 -1.16222160E-12 -2.30355757E-03 -2.16694197E-13
  3.46375134E-03  1.16194056E-13 -4.87457758E-13  6.67791825E-04  1.60852442E-13
  2.02673841E-13 -1.82798563E-03 -7.30526836E-13  5.34570469E-13 -2.30355753E-03
 -1.11650297E-13 -2.42317978E-13 -9.69061366E-05 -4.90631050E-12 -1.50501094E-12
  1.48161510E-04  2.81036731E-12  1.29384858E-12 -1.65306056E-02  2.20759349E-12
  4.53480339E-13  1.64793502E-02
Dipole Moment                              R   N=           3
  0.00000000E+00  0.00000000E+00 -3.28337357E-12
Dipole Derivatives                         R   N=          36
  1.96597236E-01  0.00000000E+00  0.00000000E+00  0.00000000E+00  1.96597236E-01
  0.00000000E+00  0.00000000E+00  0.00000000E+00  1.90995205E-01 -1.96597236E-01
  0.00000000E+00  0.00000000E+00  0.00000000E+00 -1.96597236E-01  0.00000000E+00
  0.00000000E+00  0.00000000E+00 -1.90995206E-01 -1.96597236E-01  0.00000000E+00
  0.00000000E+00  0.00000000E+00 -1.96597236E-01  0.00000000E+00  0.00000000E+00
  0.00000000E+00 -1.90995205E-01  1.96597236E-01  0.00000000E+00  0.00000000E+00
  0.00000000E+00  1.96597236E-01  0.00000000E+00  0.00000000E+00  0.00000000E+00
  1.90995205E-01
Polarizability                             R   N=           6
  7.86306371E+00  0.00000000E+00  7.86306371E+00  0.00000000E+00  0.00000000E+00
  2.78464800E+01
Quadrupole Moment                          R   N=           6
 -1.55214845E+00 -1.55214845E+00  3.10429690E+00  0.00000000E+00  0.00000000E+00
  0.00000000E+00
NDeriv for static properties               I                7
ND12 for static properties                 I               -2
Dipole Moment num derivs                   R   N=          42
  5.25699115E-02  1.27030819E-17 -1.31697240E-21  4.45764887E-18  5.25699115E-02
 -7.52634215E-18  2.47423646E-01 -1.59738518E-17  5.23838049E-21 -4.18078021E-17
  2.47423646E-01 -8.92627814E-18  0.00000000E+00  2.04949874E-17  3.80801441E-02
  0.00000000E+00 -6.83166246E-18  1.59636445E-01  0.00000000E+00 -1.36633249E-17
  1.82903752E-01 -1.19213772E-12 -5.27312126E-16  4.84317468E-02  2.12205202E-15
  7.19505935E-13  4.84317468E-02  3.71424188E-13 -7.50782358E-16 -1.08630857E-01
 -1.83541221E-15 -8.78404344E-13 -1.08630857E-01  6.15343925E-16  1.14159275E-14
 -1.19429693E-02  1.20950833E-14 -2.11780897E-14  9.75076407E-02 -3.25426725E-14
  3.45853007E-15 -1.25609578E-01
Dipole Derivatives num derivs              R   N=         504
  5.54457583E-13  2.13931541E-15  7.43346222E-02  1.95172249E-16  6.81505479E-13
 -1.03809879E-15 -3.53739131E-02 -5.16488701E-15 -2.46751984E-13 -1.75737350E-12
  1.25282636E-16 -4.62551269E-02 -2.46031178E-15 -2.12309520E-12 -3.33512310E-14
  4.86375087E-02 -1.38946010E-15 -6.31567578E-13  2.36176899E-12 -1.69112089E-15
 -1.34878391E-01  2.98937773E-15  2.71280306E-12  1.25212413E-13  3.40969768E-02
 -4.35269077E-15  1.04575841E-12 -9.70117175E-13 -5.73477131E-16  1.06798896E-01
 -7.24238187E-16 -1.11919650E-12 -9.08230833E-14 -4.73605724E-02  1.09070379E-14
 -1.32188563E-13 -6.66817861E-13  3.77820471E-15  5.88215442E-14  1.74822181E-15
 -5.64738916E-13  7.43346222E-02 -1.24061352E-14 -3.53739131E-02  6.99130621E-13
  1.67659161E-12 -7.74580389E-15 -7.80427446E-14  2.14022470E-15  1.50401209E-12
 -4.62551269E-02  6.73438765E-15  4.86375087E-02  2.76127220E-13 -1.54807495E-12
  2.21351030E-15 -1.94197557E-14 -6.52896900E-15 -1.31160430E-12 -1.34878391E-01
  1.16537234E-14  3.40969768E-02 -1.08100869E-12  6.38177006E-13  1.75408887E-15
  3.86409561E-14  2.64052249E-15  3.94362546E-13  1.06798896E-01 -5.98197584E-15
 -4.73605724E-02  1.73313893E-13  3.15049408E-13  1.44545498E-15 -1.19565739E-01
  1.08807184E-14  1.26313516E-13 -3.99573720E-14  4.76706615E-02  3.24513125E-14
  8.51881849E-13 -5.24347966E-13 -1.50887524E-14  2.51743705E-01 -2.52069043E-14
 -5.59598249E-13  1.61240119E-13  1.47743071E-02 -7.09755205E-14 -5.75754629E-13
 -5.93379771E-13  2.25904221E-14 -1.65426292E-01  1.63447406E-14 -4.42097305E-13
  2.43446564E-13 -5.36704586E-02 -5.89112660E-15 -1.58626275E-12  1.37329229E-13
 -8.94712474E-15  3.32483258E-02 -2.01855469E-15  2.46751984E-13 -3.64729311E-13
 -8.77451005E-03  4.44153346E-14  5.58129487E-13 -1.16619688E-12  3.61117550E-15
 -2.01922006E-13 -3.12561940E-15 -1.32041687E-12 -1.19565739E-01 -1.62170596E-14
  4.76706615E-02 -7.34380905E-13  2.43667584E-12 -2.28180074E-14  5.39069511E-14
  5.35953713E-18  2.68122468E-12  2.51743705E-01  1.34828333E-13  1.47743071E-02
  1.19263459E-12 -3.52135644E-12  1.75539311E-14  8.88093455E-14  3.61114982E-16
 -3.61241967E-12 -1.65426292E-01 -1.15192329E-13 -5.36704586E-02 -1.49226200E-12
  1.23596306E-12  1.65290084E-15  5.92057098E-14  2.75914488E-15  1.24257249E-12
  3.32483258E-02 -3.41894410E-15 -8.77451005E-03  2.05626653E-14 -1.84741836E-02
  9.69399484E-15 -9.48228009E-14 -2.75384013E-15 -1.84741836E-02 -1.11958012E-13
  1.95124640E-14  2.67013348E-14 -3.80031808E-02  8.42303063E-03 -1.08059168E-14
  8.62781384E-14 -2.21699469E-14  8.42303063E-03  3.49605197E-14 -1.26549346E-14
 -3.66271423E-14  6.83202311E-02  3.93254409E-02 -1.06523790E-14  1.28798241E-13
  2.51311566E-14  3.93254409E-02  3.59675999E-13 -2.23272530E-14 -2.71813615E-14
 -8.41673983E-03 -2.92742880E-02  7.48582850E-15 -1.20253578E-13 -4.61514738E-15
 -2.92742880E-02 -2.82678507E-13  1.54697237E-14  3.71071690E-14 -2.19003105E-02
  2.17353555E-02 -2.50852801E-14 -1.30753196E-13 -1.77385574E-14  2.17353555E-02
  1.15062965E-13  3.79622454E-14 -1.13166775E-14  2.45801553E-02 -6.38665664E-02
  7.66860054E-14  1.54847974E-13  2.72581512E-14 -6.38665664E-02 -8.55701895E-14
 -3.45542360E-14  9.19471272E-15  1.02513453E-01  6.56720110E-02 -6.26344379E-14
  1.29510143E-13  2.74835836E-15  6.56720110E-02 -2.17019781E-13 -1.20860604E-14
  2.95210491E-14 -2.19177218E-01 -2.35408001E-02  1.94699633E-14 -1.53604920E-13
 -1.07094686E-15 -2.35408001E-02  1.87527006E-13  8.67805105E-15 -2.73990843E-14
  9.20836098E-02  4.33156276E-02  2.38226849E-14  1.68312966E-13  1.72036333E-14
  4.33156276E-02 -4.13863538E-14 -3.31128866E-14  4.30607832E-15 -1.04258925E-01
 -9.15859494E-02 -8.38306426E-14 -1.93438144E-13 -3.52282076E-14 -9.15859494E-02
  2.98366207E-14  2.76440052E-14 -5.35902357E-16  2.49872596E-01  5.68352849E-02
  7.38002870E-14 -9.36613731E-14  1.28884410E-14  5.68352849E-02  6.46555125E-14
  1.40131885E-14 -1.00843018E-14 -1.18705304E-01 -8.56496308E-03 -1.03589611E-14
  1.18786552E-13  2.23632200E-15 -8.56496308E-03 -5.31057794E-14 -8.54430713E-15
  6.31412583E-15 -2.69083662E-02  4.71098826E-02 -2.79467320E-14  3.50958161E-11
 -1.84496831E-13  3.19040053E-03 -1.62444304E-12  5.80303289E-11  3.59601247E-13
 -4.13348132E-02  1.74021277E-03 -1.52506372E-12  3.46404048E-11  7.45133961E-13
  2.94904695E-02  1.43570630E-12 -2.03914962E-11 -7.53903379E-13  5.87590182E-02
 -1.40416014E-01  1.38374741E-12 -3.61171518E-11 -8.24188555E-13 -4.87522446E-02
  5.89986661E-13  3.11574192E-11  4.32264182E-13  9.41561199E-03  9.15659183E-02
  1.69263044E-13 -3.54127823E-11  2.63551424E-13  1.60713744E-02 -4.01249916E-13
 -6.82728326E-11 -3.79620500E-14 -2.68398173E-02  3.19040058E-03 -1.17717471E-13
  8.60346332E-13 -4.76451971E-13  4.71098827E-02 -6.83177665E-12 -5.45882862E-13
 -5.20225431E-11 -4.13348133E-02  2.94904693E-02 -3.25129622E-13 -6.68540083E-13
  2.26824018E-12  1.74021256E-03 -2.09027712E-11 -4.49602565E-13  8.98556847E-12
  5.87590180E-02 -4.87522444E-02  6.34464126E-13 -4.04315162E-13 -1.81214472E-12
 -1.40416014E-01 -2.76865779E-11  1.39150010E-12 -3.09946856E-11  9.41561205E-03
  1.60713742E-02 -1.91617033E-13  2.12508913E-13  2.03565120E-14  9.15659180E-02
  5.65438665E-11 -3.96014675E-13  7.19173374E-11 -2.68398173E-02  1.06766143E-01
 -1.36533227E-13  2.97875420E-11 -6.07366123E-12  3.36667636E-02 -5.32054999E-13
  7.64823802E-11 -9.53773626E-13  2.74282052E-02 -2.07461388E-01  3.63488199E-12
  3.49804452E-11  1.53066369E-11 -1.10748978E-01  3.63317580E-13 -4.66535475E-11
  3.18476224E-12 -6.65547119E-02  9.14104848E-02 -5.97102559E-12 -2.32101885E-11
 -9.39436195E-12  7.65747126E-02 -1.87076830E-12  1.23859728E-11 -2.50799744E-12
  4.37136347E-02  9.28476000E-03  2.47267683E-12 -4.24491905E-11  1.61386249E-13
  5.07501743E-04  2.03950572E-12 -4.18193566E-11  2.77008827E-13 -4.58712812E-03
  3.36667635E-02  9.91456370E-12 -3.05000248E-12 -1.61596173E-12  1.06766143E-01
 -3.72344275E-11  7.81256198E-13 -5.06125897E-11  2.74282050E-02 -1.10748978E-01
 -2.08822278E-11 -1.99215424E-13 -3.32046747E-12 -2.07461388E-01 -6.91739397E-12
 -2.64524893E-12  1.43448486E-11 -6.65547119E-02  7.65747122E-02  1.03629482E-11
  5.89406475E-13  1.15576497E-11  9.14104843E-02 -3.01032938E-11  2.44856325E-12
 -2.66567412E-11  4.37136348E-02  5.07501895E-04  6.04715865E-13  2.65981143E-12
 -6.62122046E-12  9.28476015E-03  7.27662240E-11 -5.84570515E-13  6.18975298E-11
 -4.58712822E-03 -4.79362894E-03 -8.11308329E-13  7.27428618E-12 -3.36331508E-13
 -4.79362895E-03 -3.81693892E-12 -2.46670756E-12 -2.53598966E-13 -1.81957277E-03
 -2.53665806E-03  2.79431308E-12 -7.90831579E-12 -1.35790508E-12 -2.53665809E-03
  8.75499287E-12  1.26607454E-12  1.81002607E-12  5.62194880E-03  1.83109255E-02
 -1.01632144E-12 -5.72278838E-12  2.94154645E-12  1.83109255E-02 -1.69293536E-11
  2.80349817E-12 -3.50272625E-13 -1.11971755E-02 -1.09806387E-02 -7.34951302E-13
  6.35681799E-12 -7.94653016E-13 -1.09806387E-02  1.19912996E-11 -1.60286515E-12
 -1.20615447E-12  7.39479919E-03 -1.34052363E-02  3.53811056E-12 -8.82828295E-12
  3.11518857E-12 -1.34052363E-02  1.63500630E-11  4.30918226E-13 -2.30207719E-12
  1.19979245E-02  4.26362030E-02 -6.63429310E-12  7.30692861E-12 -6.09848312E-12
  4.26362030E-02 -1.20647936E-11  1.28874540E-13  2.31052933E-12 -3.65262289E-02
  2.26766173E-02  3.17505335E-12  1.20069994E-11  1.95242090E-12  2.26766173E-02
 -2.77768964E-11 -3.08126884E-12  3.57205710E-12 -2.34319141E-02 -5.19075841E-02
  7.34872093E-14 -1.04856451E-11  6.42772046E-13 -5.19075841E-02  2.34916269E-11
  2.52147608E-12 -3.58050924E-12  4.79602182E-02 -9.40150268E-02 -2.35157180E-12
  7.63229659E-12 -1.41930262E-12 -9.40150268E-02  9.90963170E-12 -8.84088538E-13
 -1.22704511E-12  1.04780620E-01  6.84812953E-02  2.45565521E-12 -8.08687513E-12
  3.81451606E-13  6.84812952E-02 -1.26926072E-11  4.45855104E-13  4.71145192E-13
 -7.57548008E-02  3.47414678E-02  2.53895356E-12 -8.94036763E-12  3.59642065E-12
  3.47414679E-02  2.77013481E-12  2.37006815E-12  8.31043395E-13 -4.35211960E-02
 -9.20773635E-03 -2.42168997E-12  9.39494617E-12 -2.96661927E-12 -9.20773633E-03
  1.28406529E-14 -1.93183472E-12 -7.51434822E-14  1.44953765E-02
Polarizability num derivs                  R   N=          84
  3.29002645E-13 -4.47166331E-16  8.93007180E-13  1.30342064E+00  2.72925441E-14
 -2.35001889E-12 -2.18551757E-12 -7.19972725E-14 -2.82002267E-13 -1.97952562E-13
  1.30342064E+00 -9.40007558E-13 -1.73901398E-12  3.86513318E-14 -3.99503212E-13
  2.34079594E-02  4.77138895E-13  1.78601436E-12  6.58005291E-13  1.62506788E-13
  1.33951077E-12 -7.37672733E-13  2.34079594E-02 -3.94803174E-12 -5.65940088E-01
  3.81999970E-14 -5.65940088E-01  1.17848671E-13  2.21285555E-13 -7.22108690E+00
 -2.15540521E-01  1.13467849E-13 -2.15540521E-01  1.60213130E-13 -1.19506945E-13
 -6.74607106E-01  6.97088076E-01 -3.45245995E-13  6.97088076E-01 -2.24724802E-13
  4.74163795E-14  5.84499496E+00  5.15676979E+00 -4.17400016E-12  9.94711995E-01
 -2.76501450E-11 -1.68499418E-11  2.53425538E+00  9.94711994E-01 -5.64509136E-13
  5.15676979E+00 -9.55537410E-12 -1.86730775E-11  2.53425538E+00  3.16795011E+00
 -6.90593294E-11  5.23586500E-01 -2.92331547E-11 -1.09236688E-11  3.13610016E+00
  5.23586500E-01  9.88611751E-11  3.16795011E+00 -2.76561500E-11  3.16225459E-11
  3.13610016E+00 -1.59240109E-01 -1.38130855E-11 -1.59240109E-01 -2.39043747E-11
  4.14722617E-12  1.53476286E+00 -7.63440587E-02 -1.30029619E-11 -7.63440586E-02
  4.55717908E-12 -1.66654697E-11  2.62493286E+00 -5.79428832E-02  3.65946993E-12
 -5.79428830E-02 -5.16419322E-12  3.00574532E-12  6.40503834E+00
Quadrupole Moment num derivs               R   N=          84
  1.41001134E-13  4.23003401E-13 -5.64004535E-13 -5.78163894E-15 -5.83585618E-01
 -4.62490877E-14 -3.29002645E-13 -5.17004157E-13  7.99006424E-13  3.06454637E-14
  5.85664513E-14 -5.83585618E-01  1.59801285E-12  7.52006046E-13 -2.39701927E-12
 -6.54233859E-14  4.58503054E-01 -2.71455785E-13  1.03400831E-12  8.93007180E-13
 -2.02101625E-12 -7.64085681E-14  3.69836780E-13  4.58503054E-01  4.69942942E-01
  4.69942942E-01 -9.39885884E-01 -2.89044555E-13 -3.12229621E-14 -7.35100707E-14
  3.18054564E-02  3.18054564E-02 -6.36109127E-02  1.59646759E-14 -4.00117466E-14
  3.62827619E-14 -3.97297090E-01 -3.97297090E-01  7.94594181E-01  9.01349278E-14
  3.99070229E-14  2.40567721E-15  3.91936341E-01  1.15307872E-01 -5.07244213E-01
  6.81719877E-13  8.93820569E-12  1.40438303E-12  1.15307873E-01  3.91936341E-01
 -5.07244214E-01  4.17014218E-12 -4.37653382E-12 -1.97077720E-11  4.62438113E-01
 -8.78250164E-02 -3.74613096E-01  5.81714577E-11  1.60887702E-11  1.15790173E-11
 -8.78250165E-02  4.62438113E-01 -3.74613096E-01 -7.90713251E-11  1.11561467E-11
 -1.53892585E-11 -4.81204614E-02 -4.81204614E-02  9.62409228E-02  1.23925472E-11
  4.84321135E-12 -9.96124581E-13  2.58294957E-02  2.58294957E-02 -5.16589914E-02
 -1.35080960E-11 -2.91644097E-12  6.01625150E-12 -1.80766321E-02 -1.80766322E-02
  3.61532643E-02  9.81406144E-12  3.46156388E-12  2.98322501E-13
QEq coupling tensors                       R   N=          24
  1.66521145E-01  0.00000000E+00  1.66521145E-01  0.00000000E+00  0.00000000E+00
 -3.33042290E-01 -9.13333043E-02  0.00000000E+00 -9.13333043E-02  0.00000000E+00
  0.00000000E+00  1.82666609E-01 -9.13333043E-02  0.00000000E+00 -9.13333043E-02
  0.00000000E+00  0.00000000E+00  1.82666609E-01  1.66521145E-01  0.00000000E+00
  1.66521145E-01  0.00000000E+00  0.00000000E+00 -3.33042290E-01
NDeriv for magnetic props                  I                7
ND12 for magnetic props                    I               -2
QEq coupling tensors num derivs            R   N=         336
  3.52502834E-14 -5.36160777E-18  0.00000000E+00  8.49694204E-02 -4.58763604E-15
 -2.35001889E-14 -1.00279713E-12  9.30906562E-19  2.00522706E-12 -1.05603601E-01
  2.14852773E-14  5.01582158E-13 -1.00242993E-12 -4.32787084E-18 -1.00242993E-12
 -8.08511235E-02 -1.81612998E-14  5.00847777E-13 -3.67190452E-15  3.23884098E-18
 -1.54219990E-14  1.45972296E-01 -1.00433936E-15  1.90939035E-14 -1.54219990E-14
  5.07983527E-17 -3.89221879E-14  1.03504076E-15  8.49694204E-02  6.60942814E-14
 -1.00279713E-12  3.94444129E-14 -1.00279713E-12  2.65132884E-15 -1.05603601E-01
 -1.00242993E-12  0.00000000E+00  6.09946346E-17  0.00000000E+00  8.57689747E-15
 -8.08511235E-02 -1.50401209E-12  2.71720935E-14 -2.77924512E-17  2.71720935E-14
 -2.28566585E-16  1.45972296E-01 -5.43441869E-14  7.05005668E-14  3.33642108E-15
  1.29251039E-13 -2.14373923E-01 -1.55470011E-16 -1.99751606E-13 -1.00242993E-12
 -2.01905471E-14 -1.00242993E-12 -5.22247051E-03 -2.51271047E-13  5.00847777E-13
 -1.00279713E-12 -1.19917320E-13  2.00522706E-12  1.11279608E-01  3.67293148E-15
 -1.00242993E-12  3.89221879E-14 -1.98492401E-15  2.71720935E-14  7.27474306E-02
  1.41888195E-14 -6.60942814E-14 -1.02078946E-13  2.43769228E-15 -1.02078946E-13
  2.53785729E-15 -2.14373923E-01  2.04157891E-13  0.00000000E+00 -2.87011488E-14
  0.00000000E+00  1.11656328E-13 -5.22247051E-03  3.00802419E-12 -3.00802419E-12
 -6.36661954E-14  1.50401209E-12 -1.06615891E-14  1.11279608E-01 -1.50401209E-12
  8.95944704E-14  1.67411228E-15  6.60942814E-14 -6.01794138E-15  7.27474306E-02
 -1.55688752E-13  4.93223283E-02  4.27064179E-16  4.93223283E-02 -2.36997863E-15
 -8.04832024E-15 -9.86446565E-02  1.43479786E-02  1.29583317E-14  1.43479786E-02
  5.73262087E-15 -2.76748293E-14 -2.86959573E-02 -1.43371532E-03  5.91669088E-15
 -1.43371532E-03 -8.10982873E-15 -7.18022478E-14  2.86743065E-03  1.54856572E-01
  1.19653732E-16  1.54856572E-01  3.31594705E-15  4.51674745E-16 -3.09713143E-01
 -7.13846490E-02 -3.33372284E-15 -7.13846490E-02 -4.92350267E-15  6.77556679E-15
  1.42769298E-01 -2.34575291E-02 -1.39140335E-13 -2.34575291E-02 -6.66306983E-15
 -3.93450130E-14  4.69150582E-02 -8.96053157E-02  4.90400540E-14 -8.96053157E-02
 -6.40332070E-15  1.95277731E-14  1.79210631E-01  3.71086650E-01  1.41212334E-15
  3.71086650E-01 -1.49968899E-15  2.29730895E-15 -7.42173301E-01 -5.42443310E-01
 -4.03869826E-16 -5.42443310E-01  4.57630565E-15  1.07688164E-15  1.08488662E+00
  1.16599004E-01 -9.34803053E-15  1.16599004E-01  2.76430146E-15 -5.30206840E-14
 -2.33198009E-01  4.08339728E-02 -1.14795348E-13  4.08339728E-02  6.94673192E-15
 -5.07815599E-14 -8.16679457E-02 -3.53115321E-02 -3.17618143E-15 -3.53115321E-02
  2.02229668E-15 -3.93128364E-16  7.06230642E-02 -6.12989716E-02  4.27864337E-15
 -3.53838471E-02  1.10270255E-12  1.36455366E-13  9.66828187E-02 -1.32801402E-01
  3.76673175E-14  6.89328616E-02 -3.67850884E-12 -1.59051446E-13  6.38685400E-02
 -1.15478873E-02  1.25033692E-14  1.46839943E-02 -1.15735191E-12  5.92438948E-14
 -3.13610687E-03 -1.79765622E-01 -4.69135167E-15 -1.07053133E-01 -1.27758049E-12
 -6.41524855E-14  2.86818755E-01 -3.53838471E-02 -6.65173682E-15 -6.12989716E-02
  5.06707204E-14 -1.13670659E-12  9.66828187E-02  6.89328617E-02 -4.22446391E-12
 -1.32801402E-01 -7.78454251E-14  2.65972341E-11  6.38685402E-02  1.46839943E-02
 -5.41859654E-14 -1.15478876E-02 -9.15291632E-13  1.77549684E-11 -3.13610719E-03
 -1.07053133E-01  1.66948501E-15 -1.79765622E-01  4.98533381E-13 -3.30810765E-12
  2.86818755E-01 -3.95205624E-01 -1.21785614E-12 -2.28036575E-01  4.39137932E-12
  5.59698594E-13  6.23242199E-01  1.01808176E-01  1.97949607E-11 -2.99707452E-02
 -1.91879959E-11 -3.04753848E-12 -7.18374304E-02 -1.60454147E-01  5.55806747E-11
  8.48026524E-02 -1.10804604E-11  1.97177370E-12  7.56514945E-02 -5.09867437E-02
  6.02379972E-13 -2.51956663E-02  2.01838286E-12 -4.93519220E-13  7.61824100E-02
 -2.28036575E-01  1.84651081E-12 -3.95205624E-01 -1.77836873E-12  3.36154258E-12
  6.23242199E-01 -2.99707451E-02 -2.75224587E-11  1.01808176E-01  1.38635766E-11
 -1.13877112E-11 -7.18374304E-02  8.48026525E-02 -8.41567965E-11 -1.60454147E-01
 -2.59282949E-12  8.66253006E-12  7.56514945E-02 -2.51956663E-02 -5.59074047E-13
 -5.09867437E-02  1.72528997E-12 -1.33587313E-12  7.61824099E-02  1.38260792E-02
  4.51985262E-14  1.38260792E-02  7.04402955E-13  2.64783222E-13 -2.76521584E-02
  6.03808581E-02  1.37145076E-12  6.03808578E-02 -7.71553754E-13  1.81662346E-12
 -1.20761716E-01  6.60005556E-02  6.26195595E-13  6.60005556E-02  8.89648582E-12
  7.80058126E-12 -1.32001111E-01  1.32200314E-01  1.26636057E-14  1.32200314E-01
  1.57695141E-13 -4.32134780E-13 -2.64400628E-01  2.76704755E-02  3.61066275E-13
  2.76704755E-02  6.10274897E-13  7.95839910E-13 -5.53409510E-02  3.47418828E-02
  1.53152958E-11  3.47418830E-02 -2.52086004E-12  3.65352514E-12 -6.94837656E-02
  9.45684246E-02  2.09303355E-12  9.45684246E-02  7.86821877E-13  9.38640870E-13
 -1.89136849E-01  7.44289289E-01 -1.32090998E-13  7.44289289E-01 -6.53705078E-13
  4.07615480E-14 -1.48857858E+00  1.59474842E+00 -3.49387528E-14  1.59474842E+00
  4.06327297E-13 -3.64949601E-13 -3.18949684E+00  1.33366835E-01 -8.14476379E-13
  1.33366835E-01 -2.48068290E-13 -3.61616410E-12 -2.66733670E-01  1.44677191E-02
  7.82444693E-12  1.44677189E-02  5.24743126E-13  8.69214395E-12 -2.89354383E-02
  5.88178011E-03 -2.97281503E-14  5.88178011E-03  4.15067659E-13 -5.14330864E-13
 -1.17635602E-02
Number of Normal Modes                     I                7
Vib-LE2Fix                                 I               14
Vib-NDFDPol                                I                0
Vib-NumROA                                 I                0
Vib-NDim                                   I                4
Vib-NDim0                                  I                4
Vib-LFlags                                 I                8
Vib-IFlags                                 I   N=          56
           0           0           1           0           0           0
           0           0           0           0           2           0
           0           0           0           0           0           0
           3           0           0           0           0           0
           0           0           4           0           0           0
           0           0           0           0           5           0
           0           0           0           0           0           0
           6           0           0           0           0           0
           0           0           7           0           0           0
           0           0
Vib-AtMass                                 R   N=           4
  1.00782504E+00  1.20000000E+01  1.20000000E+01  2.01410179E+00
Vib-E2                                     R   N=          98
  4.67043561E+02  4.67043561E+02  6.97978500E+02  6.97978500E+02  1.94635100E+03
  2.69525596E+03  3.49714455E+03  3.03860676E+00  3.03860676E+00  1.23842855E+00
  1.23842855E+00  3.31313082E+00  2.83629997E+00  1.17237093E+00  3.90516582E-01
  3.90516582E-01  3.55471878E-01  3.55471878E-01  7.39487970E+00  1.21395445E+01
  8.44777642E+00  2.69417462E+00  2.69417462E+00  5.96806650E+01  5.96806650E+01
  1.41367122E+00  2.48436466E+01  3.26134303E+01  0.00000000E+00  0.00000000E+00
  0.00000000E+00  0.00000000E+00  0.00000000E+00  0.00000000E+00  0.00000000E+00
  0.00000000E+00  0.00000000E+00  0.00000000E+00  0.00000000E+00  0.00000000E+00
  0.00000000E+00  0.00000000E+00  0.00000000E+00  0.00000000E+00  0.00000000E+00
  0.00000000E+00  0.00000000E+00  0.00000000E+00  0.00000000E+00  0.00000000E+00
  0.00000000E+00  0.00000000E+00  0.00000000E+00  0.00000000E+00  0.00000000E+00
  0.00000000E+00  0.00000000E+00  0.00000000E+00  0.00000000E+00  0.00000000E+00
  0.00000000E+00  0.00000000E+00  0.00000000E+00  0.00000000E+00  0.00000000E+00
  0.00000000E+00  0.00000000E+00  0.00000000E+00  0.00000000E+00  0.00000000E+00
  0.00000000E+00  0.00000000E+00  0.00000000E+00  0.00000000E+00  0.00000000E+00
  0.00000000E+00  0.00000000E+00  0.00000000E+00  0.00000000E+00  0.00000000E+00
  0.00000000E+00  0.00000000E+00  0.00000000E+00  0.00000000E+00  0.00000000E+00
  0.00000000E+00  0.00000000E+00  0.00000000E+00  0.00000000E+00  0.00000000E+00
  0.00000000E+00  0.00000000E+00  0.00000000E+00  0.00000000E+00  0.00000000E+00
  0.00000000E+00  0.00000000E+00  0.00000000E+00
Vib-Modes                                  R   N=          84
 -1.93347835E-04 -4.52908889E-01  5.41255437E-18  8.25914423E-05  1.93466859E-01
  4.19250016E-17 -1.25073098E-04 -2.92978290E-01 -3.16641341E-17  3.49853551E-04
  8.19516718E-01 -6.38425120E-17 -4.52908889E-01  1.93347835E-04 -1.39189734E-20
  1.93466859E-01 -8.25914423E-05 -1.74865791E-20 -2.92978290E-01  1.25073098E-04
  1.40001179E-20  8.19516718E-01 -3.49853551E-04  2.77371406E-20  9.38810878E-01
  6.19910105E-04  5.62564488E-21 -9.99291434E-02 -6.59846272E-05  5.26875490E-21
 -3.39467455E-02 -2.24155164E-05 -4.31567324E-21  3.27865038E-01  2.16493923E-04
 -8.49343653E-21 -6.19910105E-04  9.38810878E-01 -3.61217941E-17  6.59846272E-05
 -9.99291434E-02  9.56087172E-18  2.24155164E-05 -3.39467455E-02 -4.67978087E-18
 -2.16493923E-04  3.27865038E-01 -1.10067137E-17  0.00000000E+00  1.43477127E-33
  4.97763913E-01  0.00000000E+00 -2.41404805E-17  3.18895556E-01  0.00000000E+00
  5.14117708E-17 -2.30996951E-01  0.00000000E+00 -1.62482098E-16 -7.72772360E-01
  0.00000000E+00  4.42505023E-34  3.41340480E-01  0.00000000E+00 -7.44528698E-18
  1.08931458E-01  0.00000000E+00  1.58561628E-17 -2.86724407E-01  0.00000000E+00
 -5.01119209E-17  8.88487326E-01  0.00000000E+00  5.68990011E-34  9.91991778E-01
  0.00000000E+00 -9.57343691E-18 -1.15852191E-01  0.00000000E+00  2.03884651E-17
  3.80602856E-02  0.00000000E+00 -6.44358390E-17 -3.28937149E-02
Anharmonic Number of Normal Modes          I               35
Anharmonic Vib-LE2Fix                      I               14
Anharmonic Vib-NDFDPol                     I                0
Anharmonic Vib-NumROA                      I                0
Anharmonic Vib-NDim                        I                4
Anharmonic Vib-NDim0                       I                4
Anharmonic Vib-LFlags                      I                8
Anharmonic Vib-IFlags                      I   N=         280
           1           0           7           0           0           0
           0           0           1           0           6           0
           0           0           0           0           1           0
           5           0           0           0           0           0
           1           0           4           0           0           0
           0           0           1           0           3           0
           0           0           0           0           1           0
           2           0           0           0           0           0
           1           0           1           0           0           0
           0           0           2           0           7           0
           0           0           0           0           3           0
           7           6           0           0           0           0
           2           0           6           0           0           0
           0           0           3           0           7           5
           0           0           0           0           3           0
           6           5           0           0           0           0
           2           0           5           0           0           0
           0           0           3           0           7           4
           0           0           0           0           3           0
           6           4           0           0           0           0
           3           0           5           4           0           0
           0           0           2           0           4           0
           0           0           0           0           3           0
           7           3           0           0           0           0
           3           0           6           3           0           0
           0           0           3           0           5           3
           0           0           0           0           3           0
           4           3           0           0           0           0
           2           0           3           0           0           0
           0           0           3           0           7           2
           0           0           0           0           3           0
           6           2           0           0           0           0
           3           0           5           2           0           0
           0           0           3           0           4           2
           0           0           0           0           3           0
           3           2           0           0           0           0
           2           0           2           0           0           0
           0           0           3           0           7           1
           0           0           0           0           3           0
           6           1           0           0           0           0
           3           0           5           1           0           0
           0           0           3           0           4           1
           0           0           0           0           3           0
           3           1           0           0           0           0
           3           0           2           1           0           0
           0           0           2           0           1           0
           0           0           0           0
Anharmonic Vib-AtMass                      R   N=           4
  1.00782504E+00  1.20000000E+01  1.20000000E+01  2.01410179E+00
Anharmonic Vib-E2                          R   N=         490
  5.93082285E+02  5.93082285E+02  7.06333334E+02  7.06333334E+02  1.91884658E+03
  2.62524319E+03  3.37343910E+03  1.29694673E+03  1.24644878E+03  1.24630066E+03
  1.36015023E+03  1.34629563E+03  1.40052189E+03  1.28098256E+03  1.28485231E+03
  1.41697560E+03  1.41617424E+03  2.50836340E+03  2.50836340E+03  2.62448371E+03
  2.62448371E+03  3.82831702E+03  3.20698427E+03  3.20698427E+03  3.32907631E+03
  3.32907631E+03  4.52259326E+03  5.20799633E+03  3.96499392E+03  3.96499392E+03
  4.06669768E+03  4.06669768E+03  5.28604898E+03  5.99281622E+03  6.64382633E+03
  0.00000000E+00  0.00000000E+00  0.00000000E+00  0.00000000E+00  0.00000000E+00
  0.00000000E+00  0.00000000E+00  0.00000000E+00  0.00000000E+00  0.00000000E+00
  0.00000000E+00  0.00000000E+00  0.00000000E+00  0.00000000E+00  0.00000000E+00
  0.00000000E+00  0.00000000E+00  0.00000000E+00  0.00000000E+00  0.00000000E+00
  0.00000000E+00  0.00000000E+00  0.00000000E+00  0.00000000E+00  0.00000000E+00
  0.00000000E+00  0.00000000E+00  0.00000000E+00  0.00000000E+00  0.00000000E+00
  0.00000000E+00  0.00000000E+00  0.00000000E+00  0.00000000E+00  0.00000000E+00
  0.00000000E+00  0.00000000E+00  0.00000000E+00  0.00000000E+00  0.00000000E+00
  0.00000000E+00  0.00000000E+00  0.00000000E+00  0.00000000E+00  0.00000000E+00
  0.00000000E+00  0.00000000E+00  0.00000000E+00  0.00000000E+00  0.00000000E+00
  0.00000000E+00  0.00000000E+00  0.00000000E+00  0.00000000E+00  0.00000000E+00
  0.00000000E+00  0.00000000E+00  0.00000000E+00  0.00000000E+00  0.00000000E+00
  0.00000000E+00  0.00000000E+00  0.00000000E+00  0.00000000E+00  0.00000000E+00
  0.00000000E+00  0.00000000E+00  0.00000000E+00  0.00000000E+00  0.00000000E+00
  1.21333896E+01  1.21333897E+01  5.71952921E+01  5.71952921E+01  1.30745318E+00
  2.02375614E+01  2.56266526E+01  2.02114015E+00  2.34555566E-22  1.70731772E-22
  6.45800095E-23  1.53768670E-22  5.68527140E+00  5.16288246E-23  1.14772372E+01
  2.92588882E-23  3.90759296E-23  1.32698365E-01  1.32698365E-01  2.00763537E-01
  2.00763537E-01  4.95602162E-02  6.22207710E-01  6.22207710E-01  1.99580898E-02
  1.99580898E-02  8.01243694E-02  6.09449419E-01  5.13393350E-01  5.13393350E-01
  9.70675411E-01  9.70675411E-01  1.57535354E-03  6.16326704E-02  1.61590196E+00
  0.00000000E+00  0.00000000E+00  0.00000000E+00  0.00000000E+00  0.00000000E+00
  0.00000000E+00  0.00000000E+00  0.00000000E+00  0.00000000E+00  0.00000000E+00
  0.00000000E+00  0.00000000E+00  0.00000000E+00  0.00000000E+00  0.00000000E+00
  0.00000000E+00  0.00000000E+00  0.00000000E+00  0.00000000E+00  0.00000000E+00
  0.00000000E+00  0.00000000E+00  0.00000000E+00  0.00000000E+00  0.00000000E+00
  0.00000000E+00  0.00000000E+00  0.00000000E+00  0.00000000E+00  0.00000000E+00
  0.00000000E+00  0.00000000E+00  0.00000000E+00  0.00000000E+00  0.00000000E+00
  0.00000000E+00  0.00000000E+00  0.00000000E+00  0.00000000E+00  0.00000000E+00
  0.00000000E+00  0.00000000E+00  0.00000000E+00  0.00000000E+00  0.00000000E+00
  0.00000000E+00  0.00000000E+00  0.00000000E+00  0.00000000E+00  0.00000000E+00
  0.00000000E+00  0.00000000E+00  0.00000000E+00  0.00000000E+00  0.00000000E+00
  0.00000000E+00  0.00000000E+00  0.00000000E+00  0.00000000E+00  0.00000000E+00
  0.00000000E+00  0.00000000E+00  0.00000000E+00  0.00000000E+00  0.00000000E+00
  0.00000000E+00  0.00000000E+00  0.00000000E+00  0.00000000E+00  0.00000000E+00
  0.00000000E+00  0.00000000E+00  0.00000000E+00  0.00000000E+00  0.00000000E+00
  0.00000000E+00  0.00000000E+00  0.00000000E+00  0.00000000E+00  0.00000000E+00
  0.00000000E+00  0.00000000E+00  0.00000000E+00  0.00000000E+00  0.00000000E+00
  0.00000000E+00  0.00000000E+00  0.00000000E+00  0.00000000E+00  0.00000000E+00
  0.00000000E+00  0.00000000E+00  0.00000000E+00  0.00000000E+00  0.00000000E+00
  0.00000000E+00  0.00000000E+00  0.00000000E+00  0.00000000E+00  0.00000000E+00
  0.00000000E+00  0.00000000E+00  0.00000000E+00  0.00000000E+00  0.00000000E+00
  8.16158665E+01  8.16158668E+01  3.23041251E+02  3.23041251E+02  2.71827440E+00
  3.07536058E+01  3.03058459E+01  6.21701186E+00  7.50721249E-22  5.46511025E-22
  1.89416858E-22  4.55653620E-22  1.61945433E+01  1.60789034E-22  3.56362132E+01
  8.23764083E-23  1.10077873E-22  2.11048622E-01  2.11048622E-01  3.05174583E-01
  3.05174583E-01  5.16455256E-02  7.74008914E-01  7.74008914E-01  2.39167754E-02
  2.39167754E-02  7.06780398E-02  4.66846816E-01  5.16553273E-01  5.16553273E-01
  9.52224922E-01  9.52224922E-01  1.18892444E-03  4.10286690E-02  9.70295770E-01
  0.00000000E+00  0.00000000E+00  0.00000000E+00  0.00000000E+00  0.00000000E+00
  0.00000000E+00  0.00000000E+00  0.00000000E+00  0.00000000E+00  0.00000000E+00
  0.00000000E+00  0.00000000E+00  0.00000000E+00  0.00000000E+00  0.00000000E+00
  0.00000000E+00  0.00000000E+00  0.00000000E+00  0.00000000E+00  0.00000000E+00
  0.00000000E+00  0.00000000E+00  0.00000000E+00  0.00000000E+00  0.00000000E+00
  0.00000000E+00  0.00000000E+00  0.00000000E+00  0.00000000E+00  0.00000000E+00
  0.00000000E+00  0.00000000E+00  0.00000000E+00  0.00000000E+00  0.00000000E+00
  0.00000000E+00  0.00000000E+00  0.00000000E+00  0.00000000E+00  0.00000000E+00
  0.00000000E+00  0.00000000E+00  0.00000000E+00  0.00000000E+00  0.00000000E+00
  0.00000000E+00  0.00000000E+00  0.00000000E+00  0.00000000E+00  0.00000000E+00
  0.00000000E+00  0.00000000E+00  0.00000000E+00  0.00000000E+00  0.00000000E+00
  0.00000000E+00  0.00000000E+00  0.00000000E+00  0.00000000E+00  0.00000000E+00
  0.00000000E+00  0.00000000E+00  0.00000000E+00  0.00000000E+00  0.00000000E+00
  0.00000000E+00  0.00000000E+00  0.00000000E+00  0.00000000E+00  0.00000000E+00
  0.00000000E+00  0.00000000E+00  0.00000000E+00  0.00000000E+00  0.00000000E+00
  0.00000000E+00  0.00000000E+00  0.00000000E+00  0.00000000E+00  0.00000000E+00
  0.00000000E+00  0.00000000E+00  0.00000000E+00  0.00000000E+00  0.00000000E+00
  0.00000000E+00  0.00000000E+00  0.00000000E+00  0.00000000E+00  0.00000000E+00
  0.00000000E+00  0.00000000E+00  0.00000000E+00  0.00000000E+00  0.00000000E+00
  0.00000000E+00  0.00000000E+00  0.00000000E+00  0.00000000E+00  0.00000000E+00
  0.00000000E+00  0.00000000E+00  0.00000000E+00  0.00000000E+00  0.00000000E+00
  0.00000000E+00  0.00000000E+00  0.00000000E+00  0.00000000E+00  0.00000000E+00
  0.00000000E+00  0.00000000E+00  0.00000000E+00  0.00000000E+00  0.00000000E+00
  0.00000000E+00  0.00000000E+00  0.00000000E+00  0.00000000E+00  0.00000000E+00
  0.00000000E+00  0.00000000E+00  0.00000000E+00  0.00000000E+00  0.00000000E+00
  0.00000000E+00  0.00000000E+00  0.00000000E+00  0.00000000E+00  0.00000000E+00
  0.00000000E+00  0.00000000E+00  0.00000000E+00  0.00000000E+00  0.00000000E+00
  0.00000000E+00  0.00000000E+00  0.00000000E+00  0.00000000E+00  0.00000000E+00
  0.00000000E+00  0.00000000E+00  0.00000000E+00  0.00000000E+00  0.00000000E+00
  0.00000000E+00  0.00000000E+00  0.00000000E+00  0.00000000E+00  0.00000000E+00
  0.00000000E+00  0.00000000E+00  0.00000000E+00  0.00000000E+00  0.00000000E+00
  0.00000000E+00  0.00000000E+00  0.00000000E+00  0.00000000E+00  0.00000000E+00
  0.00000000E+00  0.00000000E+00  0.00000000E+00  0.00000000E+00  0.00000000E+00
  0.00000000E+00  0.00000000E+00  0.00000000E+00  0.00000000E+00  0.00000000E+00
  0.00000000E+00  0.00000000E+00  0.00000000E+00  0.00000000E+00  0.00000000E+00
  0.00000000E+00  0.00000000E+00  0.00000000E+00  0.00000000E+00  0.00000000E+00
  0.00000000E+00  0.00000000E+00  0.00000000E+00  0.00000000E+00  0.00000000E+00
  0.00000000E+00  0.00000000E+00  0.00000000E+00  0.00000000E+00  0.00000000E+00
  0.00000000E+00  0.00000000E+00  0.00000000E+00  0.00000000E+00  0.00000000E+00
  0.00000000E+00  0.00000000E+00  0.00000000E+00  0.00000000E+00  0.00000000E+00
  0.00000000E+00  0.00000000E+00  0.00000000E+00  0.00000000E+00  0.00000000E+00
  0.00000000E+00  0.00000000E+00  0.00000000E+00  0.00000000E+00  0.00000000E+00
Anharmonic Vib-Modes                       R   N=         420
 -3.07702119E-01  4.52255458E-17 -8.16277861E-21  1.16082913E-01 -4.58449734E-18
  2.89218464E-22 -1.66341746E-01 -2.10260151E-18  3.39374664E-22  4.53410999E-01
  1.73137674E-17  3.39374664E-22  1.74852191E-17 -3.07702119E-01  4.94732010E-18
 -7.63437963E-19  1.16082913E-01  2.35635255E-17 -2.98887822E-18 -1.66341746E-01
 -1.79261117E-17  1.35064127E-17  4.53410999E-01 -3.60632214E-17  7.41311855E-01
 -3.21075105E-17  2.38662333E-20 -4.60969236E-02  2.43409188E-18 -8.45613445E-22
 -9.66804454E-02  3.29660477E-18 -9.92259537E-22  4.79725397E-01 -1.79724547E-17
 -9.92259537E-22  1.41816734E-17  7.41311856E-01 -3.12363387E-17 -3.01452895E-17
 -4.60969237E-02  1.80611091E-17  6.04282612E-17 -9.66804453E-02 -1.13573226E-17
 -1.87628300E-16  4.79725397E-01 -2.43109232E-17  0.00000000E+00 -7.89875983E-34
 -2.65272276E-01  0.00000000E+00  1.32899133E-17 -1.79970895E-01  0.00000000E+00
 -2.83034124E-17  1.34910770E-01  0.00000000E+00  8.94502903E-17  4.01205916E-01
  0.00000000E+00  6.28526767E-34  3.08777083E-01  0.00000000E+00 -1.05751617E-17
  1.52323283E-01  0.00000000E+00  2.25218296E-17 -2.32535001E-01  0.00000000E+00
 -7.11781382E-17  3.23393460E-01  0.00000000E+00  3.32372915E-34  7.85899926E-01
  0.00000000E+00 -5.59227942E-18 -1.53485356E-01  0.00000000E+00  1.19098287E-17
  1.38829018E-01  0.00000000E+00 -3.76399009E-17 -3.05929703E-01  3.67441862E-01
  3.67441862E-01  5.25829279E-02 -1.56958330E-01 -1.56958330E-01  9.54054864E-03
  2.37691268E-01  2.37691268E-01  5.64966740E-03 -6.64868267E-01 -6.64868267E-01
 -1.16814843E-01  2.59820632E-01  2.59820632E-01 -3.09836820E-18 -1.10986299E-01
 -1.10986299E-01 -2.40513876E-17  1.68073107E-01  1.68073107E-01  1.81645143E-17
 -4.70132860E-01 -4.70132860E-01  3.66243120E-17 -3.67441862E-01  3.67441862E-01
  2.65792597E-16  1.56958330E-01 -1.56958330E-01  1.45609009E-17 -2.37691268E-01
  2.37691268E-01  5.41165274E-17  6.64868267E-01 -6.64868267E-01 -5.42177948E-16
 -4.12802809E-01  4.12802809E-01  7.25299983E-17 -1.49838351E-02  1.49838351E-02
  1.20479970E-17  1.40415516E-01 -1.40415516E-01 -2.22948580E-17 -5.40760734E-01
  5.40760734E-01  2.47578270E-17  7.80244670E-01 -7.80244670E-01  2.51709278E-17
 -1.41974495E-01  1.41974495E-01  1.09308908E-17  9.72757523E-02 -9.72757523E-02
 -9.87187175E-18 -1.24107533E-01  1.24107533E-01 -1.89047644E-17  1.19304748E+00
  1.19304748E+00 -2.08515763E-01 -1.26990660E-01 -1.26990660E-01  5.19779912E-03
 -4.31397634E-02 -4.31397634E-02  5.93360327E-03  4.16653201E-01  4.16653201E-01
  3.80172335E-02  4.12802809E-01  4.12802809E-01 -2.07422957E-17  1.49838351E-02
  1.49838351E-02  2.30812468E-17 -1.40415516E-01 -1.40415516E-01 -1.58185797E-17
  5.40760734E-01  5.40760734E-01 -3.28917833E-17  4.12802809E-01  4.12802809E-01
  1.18376567E-01  1.49838351E-02  1.49838351E-02 -1.40132962E-02 -1.40415516E-01
 -1.40415516E-01 -7.95673793E-03  5.40760734E-01  5.40760734E-01  7.16634796E-02
  8.43611963E-01  8.43611963E-01 -3.24324040E-17 -8.97959565E-02 -8.97959565E-02
  8.59042463E-18 -3.05044192E-02 -3.05044192E-02 -4.20633568E-18  2.94618304E-01
  2.94618304E-01 -9.89169401E-18 -1.19304748E+00  1.19304748E+00 -2.01593643E-15
  1.26990660E-01 -1.26990660E-01  6.15333084E-17  4.31397634E-02 -4.31397634E-02
  4.99480617E-17 -4.16653201E-01  4.16653201E-01  3.44538082E-16 -2.55314557E-01
  4.03993483E-17 -2.73466490E-01  1.05053186E-01  9.13658368E-18 -1.75198012E-01
 -1.56621821E-01 -3.00558817E-17  1.26907403E-01  4.35000871E-01  1.04519759E-16
  4.24553365E-01  1.66137799E-17 -2.55314557E-01 -2.73466490E-01 -1.82946389E-18
  1.05053186E-01 -1.75198012E-01 -4.89663639E-19 -1.56621821E-01  1.26907403E-01
  5.40762438E-18  4.35000871E-01  4.24553365E-01  8.25631088E-01 -4.81026399E-17
 -2.73466490E-01 -8.88546503E-02  1.73565139E-17 -1.75198012E-01 -2.77828662E-02
 -2.42894186E-17  1.26907403E-01  2.81792370E-01  6.54363969E-17  4.24553365E-01
  6.75104346E-18  8.25631088E-01 -2.73466490E-01 -2.84369264E-17 -8.88546503E-02
 -1.75198012E-01  5.87524555E-17 -2.77828662E-02  1.26907403E-01 -1.84060224E-16
  2.81792370E-01  4.24553365E-01  0.00000000E+00 -1.59964575E-33 -5.26316246E-01
  0.00000000E+00  2.69145457E-17 -3.64226887E-01  0.00000000E+00 -5.73196733E-17
  2.62034028E-01  0.00000000E+00  1.81153472E-16  8.72224539E-01 -2.79023918E-01
  4.14603881E-17  2.02680382E-01  1.06631283E-01 -8.62847485E-18  6.46810759E-02
 -1.53750712E-01  7.49804369E-18 -1.70250573E-01  4.20356337E-01 -1.39162553E-17
  5.27564006E-01  1.61852263E-17 -2.79023918E-01  2.02680382E-01 -8.79539296E-19
  1.06631283E-01  6.46810759E-02 -2.39868907E-18 -1.53750712E-01 -1.70250573E-01
  1.13396263E-17  4.20356337E-01  5.27564006E-01  8.57950446E-01 -5.07247741E-17
  2.02680382E-01 -9.45793861E-02 -8.37893246E-20  6.46810759E-02 -2.40860387E-02
  1.35425879E-17 -1.70250573E-01  2.77702528E-01 -5.47461232E-17  5.27564006E-01
  6.47374074E-18  8.57950446E-01  2.02680382E-01 -2.92424558E-17 -9.45793861E-02
  6.46810759E-02  6.05403677E-17 -2.40860387E-02 -1.70250573E-01 -1.89773586E-16
  2.77702528E-01  5.27564006E-01  0.00000000E+00 -5.10166028E-34 -7.04082420E-02
  0.00000000E+00  8.58370480E-18 -1.01308064E-01  0.00000000E+00 -1.82806413E-17
 -6.21929280E-02  0.00000000E+00  5.77742587E-17  1.00936860E+00  0.00000000E+00
  5.06436426E-34  4.00206287E-01  0.00000000E+00 -8.52095306E-18  1.27645531E-01
  0.00000000E+00  1.81469994E-17 -3.47949541E-01  0.00000000E+00 -5.73518961E-17
  1.11231230E+00 -3.19469059E-01  4.68275262E-17  9.16168913E-01  1.20134552E-01
 -1.35872195E-17 -1.06997032E-01 -1.71877565E-01  1.66500005E-17  3.51511487E-02
  4.68141720E-01 -4.15742061E-17 -3.03794847E-02  1.80604555E-17 -3.19469059E-01
  9.16168913E-01 -7.39565472E-19  1.20134552E-01 -1.06997032E-01 -3.19148967E-18
 -1.71877565E-01  3.51511487E-02  1.42802327E-17  4.68141720E-01 -3.03794847E-02
  9.58232432E-01 -5.69067139E-17  9.16168913E-01 -1.06403134E-01 -3.96935360E-18
 -1.06997032E-01 -2.52640691E-02  2.34458981E-17  3.51511487E-02  3.04987467E-01
 -8.75006658E-17 -3.03794847E-02  7.04509428E-18  9.58232432E-01  9.16168913E-01
 -3.25551989E-17 -1.06403134E-01 -1.06997032E-01  6.74414627E-17 -2.52640691E-02
  3.51511487E-02 -2.11444899E-16  3.04987467E-01 -3.03794847E-02  0.00000000E+00
 -2.70156645E-34  6.39067824E-01  0.00000000E+00  4.54547100E-18 -2.83901323E-01
  0.00000000E+00 -9.68044996E-18  1.64472783E-01  0.00000000E+00  3.05941576E-17
  3.91774607E-01  0.00000000E+00  7.91270428E-34  1.11911230E+00  0.00000000E+00
 -1.33133752E-17 -4.16886164E-02  0.00000000E+00  2.83533792E-17 -1.34684998E-01
  0.00000000E+00 -8.96082057E-17  4.90846089E-01  0.00000000E+00  1.03536691E-33
  1.82492893E+00  0.00000000E+00 -1.74203758E-17 -2.17580240E-01  0.00000000E+00
  3.71000225E-17  7.50972434E-02  0.00000000E+00 -1.17251155E-16 -6.42535076E-02
Anharmonic number of displacements         I                7
Anharmonic displacement N1                 I                0
Anharmonic displacement flags              I   N=           7
           1           2           3           4           5           6
           7
Anharmonic displacements                   R   N=          84
 -2.59820632E-01  4.24544495E-17 -6.65936610E-21  1.10986299E-01 -4.34915154E-18
  2.35950493E-22 -1.68073107E-01 -1.87362312E-18  2.76868973E-22  4.70132860E-01
  1.59375293E-17  2.76868973E-22  1.78903357E-17 -2.59820632E-01  3.10502756E-18
 -2.42032762E-18  1.10986299E-01  2.40511516E-17  4.31254341E-19 -1.68073107E-01
 -1.81647912E-17  2.79460701E-18  4.70132860E-01 -3.66245889E-17  8.43611963E-01
 -4.88232529E-17  2.64882494E-20 -8.97959565E-02  4.14649888E-18 -9.38515077E-22
 -3.05044192E-02  4.03431310E-18 -1.10127215E-21  2.94618304E-01 -2.42475952E-17
 -1.10127215E-21  7.13764751E-18  8.43611963E-01 -3.24588923E-17 -2.91923252E-17
 -8.97959565E-02  8.59136314E-18  6.02584619E-17 -3.05044192E-02 -4.20523441E-18
 -1.88728631E-16  2.94618304E-01 -9.89059274E-18  0.00000000E+00 -7.88248911E-34
 -2.73466490E-01  0.00000000E+00  1.32625373E-17 -1.75198012E-01  0.00000000E+00
 -2.82451100E-17  1.26907403E-01  0.00000000E+00  8.92660310E-17  4.24553365E-01
  0.00000000E+00  2.62749637E-34  2.02680382E-01  0.00000000E+00 -4.42084576E-18
  6.46810759E-02  0.00000000E+00  9.41503666E-18 -1.70250573E-01  0.00000000E+00
 -2.97553437E-17  5.27564006E-01  0.00000000E+00  5.25499274E-34  9.16168913E-01
  0.00000000E+00 -8.84169151E-18 -1.06997032E-01  0.00000000E+00  1.88300733E-17
  3.51511487E-02  0.00000000E+00 -5.95106873E-17 -3.03794847E-02
ClPar MaxAn                                I              200
ClPar NIntPar                              I               12
ClPar NRealPar                             I               16
ClPar NBits                                I               30
ClPar LenBitVec                            I                1
ClPar Read BitMap                          I   N=         200
           0           0           0           0           0           0
           0           0           0           0           0           0
           0           0           0           0           0           0
           0           0           0           0           0           0
           0           0           0           0           0           0
           0           0           0           0           0           0
           0           0           0           0           0           0
           0           0           0           0           0           0
           0           0           0           0           0           0
           0           0           0           0           0           0
           0           0           0           0           0           0
           0           0           0           0           0           0
           0           0           0           0           0           0
           0           0           0           0           0           0
           0           0           0           0           0           0
           0           0           0           0           0           0
           0           0           0           0           0           0
           0           0           0           0           0           0
           0           0           0           0           0           0
           0           0           0           0           0           0
           0           0           0           0           0           0
           0           0           0           0           0           0
           0           0           0           0           0           0
           0           0           0           0           0           0
           0           0           0           0           0           0
           0           0           0           0           0           0
           0           0           0           0           0           0
           0           0           0           0           0           0
           0           0           0           0           0           0
           0           0           0           0           0           0
           0           0           0           0           0           0
           0           0           0           0           0           0
           0           0           0           0           0           0
           0           0
ClPar Default BitMap                       I   N=         200
      516096      516096      516096      516096      516096      516096
      516096      516096      516096      516096      516096      516096
      516096      516096      516096      516096      516096      516096
      516096      516096      516096      516096      516096      516096
      516096      516096      516096      516096      516096      516096
      516096      516096      516096      516096      516096      516096
      516096      516096      516096      516096      516096      516096
      516096      516096      516096      516096      516096      516096
      516096      516096      516096      516096      516096      516096
      516096      516096      516096      516096      516096      516096
      516096      516096      516096      516096      516096      516096
      516096      516096      516096      516096      516096      516096
      516096      516096      516096      516096      516096      516096
      516096      516096      516096      516096      516096      516096
      516096      516096      122880      122880      122880      122880
      122880      122880      122880      122880      122880      122880
      122880      122880      122880      122880      122880      122880
      122880      122880      122880      122880      122880      122880
      122880      122880      122880      122880      122880      122880
      122880      122880      122880      122880      122880      122880
      122880      122880      122880      122880      122880      122880
      122880      122880      122880      122880      122880      122880
      122880      122880      122880      122880      122880      122880
      122880      122880      122880      122880      122880      122880
      122880      122880      122880      122880      122880      122880
      122880      122880      122880      122880      122880      122880
      122880      122880      122880      122880      122880      122880
      122880      122880      122880      122880      122880      122880
      122880      122880      122880      122880      122880      122880
      122880      122880      122880      122880      122880      122880
      122880      122880      122880      122880      122880      122880
      122880      122880      122880      122880      122880      122880
      122880      122880      122880      122880      122880      122880
      122880      122880
ClPar Int Params                           I   N=        2400
           0           0           0           0           0           0
           0           0           0           0           0           0
           0           0           0           0           0           0
           0           0           0           0           0           0
           0           0           0           0           0           0
           0           0           0           0           0           0
           0           0           0           0           0           0
           0           0           0           0           0           0
           0           0           0           0           0           0
           0           0           0           0           0           0
           0           0           0           0           0           0
           0           0           0           0           0           0
           0           0           0           0           0           0
           0           0           0           0           0           0
           0           0           0           0           0           0
           0           0           0           0           0           0
           0           0           0           0           0           0
           0           0           0           0           0           0
           0           0           0           0           0           0
           0           0           0           0           0           0
           0           0           0           0           0           0
           0           0           0           0           0           0
           0           0           0           0           0           0
           0           0           0           0           0           0
           0           0           0           0           0           0
           0           0           0           0           0           0
           0           0           0           0           0           0
           0           0           0           0           0           0
           0           0           0           0           0           0
           0           0           0           0           0           0
           0           0           0           0           0           0
           0           0           0           0           0           0
           0           0           0           0           0           0
           0           0           0           0           0           0
           0           0           0           0           0           0
           0           0           0           0           0           0
           0           0           0           0           0           0
           0           0           0           0           0           0
           0           0           0           0           0           0
           0           0           0           0           0           0
           0           0           0           0           0           0
           0           0           0           0           0           0
           0           0           0           0           0           0
           0           0           0           0           0           0
           0           0           0           0           0           0
           0           0           0           0           0           0
           0           0           0           0           0           0
           0           0           0           0           0           0
           0           0           0           0           0           0
           0           0           0           0           0           0
           0           0           0           0           0           0
           0           0           0           0           0           0
           0           0           0           0           0           0
           0           0           0           0           0           0
           0           0           0           0           0           0
           0           0           0           0           0           0
           0           0           0           0           0           0
           0           0           0           0           0           0
           0           0           0           0           0           0
           0           0           0           0           0           0
           0           0           0           0           0           0
           0           0           0           0           0           0
           0           0           0           0           0           0
           0           0           0           0           0           0
           0           0           0           0           0           0
           0           0           0           0           0           0
           0           0           0           0           0           0
           0           0           0           0           0           0
           0           0           0           0           0           0
           0           0           0           0           0           0
           0           0           0           0           0           0
           0           0           0           0           0           0
           0           0           0           0           0           0
           0           0           0           0           0           0
           0           0           0           0           0           0
           0           0           0           0           0           0
           0           0           0           0           0           0
           0           0           0           0           0           0
           0           0           0           0           0           0
           0           0           0           0           0           0
           0           0           0           0           0           0
           0           0           0           0           0           0
           0           0           0           0           0           0
           0           0           0           0           0           0
           0           0           0           0           0           0
           0           0           0           0           0           0
           0           0           0           0           0           0
           0           0           0           0           0           0
           0           0           0           0           0           0
           0           0           0           0           0           0
           0           0           0           0           0           0
           0           0           0           0           0           0
           0           0           0           0           0           0
           0           0           0           0           0           0
           0           0           0           0           0           0
           0           0           0           0           0           0
           0           0           0           0           0           0
           0           0           0           0           0           0
           0           0           0           0           0           0
           0           0           0           0           0           0
           0           0           0           0           0           0
           0           0           0           0           0           0
           0           0           0           0           0           0
           0           0           0           0           0           0
           0           0           0           0           0           0
           0           0           0           0           0           0
           0           0           0           0           0           0
           0           0           0           0           0           0
           0           0           0           0           0           0
           0           0           0           0           0           0
           0           0           0           0           0           0
           0           0           0           0           0           0
           0           0           0           0           0           0
           0           0           0           0           0           0
           0           0           0           0           0           0
           0           0           0           0           0           0
           0           0           0           0           0           0
           0           0           0           0           0           0
           0           0           0           0           0           0
           0           0           0           0           0           0
           0           0           0           0           0           0
           0           0           0           0           0           0
           0           0           0           0           0           0
           0           0           0           0           0           0
           0           0           0           0           0           0
           0           0           0           0           0           0
           0           0           0           0           0           0
           0           0           0           0           0           0
           0           0           0           0           0           0
           0           0           0           0           0           0
           0           0           0           0           0           0
           0           0           0           0           0           0
           0           0           0           0           0           0
           0           0           0           0           0           0
           0           0           0           0           0           0
           0           0           0           0           0           0
           0           0           0           0           0           0
           0           0           0           0           0           0
           0           0           0           0           0           0
           0           0           0           0           0           0
           0           0           0           0           0           0
           0           0           0           0           0           0
           0           0           0           0           0           0
           0           0           0           0           0           0
           0           0           0           0           0           0
           0           0           0           0           0           0
           0           0           0           0           0           0
           0           0           0           0           0           0
           0           0           0           0           0           0
           0           0           0           0           0           0
           0           0           0           0           0           0
           0           0           0           0           0           0
           0           0           0           0           0           0
           0           0           0           0           0           0
           0           0           0           0           0           0
           0           0           0           0           0           0
           0           0           0           0           0           0
           0           0           0           0           0           0
           0           0           0           0           0           0
           0           0           0           0           0           0
           0           0           0           0           0           0
           0           0           0           0           0           0
           0           0           0           0           0           0
           0           0           0           0           0           0
           0           0           0           0           0           0
           0           0           0           0           0           0
           0           0           0           0           0           0
           0           0           0           0           0           0
           0           0           0           0           0           0
           0           0           0           0           0           0
           0           0           0           0           0           0
           0           0           0           0           0           0
           0           0           0           0           0           0
           0           0           0           0           0           0
           0           0           0           0           0           0
           0           0           0           0           0           0
           0           0           0           0           0           0
           0           0           0           0           0           0
           0           0           0           0           0           0
           0           0           0           0           0           0
           0           0           0           0           0           0
           0           0           0           0           0           0
           0           0           0           0           0           0
           0           0           0           0           0           0
           0           0           0           0           0           0
           0           0           0           0           0           0
           0           0           0           0           0           0
           0           0           0           0           0           0
           0           0           0           0           0           0
           0           0           0           0           0           0
           0           0           0           0           0           0
           0           0           0           0           0           0
           0           0           0           0           0           0
           0           0           0           0           0           0
           0           0           0           0           0           0
           0           0           0           0           0           0
           0           0           0           0           0           0
           0           0           0           0           0           0
           0           0           0           0           0           0
           0           0           0           0           0           0
           0           0           0           0           0           0
           0           0           0           0           0           0
           0           0           0           0           0           0
           0           0           0           0           0           0
           0           0           0           0           0           0
           0           0           0           0           0           0
           0           0           0           0           0           0
           0           0           0           0           0           0
           0           0           0           0           0           0
           0           0           0           0           0           0
           0           0           0           0           0           0
           0           0           0           0           0           0
           0           0           0           0           0           0
           0           0           0           0           0           0
           0           0           0           0           0           0
           0           0           0           0           0           0
           0           0           0           0           0           0
           0           0           0           0           0           0
           0           0           0           0           0           0
           0           0           0           0           0           0
           0           0           0           0           0           0
           0           0           0           0           0           0
           0           0           0           0           0           0
           0           0           0           0           0           0
           0           0           0           0           0           0
           0           0           0           0           0           0
           0           0           0           0           0           0
           0           0           0           0           0           0
           0           0           0           0           0           0
           0           0           0           0           0           0
           0           0           0           0           0           0
           0           0           0           0           0           0
           0           0           0           0           0           0
           0           0           0           0           0           0
           0           0           0           0           0           0
           0           0           0           0           0           0
           0           0           0           0           0           0
           0           0           0           0           0           0
           0           0           0           0           0           0
           0           0           0           0           0           0
           0           0           0           0           0           0
           0           0           0           0           0           0
           0           0           0           0           0           0
           0           0           0           0           0           0
           0           0           0           0           0           0
           0           0           0           0           0           0
           0           0           0           0           0           0
           0           0           0           0           0           0
           0           0           0           0           0           0
           0           0           0           0           0           0
           0           0           0           0           0           0
           0           0           0           0           0           0
           0           0           0           0           0           0
           0           0           0           0           0           0
           0           0           0           0           0           0
           0           0           0           0           0           0
           0           0           0           0           0           0
           0           0           0           0           0           0
           0           0           0           0           0           0
           0           0           0           0           0           0
           0           0           0           0           0           0
           0           0           0           0           0           0
           0           0           0           0           0           0
           0           0           0           0           0           0
           0           0           0           0           0           0
           0           0           0           0           0           0
           0           0           0           0           0           0
           0           0           0           0           0           0
           0           0           0           0           0           0
           0           0           0           0           0           0
           0           0           0           0           0           0
           0           0           0           0           0           0
           0           0           0           0           0           0
           0           0           0           0           0           0
           0           0           0           0           0           0
           0           0           0           0           0           0
           0           0           0           0           0           0
           0           0           0           0           0           0
           0           0           0           0           0           0
           0           0           0           0           0           0
           0           0           0           0           0           0
           0           0           0           0           0           0
           0           0           0           0           0           0
           0           0           0           0           0           0
           0           0           0           0           0           0
           0           0           0           0           0           0
           0           0           0           0           0           0
           0           0           0           0           0           0
           0           0           0           0           0           0
           0           0           0           0           0           0
           0           0           0           0           0           0
           0           0           0           0           0           0
           0           0           0           0           0           0
           0           0           0           0           0           0
           0           0           0           0           0           0
           0           0           0           0           0           0
           0           0           0           0           0           0
           0           0           0           0           0           0
           0           0           0           0           0           0
           0           0           0           0           0           0
           0           0           0           0           0           0
           0           0           0           0           0           0
           0           0           0           0           0           0
           0           0           0           0           0           0
           0           0           0           0           0           0
           0           0           0           0           0           0
           0           0           0           0           0           0
           0           0           0           0           0           0
           0           0           0           0           0           0
           0           0           0           0           0           0
           0           0           0           0           0           0
           0           0           0           0           0           0
           0           0           0           0           0           0
           0           0           0           0           0           0
           0           0           0           0           0           0
           0           0           0           0           0           0
           0           0           0           0           0           0
           0           0           0           0           0           0
           0           0           0           0           0           0
           0           0           0           0           0           0
           0           0           0           0           0           0
           0           0           0           0           0           0
           0           0           0           0           0           0
           0           0           0           0           0           0
           0           0           0           0           0           0
           0           0           0           0           0           0
           0           0           0           0           0           0
           0           0           0           0           0           0
           0           0           0           0           0           0
           0           0           0           0           0           0
           0           0           0           0           0           0
           0           0           0           0           0           0
           0           0           0           0           0           0
           0           0           0           0           0           0
           0           0           0           0           0           0
           0           0           0           0           0           0
           0           0           0           0           0           0
           0           0           0           0           0           0
           0           0           0           0           0           0
           0           0           0           0           0           0
           0           0           0           0           0           0
           0           0           0           0           0           0
           0           0           0           0           0           0
           0           0           0           0           0           0
           0           0           0           0           0           0
           0           0           0           0           0           0
           0           0           0           0           0           0
           0           0           0           0           0           0
           0           0           0           0           0           0
           0           0           0           0           0           0
           0           0           0           0           0           0
           0           0           0           0           0           0
           0           0           0           0           0           0
           0           0           0           0           0           0
           0           0           0           0           0           0
           0           0           0           0           0           0
           0           0           0           0           0           0
           0           0           0           0           0           0
           0           0           0           0           0           0
           0           0           0           0           0           0
           0           0           0           0           0           0
           0           0           0           0           0           0
           0           0           0           0           0           0
           0           0           0           0           0           0
           0           0           0           0           0           0
           0           0           0           0           0           0
           0           0           0           0           0           0
           0           0           0           0           0           0
           0           0           0           0           0           0
           0           0           0           0           0           0
           0           0           0           0           0           0
           0           0           0           0           0           0
           0           0           0           0           0           0
           0           0           0           0           0           0
           0           0           0           0           0           0
           0           0           0           0           0           0
           0           0           0           0           0           0
           0           0           0           0           0           0
           0           0           0           0           0           0
           0           0           0           0           0           0
           0           0           0           0           0           0
           0           0           0           0           0           0
           0           0           0           0           0           0
           0           0           0           0           0           0
           0           0           0           0           0           0
           0           0           0           0           0           0
           0           0           0           0           0           0
           0           0           0           0           0           0
           0           0           0           0           0           0
           0           0           0           0           0           0
           0           0           0           0           0           0
           0           0           0           0           0           0
           0           0           0           0           0           0
           0           0           0           0           0           0
           0           0           0           0           0           0
           0           0           0           0           0           0
           0           0           0           0           0           0
           0           0           0           0           0           0
           0           0           0           0           0           0
           0           0           0           0           0           0
ClPar Real Params                          R   N=        3200
  0.00000000E+00  0.00000000E+00  0.00000000E+00  0.00000000E+00  0.00000000E+00
  0.00000000E+00  0.00000000E+00  0.00000000E+00  0.00000000E+00  0.00000000E+00
  0.00000000E+00  0.00000000E+00  0.00000000E+00  0.00000000E+00  0.00000000E+00
  0.00000000E+00  0.00000000E+00  0.00000000E+00  0.00000000E+00  0.00000000E+00
  0.00000000E+00  0.00000000E+00  0.00000000E+00  0.00000000E+00  0.00000000E+00
  0.00000000E+00  0.00000000E+00  0.00000000E+00  0.00000000E+00  0.00000000E+00
  0.00000000E+00  0.00000000E+00  0.00000000E+00  0.00000000E+00  0.00000000E+00
  0.00000000E+00  0.00000000E+00  0.00000000E+00  0.00000000E+00  0.00000000E+00
  0.00000000E+00  0.00000000E+00  0.00000000E+00  0.00000000E+00  0.00000000E+00
  0.00000000E+00  0.00000000E+00  0.00000000E+00  0.00000000E+00  0.00000000E+00
  0.00000000E+00  0.00000000E+00  0.00000000E+00  0.00000000E+00  0.00000000E+00
  0.00000000E+00  0.00000000E+00  0.00000000E+00  0.00000000E+00  0.00000000E+00
  0.00000000E+00  0.00000000E+00  0.00000000E+00  0.00000000E+00  0.00000000E+00
  0.00000000E+00  0.00000000E+00  0.00000000E+00  0.00000000E+00  0.00000000E+00
  0.00000000E+00  0.00000000E+00  0.00000000E+00  0.00000000E+00  0.00000000E+00
  0.00000000E+00  0.00000000E+00  0.00000000E+00  0.00000000E+00  0.00000000E+00
  0.00000000E+00  0.00000000E+00  0.00000000E+00  0.00000000E+00  0.00000000E+00
  0.00000000E+00  0.00000000E+00  0.00000000E+00  0.00000000E+00  0.00000000E+00
  0.00000000E+00  0.00000000E+00  0.00000000E+00  0.00000000E+00  0.00000000E+00
  0.00000000E+00  0.00000000E+00  0.00000000E+00  0.00000000E+00  0.00000000E+00
  0.00000000E+00  0.00000000E+00  0.00000000E+00  0.00000000E+00  0.00000000E+00
  0.00000000E+00  0.00000000E+00  0.00000000E+00  0.00000000E+00  0.00000000E+00
  0.00000000E+00  0.00000000E+00  0.00000000E+00  0.00000000E+00  0.00000000E+00
  0.00000000E+00  0.00000000E+00  0.00000000E+00  0.00000000E+00  0.00000000E+00
  0.00000000E+00  0.00000000E+00  0.00000000E+00  0.00000000E+00  0.00000000E+00
  0.00000000E+00  0.00000000E+00  0.00000000E+00  0.00000000E+00  0.00000000E+00
  0.00000000E+00  0.00000000E+00  0.00000000E+00  0.00000000E+00  0.00000000E+00
  0.00000000E+00  0.00000000E+00  0.00000000E+00  0.00000000E+00  0.00000000E+00
  0.00000000E+00  0.00000000E+00  0.00000000E+00  0.00000000E+00  0.00000000E+00
  0.00000000E+00  0.00000000E+00  0.00000000E+00  0.00000000E+00  0.00000000E+00
  0.00000000E+00  0.00000000E+00  0.00000000E+00  0.00000000E+00  0.00000000E+00
  0.00000000E+00  0.00000000E+00  0.00000000E+00  0.00000000E+00  0.00000000E+00
  0.00000000E+00  0.00000000E+00  0.00000000E+00  0.00000000E+00  0.00000000E+00
  0.00000000E+00  0.00000000E+00  0.00000000E+00  0.00000000E+00  0.00000000E+00
  0.00000000E+00  0.00000000E+00  0.00000000E+00  0.00000000E+00  0.00000000E+00
  0.00000000E+00  0.00000000E+00  0.00000000E+00  0.00000000E+00  0.00000000E+00
  0.00000000E+00  0.00000000E+00  0.00000000E+00  0.00000000E+00  0.00000000E+00
  0.00000000E+00  0.00000000E+00  0.00000000E+00  0.00000000E+00  0.00000000E+00
  0.00000000E+00  0.00000000E+00  0.00000000E+00  0.00000000E+00  0.00000000E+00
  0.00000000E+00  0.00000000E+00  0.00000000E+00  0.00000000E+00  0.00000000E+00
  2.26000000E-01  4.43000000E-01  1.01000000E-01  1.47000000E-01  1.92000000E-01
  2.40000000E-01  2.75000000E-01  3.03000000E-01  3.25000000E-01  4.13000000E-01
  9.60000000E-02  1.35000000E-01  1.73000000E-01  2.11000000E-01  2.48000000E-01
  2.86000000E-01  3.23000000E-01  3.60000000E-01  8.20000000E-02  1.04000000E-01
  1.17000000E-01  1.23000000E-01  1.29000000E-01  1.34000000E-01  1.40000000E-01
  1.44000000E-01  1.48000000E-01  1.52000000E-01  1.55000000E-01  1.76000000E-01
  1.98000000E-01  2.19000000E-01  2.39000000E-01  2.60000000E-01  2.80000000E-01
  3.00000000E-01  7.90000000E-02  9.90000000E-02  1.19000000E-01  1.26000000E-01
  1.33000000E-01  1.40000000E-01  1.47000000E-01  1.53000000E-01  1.58000000E-01
  1.63000000E-01  1.57000000E-01  1.70000000E-01  1.87000000E-01  2.03000000E-01
  2.19000000E-01  2.34000000E-01  2.50000000E-01  2.65000000E-01  7.40000000E-02
  9.20000000E-02  1.05000000E-01  1.06000000E-01  1.07000000E-01  1.08000000E-01
  1.09000000E-01  1.10000000E-01  1.11000000E-01  1.12000000E-01  1.13000000E-01
  1.14000000E-01  1.15000000E-01  1.16000000E-01  1.17000000E-01  1.17000000E-01
  1.26000000E-01  1.36000000E-01  1.46000000E-01  1.55000000E-01  1.65000000E-01
  1.73000000E-01  1.82000000E-01  1.90000000E-01  1.62000000E-01  1.78000000E-01
  1.10000000E-01  1.35000000E-01  1.59000000E-01  1.83000000E-01  2.07000000E-01
  2.31000000E-01  6.90000000E-02  9.40000000E-02  1.02000000E-01  1.03000000E-01
  1.05000000E-01  1.07000000E-01  1.09000000E-01  1.11000000E-01  1.13000000E-01
  1.15000000E-01  1.17000000E-01  1.19000000E-01  1.20000000E-01  1.22000000E-01
  1.24000000E-01  1.26000000E-01  1.28000000E-01  1.28000000E-01  1.28000000E-01
  1.28000000E-01  1.28000000E-01  1.28000000E-01  1.28000000E-01  1.28000000E-01
  1.28000000E-01  1.28000000E-01  1.28000000E-01  1.28000000E-01  1.28000000E-01
  1.28000000E-01  1.28000000E-01  1.28000000E-01  1.28000000E-01  1.28000000E-01
  1.28000000E-01  1.28000000E-01  1.28000000E-01  1.28000000E-01  1.28000000E-01
  1.28000000E-01  1.28000000E-01  1.28000000E-01  1.28000000E-01  1.28000000E-01
  1.28000000E-01  1.28000000E-01  1.28000000E-01  1.28000000E-01  1.28000000E-01
  1.28000000E-01  1.28000000E-01  1.28000000E-01  1.28000000E-01  1.28000000E-01
  1.28000000E-01  1.28000000E-01  1.28000000E-01  1.28000000E-01  1.28000000E-01
  1.28000000E-01  1.28000000E-01  1.28000000E-01  1.28000000E-01  1.28000000E-01
  1.28000000E-01  1.28000000E-01  1.28000000E-01  1.28000000E-01  1.28000000E-01
  1.28000000E-01  1.28000000E-01  1.28000000E-01  1.28000000E-01  1.28000000E-01
  1.28000000E-01  1.28000000E-01  1.28000000E-01  1.28000000E-01  1.28000000E-01
  1.28000000E-01  1.28000000E-01  1.28000000E-01  1.28000000E-01  1.28000000E-01
  1.28000000E-01  1.28000000E-01  1.28000000E-01  1.28000000E-01  1.28000000E-01
  1.28000000E-01  1.28000000E-01  1.28000000E-01  1.28000000E-01  1.28000000E-01
  1.28000000E-01  1.28000000E-01  1.28000000E-01  1.28000000E-01  1.28000000E-01
  1.28000000E-01  1.28000000E-01  1.28000000E-01  1.28000000E-01  1.28000000E-01
  1.28000000E-01  1.28000000E-01  1.28000000E-01  1.28000000E-01  1.28000000E-01
  1.28000000E-01  1.28000000E-01  1.28000000E-01  1.28000000E-01  1.28000000E-01
  5.47000000E-01  5.92000000E-01  5.99000000E-01  6.68000000E-01  6.98000000E-01
  7.18000000E-01  7.26000000E-01  7.36000000E-01  7.43000000E-01  7.45000000E-01
  6.07000000E-01  6.66000000E-01  6.93000000E-01  7.09000000E-01  7.20000000E-01
  7.29000000E-01  7.35000000E-01  7.40000000E-01  6.08000000E-01  7.34000000E-01
  7.46000000E-01  7.55000000E-01  7.61000000E-01  7.65000000E-01  7.67000000E-01
  7.60000000E-01  7.49000000E-01  7.33000000E-01  7.08000000E-01  6.48000000E-01
  6.88000000E-01  7.09000000E-01  7.22000000E-01  7.31000000E-01  7.38000000E-01
  7.44000000E-01  6.09000000E-01  7.30000000E-01  7.41000000E-01  7.52000000E-01
  7.58000000E-01  7.63000000E-01  7.66000000E-01  7.58000000E-01  7.48000000E-01
  7.33000000E-01  7.01000000E-01  6.45000000E-01  6.86000000E-01  7.08000000E-01
  7.22000000E-01  7.31000000E-01  7.38000000E-01  7.44000000E-01  6.08000000E-01
  7.28000000E-01  7.32000000E-01  7.32000000E-01  7.32000000E-01  7.32000000E-01
  7.32000000E-01  7.32000000E-01  7.32000000E-01  7.32000000E-01  7.32000000E-01
  7.31000000E-01  7.31000000E-01  7.31000000E-01  7.31000000E-01  7.46000000E-01
  7.37000000E-01  7.46000000E-01  7.51000000E-01  7.55000000E-01  7.58000000E-01
  7.47000000E-01  7.32000000E-01  7.11000000E-01  7.41000000E-01  7.07000000E-01
  7.47000000E-01  7.43000000E-01  7.42000000E-01  7.42000000E-01  7.43000000E-01
  7.44000000E-01  6.05000000E-01  7.24000000E-01  7.26000000E-01  7.26000000E-01
  7.27000000E-01  7.27000000E-01  7.27000000E-01  7.28000000E-01  7.28000000E-01
  7.28000000E-01  7.28000000E-01  7.28000000E-01  7.29000000E-01  7.29000000E-01
  7.29000000E-01  7.29000000E-01  7.29000000E-01  7.29000000E-01  7.29000000E-01
  7.29000000E-01  7.29000000E-01  7.29000000E-01  7.29000000E-01  7.29000000E-01
  7.29000000E-01  7.29000000E-01  7.29000000E-01  7.29000000E-01  7.29000000E-01
  7.29000000E-01  7.29000000E-01  7.29000000E-01  7.29000000E-01  7.29000000E-01
  7.29000000E-01  7.29000000E-01  7.29000000E-01  7.29000000E-01  7.29000000E-01
  7.29000000E-01  7.29000000E-01  7.29000000E-01  7.29000000E-01  7.29000000E-01
  7.29000000E-01  7.29000000E-01  7.29000000E-01  7.29000000E-01  7.29000000E-01
  7.29000000E-01  7.29000000E-01  7.29000000E-01  7.29000000E-01  7.29000000E-01
  7.29000000E-01  7.29000000E-01  7.29000000E-01  7.29000000E-01  7.29000000E-01
  7.29000000E-01  7.29000000E-01  7.29000000E-01  7.29000000E-01  7.29000000E-01
  7.29000000E-01  7.29000000E-01  7.29000000E-01  7.29000000E-01  7.29000000E-01
  7.29000000E-01  7.29000000E-01  7.29000000E-01  7.29000000E-01  7.29000000E-01
  7.29000000E-01  7.29000000E-01  7.29000000E-01  7.29000000E-01  7.29000000E-01
  7.29000000E-01  7.29000000E-01  7.29000000E-01  7.29000000E-01  7.29000000E-01
  7.29000000E-01  7.29000000E-01  7.29000000E-01  7.29000000E-01  7.29000000E-01
  7.29000000E-01  7.29000000E-01  7.29000000E-01  7.29000000E-01  7.29000000E-01
  7.29000000E-01  7.29000000E-01  7.29000000E-01  7.29000000E-01  7.29000000E-01
  7.29000000E-01  7.29000000E-01  7.29000000E-01  7.29000000E-01  7.29000000E-01
  7.29000000E-01  7.29000000E-01  7.29000000E-01  7.29000000E-01  7.29000000E-01
  7.29000000E-01  7.29000000E-01  7.29000000E-01  7.29000000E-01  7.29000000E-01
  1.00000000E+00  1.70400000E+00  3.23000000E-01  3.89000000E-01  4.67000000E-01
  5.67000000E-01  6.36000000E-01  6.64000000E-01  6.96000000E-01  8.79000000E-01
  3.07000000E-01  3.48000000E-01  4.00000000E-01  4.54000000E-01  5.09000000E-01
  5.65000000E-01  6.21000000E-01  6.77000000E-01  2.56000000E-01  3.50000000E-01
  3.64000000E-01  3.62000000E-01  3.62000000E-01  3.62000000E-01  3.62000000E-01
  3.65000000E-01  3.69000000E-01  3.75000000E-01  3.86000000E-01  4.46000000E-01
  4.55000000E-01  4.74000000E-01  4.96000000E-01  5.20000000E-01  5.45000000E-01
  5.70000000E-01  2.45000000E-01  3.22000000E-01  3.55000000E-01  3.59000000E-01
  3.64000000E-01  3.70000000E-01  3.76000000E-01  3.85000000E-01  3.95000000E-01
  4.08000000E-01  3.76000000E-01  4.23000000E-01  4.22000000E-01  4.32000000E-01
  4.45000000E-01  4.59000000E-01  4.75000000E-01  4.91000000E-01  2.28000000E-01
  2.92000000E-01  2.89000000E-01  2.92000000E-01  2.95000000E-01  2.98000000E-01
  3.00000000E-01  3.03000000E-01  3.06000000E-01  3.09000000E-01  3.12000000E-01
  3.15000000E-01  3.18000000E-01  3.21000000E-01  3.24000000E-01  3.61000000E-01
  3.69000000E-01  3.70000000E-01  3.72000000E-01  3.75000000E-01  3.78000000E-01
  3.85000000E-01  3.94000000E-01  4.07000000E-01  5.26000000E-01  6.21000000E-01
  3.36000000E-01  3.54000000E-01  3.71000000E-01  3.86000000E-01  4.02000000E-01
  4.17000000E-01  2.09000000E-01  2.94000000E-01  2.65000000E-01  2.72000000E-01
  2.78000000E-01  2.84000000E-01  2.91000000E-01  2.97000000E-01  3.03000000E-01
  3.10000000E-01  3.16000000E-01  3.22000000E-01  3.29000000E-01  3.35000000E-01
  3.41000000E-01  3.48000000E-01  3.54000000E-01  3.54000000E-01  3.54000000E-01
  3.54000000E-01  3.54000000E-01  3.54000000E-01  3.54000000E-01  3.54000000E-01
  3.54000000E-01  3.54000000E-01  3.54000000E-01  3.54000000E-01  3.54000000E-01
  3.54000000E-01  3.54000000E-01  3.54000000E-01  3.54000000E-01  3.54000000E-01
  3.54000000E-01  3.54000000E-01  3.54000000E-01  3.54000000E-01  3.54000000E-01
  3.54000000E-01  3.54000000E-01  3.54000000E-01  3.54000000E-01  3.54000000E-01
  3.54000000E-01  3.54000000E-01  3.54000000E-01  3.54000000E-01  3.54000000E-01
  3.54000000E-01  3.54000000E-01  3.54000000E-01  3.54000000E-01  3.54000000E-01
  3.54000000E-01  3.54000000E-01  3.54000000E-01  3.54000000E-01  3.54000000E-01
  3.54000000E-01  3.54000000E-01  3.54000000E-01  3.54000000E-01  3.54000000E-01
  3.54000000E-01  3.54000000E-01  3.54000000E-01  3.54000000E-01  3.54000000E-01
  3.54000000E-01  3.54000000E-01  3.54000000E-01  3.54000000E-01  3.54000000E-01
  3.54000000E-01  3.54000000E-01  3.54000000E-01  3.54000000E-01  3.54000000E-01
  3.54000000E-01  3.54000000E-01  3.54000000E-01  3.54000000E-01  3.54000000E-01
  3.54000000E-01  3.54000000E-01  3.54000000E-01  3.54000000E-01  3.54000000E-01
  3.54000000E-01  3.54000000E-01  3.54000000E-01  3.54000000E-01  3.54000000E-01
  3.54000000E-01  3.54000000E-01  3.54000000E-01  3.54000000E-01  3.54000000E-01
  3.54000000E-01  3.54000000E-01  3.54000000E-01  3.54000000E-01  3.54000000E-01
  3.54000000E-01  3.54000000E-01  3.54000000E-01  3.54000000E-01  3.54000000E-01
  3.54000000E-01  3.54000000E-01  3.54000000E-01  3.54000000E-01  3.54000000E-01
  2.74000000E-01  2.96000000E-01  5.80000000E-02  4.40000000E-02  3.90000000E-02
  3.90000000E-02  3.60000000E-02  3.20000000E-02  2.90000000E-02  3.30000000E-02
  5.50000000E-02  3.90000000E-02  3.30000000E-02  3.00000000E-02  2.80000000E-02
  2.60000000E-02  2.50000000E-02  2.50000000E-02  4.50000000E-02  4.40000000E-02
  3.30000000E-02  2.50000000E-02  2.10000000E-02  1.80000000E-02  1.50000000E-02
  1.80000000E-02  2.10000000E-02  2.50000000E-02  3.30000000E-02  5.00000000E-02
  3.80000000E-02  3.10000000E-02  2.70000000E-02  2.40000000E-02  2.20000000E-02
  2.10000000E-02  4.30000000E-02  4.00000000E-02  3.20000000E-02  2.50000000E-02
  2.10000000E-02  1.80000000E-02  1.60000000E-02  1.90000000E-02  2.20000000E-02
  2.80000000E-02  3.10000000E-02  4.70000000E-02  3.40000000E-02  2.80000000E-02
  2.40000000E-02  2.10000000E-02  1.90000000E-02  1.80000000E-02  3.90000000E-02
  3.60000000E-02  2.50000000E-02  2.50000000E-02  2.50000000E-02  2.60000000E-02
  2.60000000E-02  2.60000000E-02  2.70000000E-02  2.70000000E-02  2.70000000E-02
  2.70000000E-02  2.80000000E-02  2.80000000E-02  2.80000000E-02  3.30000000E-02
  3.30000000E-02  2.60000000E-02  2.10000000E-02  1.80000000E-02  1.60000000E-02
  1.80000000E-02  2.20000000E-02  2.60000000E-02  4.90000000E-02  8.20000000E-02
  3.00000000E-02  2.40000000E-02  2.10000000E-02  1.80000000E-02  1.60000000E-02
  1.50000000E-02  3.50000000E-02  3.60000000E-02  2.20000000E-02  2.30000000E-02
  2.40000000E-02  2.40000000E-02  2.50000000E-02  2.50000000E-02  2.60000000E-02
  2.70000000E-02  2.70000000E-02  2.80000000E-02  2.80000000E-02  2.90000000E-02
  3.00000000E-02  3.00000000E-02  3.10000000E-02  3.10000000E-02  3.10000000E-02
  3.10000000E-02  3.10000000E-02  3.10000000E-02  3.10000000E-02  3.10000000E-02
  3.10000000E-02  3.10000000E-02  3.10000000E-02  3.10000000E-02  3.10000000E-02
  3.10000000E-02  3.10000000E-02  3.10000000E-02  3.10000000E-02  3.10000000E-02
  3.10000000E-02  3.10000000E-02  3.10000000E-02  3.10000000E-02  3.10000000E-02
  3.10000000E-02  3.10000000E-02  3.10000000E-02  3.10000000E-02  3.10000000E-02
  3.10000000E-02  3.10000000E-02  3.10000000E-02  3.10000000E-02  3.10000000E-02
  3.10000000E-02  3.10000000E-02  3.10000000E-02  3.10000000E-02  3.10000000E-02
  3.10000000E-02  3.10000000E-02  3.10000000E-02  3.10000000E-02  3.10000000E-02
  3.10000000E-02  3.10000000E-02  3.10000000E-02  3.10000000E-02  3.10000000E-02
  3.10000000E-02  3.10000000E-02  3.10000000E-02  3.10000000E-02  3.10000000E-02
  3.10000000E-02  3.10000000E-02  3.10000000E-02  3.10000000E-02  3.10000000E-02
  3.10000000E-02  3.10000000E-02  3.10000000E-02  3.10000000E-02  3.10000000E-02
  3.10000000E-02  3.10000000E-02  3.10000000E-02  3.10000000E-02  3.10000000E-02
  3.10000000E-02  3.10000000E-02  3.10000000E-02  3.10000000E-02  3.10000000E-02
  3.10000000E-02  3.10000000E-02  3.10000000E-02  3.10000000E-02  3.10000000E-02
  3.10000000E-02  3.10000000E-02  3.10000000E-02  3.10000000E-02  3.10000000E-02
  3.10000000E-02  3.10000000E-02  3.10000000E-02  3.10000000E-02  3.10000000E-02
  3.10000000E-02  3.10000000E-02  3.10000000E-02  3.10000000E-02  3.10000000E-02
  3.10000000E-02  3.10000000E-02  3.10000000E-02  3.10000000E-02  3.10000000E-02
 -5.92770000E-01 -9.17860000E-01 -2.48668000E+00 -8.36430000E-01 -3.18470000E-01
 -4.55790000E-01 -5.70730000E-01 -6.77940000E-01 -7.69860000E-01 -8.51140000E-01
 -1.51908000E+00 -3.18830000E-01 -2.17900000E-01 -3.01260000E-01 -3.72750000E-01
 -4.15890000E-01 -4.45930000E-01 -5.91320000E-01 -9.56370000E-01 -2.88450000E-01
 -4.87320000E-01 -6.34280000E-01 -7.17490000E-01 -7.91980000E-01 -8.68490000E-01
 -9.17520000E-01 -9.54890000E-01 -9.88460000E-01 -1.50055000E+00 -2.92560000E-01
 -2.14960000E-01 -2.91180000E-01 -3.42080000E-01 -3.84480000E-01 -4.34940000E-01
 -5.24310000E-01 -8.10070000E-01 -2.58460000E-01 -4.35550000E-01 -5.32740000E-01
 -6.08450000E-01 -6.10260000E-01 -7.58920000E-01 -8.90130000E-01 -8.45780000E-01
 -8.69340000E-01 -1.38234000E+00 -2.64850000E-01 -1.97280000E-01 -2.65040000E-01
 -2.94470000E-01 -3.16570000E-01 -3.63590000E-01 -4.57840000E-01 -8.61830000E-01
 -1.33004000E+00 -6.82880000E-01 -6.25540000E-01 -6.35430000E-01 -8.79690000E-01
 -9.02690000E-01 -9.59650000E-01 -1.01869000E+00 -6.81170000E-01 -7.96500000E-01
 -9.04950000E-01 -8.34790000E-01 -9.01560000E-01 -9.74130000E-01 -1.03326000E+00
 -7.15490000E-01 -7.83960000E-01 -8.28380000E-01 -5.61040000E-01 -1.03841000E+00
 -8.62500000E-01 -9.59300000E-01 -1.01755000E+00 -7.64900000E-01 -1.29467000E+00
 -1.92740000E-01 -2.56010000E-01 -3.19820000E-01 -1.94660000E-01 -2.60090000E-01
 -4.27990000E-01  0.00000000E+00  0.00000000E+00  0.00000000E+00  0.00000000E+00
  0.00000000E+00  0.00000000E+00  0.00000000E+00  0.00000000E+00  0.00000000E+00
  0.00000000E+00  0.00000000E+00  0.00000000E+00  0.00000000E+00  0.00000000E+00
  0.00000000E+00  0.00000000E+00  0.00000000E+00  0.00000000E+00  0.00000000E+00
  0.00000000E+00  0.00000000E+00  0.00000000E+00  0.00000000E+00  0.00000000E+00
  0.00000000E+00  0.00000000E+00  0.00000000E+00  0.00000000E+00  0.00000000E+00
  0.00000000E+00  0.00000000E+00  0.00000000E+00  0.00000000E+00  0.00000000E+00
  0.00000000E+00  0.00000000E+00  0.00000000E+00  0.00000000E+00  0.00000000E+00
  0.00000000E+00  0.00000000E+00  0.00000000E+00  0.00000000E+00  0.00000000E+00
  0.00000000E+00  0.00000000E+00  0.00000000E+00  0.00000000E+00  0.00000000E+00
  0.00000000E+00  0.00000000E+00  0.00000000E+00  0.00000000E+00  0.00000000E+00
  0.00000000E+00  0.00000000E+00  0.00000000E+00  0.00000000E+00  0.00000000E+00
  0.00000000E+00  0.00000000E+00  0.00000000E+00  0.00000000E+00  0.00000000E+00
  0.00000000E+00  0.00000000E+00  0.00000000E+00  0.00000000E+00  0.00000000E+00
  0.00000000E+00  0.00000000E+00  0.00000000E+00  0.00000000E+00  0.00000000E+00
  0.00000000E+00  0.00000000E+00  0.00000000E+00  0.00000000E+00  0.00000000E+00
  0.00000000E+00  0.00000000E+00  0.00000000E+00  0.00000000E+00  0.00000000E+00
  0.00000000E+00  0.00000000E+00  0.00000000E+00  0.00000000E+00  0.00000000E+00
  0.00000000E+00  0.00000000E+00  0.00000000E+00  0.00000000E+00  0.00000000E+00
  0.00000000E+00  0.00000000E+00  0.00000000E+00  0.00000000E+00  0.00000000E+00
  0.00000000E+00  0.00000000E+00  0.00000000E+00  0.00000000E+00  0.00000000E+00
  0.00000000E+00  0.00000000E+00  0.00000000E+00  0.00000000E+00  0.00000000E+00
  0.00000000E+00  0.00000000E+00  0.00000000E+00  0.00000000E+00  0.00000000E+00
  1.90440000E+00  1.36430000E+00  4.84000000E-01  7.31600000E+00  9.24030000E+00
  8.78200000E+00  5.61290000E+00  4.83340000E+00  3.24870000E+00  2.71090000E+00
  2.01130000E+00  1.50282000E+01  1.46788000E+01  2.13546000E+01  2.38290000E+01
  1.98022000E+01  1.50468000E+01  1.09745000E+01  1.27219000E+01  1.51949000E+01
  1.57342000E+01  2.79222000E+01  1.61366000E+01  2.21252000E+01  2.45676000E+01
  1.96016000E+01  1.79818000E+01  1.72396000E+01  5.01500000E+00  1.92898000E+01
  2.34477000E+01  2.23993000E+01  2.96586000E+01  2.60081000E+01  2.15580000E+01
  1.69594000E+01  1.56479000E+01  1.86897000E+01  1.93530000E+01  3.43444000E+01
  1.98480000E+01  2.72140000E+01  3.02182000E+01  2.41099000E+01  2.21176000E+01
  2.12047000E+01  7.56690000E+00  2.37264000E+01  2.93879000E+01  3.01278000E+01
  4.19382000E+01  3.85203000E+01  3.39511000E+01  2.75774000E+01  1.56460000E+01
  1.04460000E+01  2.01830000E+01  4.99540000E+01  4.76430000E+01  1.18690000E+01
  1.08670000E+01  9.96100000E+00  9.18700000E+00  3.67980000E+01  1.34070000E+01
  9.38200000E+00  9.81700000E+00  8.90800000E+00  8.40700000E+00  8.05800000E+00
  1.29600000E+01  2.67920000E+01  2.49300000E+01  3.45630000E+01  1.11860000E+01
  1.09440000E+01  1.01270000E+01  9.40400000E+00  1.36660000E+01  7.81000000E+00
  6.93600000E+01  5.86630000E+01  4.79690000E+01  4.52740000E+01  3.92290000E+01
  3.30660000E+01  0.00000000E+00  0.00000000E+00  0.00000000E+00  0.00000000E+00
  0.00000000E+00  0.00000000E+00  0.00000000E+00  0.00000000E+00  0.00000000E+00
  0.00000000E+00  0.00000000E+00  0.00000000E+00  0.00000000E+00  0.00000000E+00
  0.00000000E+00  0.00000000E+00  0.00000000E+00  0.00000000E+00  0.00000000E+00
  0.00000000E+00  0.00000000E+00  0.00000000E+00  0.00000000E+00  0.00000000E+00
  0.00000000E+00  0.00000000E+00  0.00000000E+00  0.00000000E+00  0.00000000E+00
  0.00000000E+00  0.00000000E+00  0.00000000E+00  0.00000000E+00  0.00000000E+00
  0.00000000E+00  0.00000000E+00  0.00000000E+00  0.00000000E+00  0.00000000E+00
  0.00000000E+00  0.00000000E+00  0.00000000E+00  0.00000000E+00  0.00000000E+00
  0.00000000E+00  0.00000000E+00  0.00000000E+00  0.00000000E+00  0.00000000E+00
  0.00000000E+00  0.00000000E+00  0.00000000E+00  0.00000000E+00  0.00000000E+00
  0.00000000E+00  0.00000000E+00  0.00000000E+00  0.00000000E+00  0.00000000E+00
  0.00000000E+00  0.00000000E+00  0.00000000E+00  0.00000000E+00  0.00000000E+00
  0.00000000E+00  0.00000000E+00  0.00000000E+00  0.00000000E+00  0.00000000E+00
  0.00000000E+00  0.00000000E+00  0.00000000E+00  0.00000000E+00  0.00000000E+00
  0.00000000E+00  0.00000000E+00  0.00000000E+00  0.00000000E+00  0.00000000E+00
  0.00000000E+00  0.00000000E+00  0.00000000E+00  0.00000000E+00  0.00000000E+00
  0.00000000E+00  0.00000000E+00  0.00000000E+00  0.00000000E+00  0.00000000E+00
  0.00000000E+00  0.00000000E+00  0.00000000E+00  0.00000000E+00  0.00000000E+00
  0.00000000E+00  0.00000000E+00  0.00000000E+00  0.00000000E+00  0.00000000E+00
  0.00000000E+00  0.00000000E+00  0.00000000E+00  0.00000000E+00  0.00000000E+00
  0.00000000E+00  0.00000000E+00  0.00000000E+00  0.00000000E+00  0.00000000E+00
  0.00000000E+00  0.00000000E+00  0.00000000E+00  0.00000000E+00  0.00000000E+00
  0.00000000E+00  0.00000000E+00  0.00000000E+00  0.00000000E+00  0.00000000E+00
  0.00000000E+00  0.00000000E+00  0.00000000E+00  0.00000000E+00  0.00000000E+00
  0.00000000E+00  0.00000000E+00  0.00000000E+00  0.00000000E+00  0.00000000E+00
  0.00000000E+00  0.00000000E+00  0.00000000E+00  0.00000000E+00  0.00000000E+00
  0.00000000E+00  0.00000000E+00  0.00000000E+00  0.00000000E+00  0.00000000E+00
  0.00000000E+00  0.00000000E+00  0.00000000E+00  0.00000000E+00  0.00000000E+00
  0.00000000E+00  0.00000000E+00  0.00000000E+00  0.00000000E+00  0.00000000E+00
  0.00000000E+00  0.00000000E+00  0.00000000E+00  0.00000000E+00  0.00000000E+00
  0.00000000E+00  0.00000000E+00  0.00000000E+00  0.00000000E+00  0.00000000E+00
  0.00000000E+00  0.00000000E+00  0.00000000E+00  0.00000000E+00  0.00000000E+00
  0.00000000E+00  0.00000000E+00  0.00000000E+00  0.00000000E+00  0.00000000E+00
  0.00000000E+00  0.00000000E+00  0.00000000E+00  0.00000000E+00  0.00000000E+00
  0.00000000E+00  0.00000000E+00  0.00000000E+00  0.00000000E+00  0.00000000E+00
  0.00000000E+00  0.00000000E+00  0.00000000E+00  0.00000000E+00  0.00000000E+00
  0.00000000E+00  0.00000000E+00  0.00000000E+00  0.00000000E+00  0.00000000E+00
  0.00000000E+00  0.00000000E+00  0.00000000E+00  0.00000000E+00  0.00000000E+00
  0.00000000E+00  0.00000000E+00  0.00000000E+00  0.00000000E+00  0.00000000E+00
  0.00000000E+00  0.00000000E+00  0.00000000E+00  0.00000000E+00  0.00000000E+00
  0.00000000E+00  0.00000000E+00  0.00000000E+00  0.00000000E+00  0.00000000E+00
  0.00000000E+00  0.00000000E+00  0.00000000E+00  0.00000000E+00  0.00000000E+00
  0.00000000E+00  0.00000000E+00  0.00000000E+00  0.00000000E+00  0.00000000E+00
  0.00000000E+00  0.00000000E+00  0.00000000E+00  0.00000000E+00  0.00000000E+00
  0.00000000E+00  0.00000000E+00  0.00000000E+00  0.00000000E+00  0.00000000E+00
  0.00000000E+00  0.00000000E+00  0.00000000E+00  0.00000000E+00  0.00000000E+00
  0.00000000E+00  0.00000000E+00  0.00000000E+00  0.00000000E+00  0.00000000E+00
  0.00000000E+00  0.00000000E+00  0.00000000E+00  0.00000000E+00  0.00000000E+00
  0.00000000E+00  0.00000000E+00  0.00000000E+00  0.00000000E+00  0.00000000E+00
  0.00000000E+00  0.00000000E+00  0.00000000E+00  0.00000000E+00  0.00000000E+00
  0.00000000E+00  0.00000000E+00  0.00000000E+00  0.00000000E+00  0.00000000E+00
  0.00000000E+00  0.00000000E+00  0.00000000E+00  0.00000000E+00  0.00000000E+00
  0.00000000E+00  0.00000000E+00  0.00000000E+00  0.00000000E+00  0.00000000E+00
  0.00000000E+00  0.00000000E+00  0.00000000E+00  0.00000000E+00  0.00000000E+00
  0.00000000E+00  0.00000000E+00  0.00000000E+00  0.00000000E+00  0.00000000E+00
  0.00000000E+00  0.00000000E+00  0.00000000E+00  0.00000000E+00  0.00000000E+00
  0.00000000E+00  0.00000000E+00  0.00000000E+00  0.00000000E+00  0.00000000E+00
  0.00000000E+00  0.00000000E+00  0.00000000E+00  0.00000000E+00  0.00000000E+00
  0.00000000E+00  0.00000000E+00  0.00000000E+00  0.00000000E+00  0.00000000E+00
  0.00000000E+00  0.00000000E+00  0.00000000E+00  0.00000000E+00  0.00000000E+00
  0.00000000E+00  0.00000000E+00  0.00000000E+00  0.00000000E+00  0.00000000E+00
  0.00000000E+00  0.00000000E+00  0.00000000E+00  0.00000000E+00  0.00000000E+00
  0.00000000E+00  0.00000000E+00  0.00000000E+00  0.00000000E+00  0.00000000E+00
  0.00000000E+00  0.00000000E+00  0.00000000E+00  0.00000000E+00  0.00000000E+00
  0.00000000E+00  0.00000000E+00  0.00000000E+00  0.00000000E+00  0.00000000E+00
  0.00000000E+00  0.00000000E+00  0.00000000E+00  0.00000000E+00  0.00000000E+00
  0.00000000E+00  0.00000000E+00  0.00000000E+00  0.00000000E+00  0.00000000E+00
  0.00000000E+00  0.00000000E+00  0.00000000E+00  0.00000000E+00  0.00000000E+00
  0.00000000E+00  0.00000000E+00  0.00000000E+00  0.00000000E+00  0.00000000E+00
  0.00000000E+00  0.00000000E+00  0.00000000E+00  0.00000000E+00  0.00000000E+00
  0.00000000E+00  0.00000000E+00  0.00000000E+00  0.00000000E+00  0.00000000E+00
  0.00000000E+00  0.00000000E+00  0.00000000E+00  0.00000000E+00  0.00000000E+00
  0.00000000E+00  0.00000000E+00  0.00000000E+00  0.00000000E+00  0.00000000E+00
  0.00000000E+00  0.00000000E+00  0.00000000E+00  0.00000000E+00  0.00000000E+00
  0.00000000E+00  0.00000000E+00  0.00000000E+00  0.00000000E+00  0.00000000E+00
  0.00000000E+00  0.00000000E+00  0.00000000E+00  0.00000000E+00  0.00000000E+00
  0.00000000E+00  0.00000000E+00  0.00000000E+00  0.00000000E+00  0.00000000E+00
  0.00000000E+00  0.00000000E+00  0.00000000E+00  0.00000000E+00  0.00000000E+00
  0.00000000E+00  0.00000000E+00  0.00000000E+00  0.00000000E+00  0.00000000E+00
  0.00000000E+00  0.00000000E+00  0.00000000E+00  0.00000000E+00  0.00000000E+00
  0.00000000E+00  0.00000000E+00  0.00000000E+00  0.00000000E+00  0.00000000E+00
  0.00000000E+00  0.00000000E+00  0.00000000E+00  0.00000000E+00  0.00000000E+00
  0.00000000E+00  0.00000000E+00  0.00000000E+00  0.00000000E+00  0.00000000E+00
  0.00000000E+00  0.00000000E+00  0.00000000E+00  0.00000000E+00  0.00000000E+00
  0.00000000E+00  0.00000000E+00  0.00000000E+00  0.00000000E+00  0.00000000E+00
  0.00000000E+00  0.00000000E+00  0.00000000E+00  0.00000000E+00  0.00000000E+00
  0.00000000E+00  0.00000000E+00  0.00000000E+00  0.00000000E+00  0.00000000E+00
  0.00000000E+00  0.00000000E+00  0.00000000E+00  0.00000000E+00  0.00000000E+00
  0.00000000E+00  0.00000000E+00  0.00000000E+00  0.00000000E+00  0.00000000E+00
  0.00000000E+00  0.00000000E+00  0.00000000E+00  0.00000000E+00  0.00000000E+00
  0.00000000E+00  0.00000000E+00  0.00000000E+00  0.00000000E+00  0.00000000E+00
  0.00000000E+00  0.00000000E+00  0.00000000E+00  0.00000000E+00  0.00000000E+00
  0.00000000E+00  0.00000000E+00  0.00000000E+00  0.00000000E+00  0.00000000E+00
  0.00000000E+00  0.00000000E+00  0.00000000E+00  0.00000000E+00  0.00000000E+00
  0.00000000E+00  0.00000000E+00  0.00000000E+00  0.00000000E+00  0.00000000E+00
  0.00000000E+00  0.00000000E+00  0.00000000E+00  0.00000000E+00  0.00000000E+00
  0.00000000E+00  0.00000000E+00  0.00000000E+00  0.00000000E+00  0.00000000E+00
  0.00000000E+00  0.00000000E+00  0.00000000E+00  0.00000000E+00  0.00000000E+00
  0.00000000E+00  0.00000000E+00  0.00000000E+00  0.00000000E+00  0.00000000E+00
  0.00000000E+00  0.00000000E+00  0.00000000E+00  0.00000000E+00  0.00000000E+00
  0.00000000E+00  0.00000000E+00  0.00000000E+00  0.00000000E+00  0.00000000E+00
  0.00000000E+00  0.00000000E+00  0.00000000E+00  0.00000000E+00  0.00000000E+00
  0.00000000E+00  0.00000000E+00  0.00000000E+00  0.00000000E+00  0.00000000E+00
  0.00000000E+00  0.00000000E+00  0.00000000E+00  0.00000000E+00  0.00000000E+00
  0.00000000E+00  0.00000000E+00  0.00000000E+00  0.00000000E+00  0.00000000E+00
  0.00000000E+00  0.00000000E+00  0.00000000E+00  0.00000000E+00  0.00000000E+00
  0.00000000E+00  0.00000000E+00  0.00000000E+00  0.00000000E+00  0.00000000E+00
  0.00000000E+00  0.00000000E+00  0.00000000E+00  0.00000000E+00  0.00000000E+00
  0.00000000E+00  0.00000000E+00  0.00000000E+00  0.00000000E+00  0.00000000E+00
  0.00000000E+00  0.00000000E+00  0.00000000E+00  0.00000000E+00  0.00000000E+00
  0.00000000E+00  0.00000000E+00  0.00000000E+00  0.00000000E+00  0.00000000E+00
  0.00000000E+00  0.00000000E+00  0.00000000E+00  0.00000000E+00  0.00000000E+00
  0.00000000E+00  0.00000000E+00  0.00000000E+00  0.00000000E+00  0.00000000E+00
  0.00000000E+00  0.00000000E+00  0.00000000E+00  0.00000000E+00  0.00000000E+00
  0.00000000E+00  0.00000000E+00  0.00000000E+00  0.00000000E+00  0.00000000E+00
  0.00000000E+00  0.00000000E+00  0.00000000E+00  0.00000000E+00  0.00000000E+00
  0.00000000E+00  0.00000000E+00  0.00000000E+00  0.00000000E+00  0.00000000E+00
  0.00000000E+00  0.00000000E+00  0.00000000E+00  0.00000000E+00  0.00000000E+00
  0.00000000E+00  0.00000000E+00  0.00000000E+00  0.00000000E+00  0.00000000E+00
  0.00000000E+00  0.00000000E+00  0.00000000E+00  0.00000000E+00  0.00000000E+00
  0.00000000E+00  0.00000000E+00  0.00000000E+00  0.00000000E+00  0.00000000E+00
  0.00000000E+00  0.00000000E+00  0.00000000E+00  0.00000000E+00  0.00000000E+00
  0.00000000E+00  0.00000000E+00  0.00000000E+00  0.00000000E+00  0.00000000E+00
  0.00000000E+00  0.00000000E+00  0.00000000E+00  0.00000000E+00  0.00000000E+00
  0.00000000E+00  0.00000000E+00  0.00000000E+00  0.00000000E+00  0.00000000E+00
  0.00000000E+00  0.00000000E+00  0.00000000E+00  0.00000000E+00  0.00000000E+00
  0.00000000E+00  0.00000000E+00  0.00000000E+00  0.00000000E+00  0.00000000E+00
  0.00000000E+00  0.00000000E+00  0.00000000E+00  0.00000000E+00  0.00000000E+00
  0.00000000E+00  0.00000000E+00  0.00000000E+00  0.00000000E+00  0.00000000E+00
  0.00000000E+00  0.00000000E+00  0.00000000E+00  0.00000000E+00  0.00000000E+00
  0.00000000E+00  0.00000000E+00  0.00000000E+00  0.00000000E+00  0.00000000E+00
  0.00000000E+00  0.00000000E+00  0.00000000E+00  0.00000000E+00  0.00000000E+00
  0.00000000E+00  0.00000000E+00  0.00000000E+00  0.00000000E+00  0.00000000E+00
  0.00000000E+00  0.00000000E+00  0.00000000E+00  0.00000000E+00  0.00000000E+00
  0.00000000E+00  0.00000000E+00  0.00000000E+00  0.00000000E+00  0.00000000E+00
  0.00000000E+00  0.00000000E+00  0.00000000E+00  0.00000000E+00  0.00000000E+00
  0.00000000E+00  0.00000000E+00  0.00000000E+00  0.00000000E+00  0.00000000E+00
  0.00000000E+00  0.00000000E+00  0.00000000E+00  0.00000000E+00  0.00000000E+00
  0.00000000E+00  0.00000000E+00  0.00000000E+00  0.00000000E+00  0.00000000E+00
  0.00000000E+00  0.00000000E+00  0.00000000E+00  0.00000000E+00  0.00000000E+00
  0.00000000E+00  0.00000000E+00  0.00000000E+00  0.00000000E+00  0.00000000E+00
  0.00000000E+00  0.00000000E+00  0.00000000E+00  0.00000000E+00  0.00000000E+00
  0.00000000E+00  0.00000000E+00  0.00000000E+00  0.00000000E+00  0.00000000E+00
  0.00000000E+00  0.00000000E+00  0.00000000E+00  0.00000000E+00  0.00000000E+00
  0.00000000E+00  0.00000000E+00  0.00000000E+00  0.00000000E+00  0.00000000E+00
  0.00000000E+00  0.00000000E+00  0.00000000E+00  0.00000000E+00  0.00000000E+00
  0.00000000E+00  0.00000000E+00  0.00000000E+00  0.00000000E+00  0.00000000E+00
  0.00000000E+00  0.00000000E+00  0.00000000E+00  0.00000000E+00  0.00000000E+00
  0.00000000E+00  0.00000000E+00  0.00000000E+00  0.00000000E+00  0.00000000E+00
  0.00000000E+00  0.00000000E+00  0.00000000E+00  0.00000000E+00  0.00000000E+00
  0.00000000E+00  0.00000000E+00  0.00000000E+00  0.00000000E+00  0.00000000E+00
  0.00000000E+00  0.00000000E+00  0.00000000E+00  0.00000000E+00  0.00000000E+00
  0.00000000E+00  0.00000000E+00  0.00000000E+00  0.00000000E+00  0.00000000E+00
  0.00000000E+00  0.00000000E+00  0.00000000E+00  0.00000000E+00  0.00000000E+00
  0.00000000E+00  0.00000000E+00  0.00000000E+00  0.00000000E+00  0.00000000E+00
  0.00000000E+00  0.00000000E+00  0.00000000E+00  0.00000000E+00  0.00000000E+00
  0.00000000E+00  0.00000000E+00  0.00000000E+00  0.00000000E+00  0.00000000E+00
  0.00000000E+00  0.00000000E+00  0.00000000E+00  0.00000000E+00  0.00000000E+00
  0.00000000E+00  0.00000000E+00  0.00000000E+00  0.00000000E+00  0.00000000E+00
  0.00000000E+00  0.00000000E+00  0.00000000E+00  0.00000000E+00  0.00000000E+00
  0.00000000E+00  0.00000000E+00  0.00000000E+00  0.00000000E+00  0.00000000E+00
  0.00000000E+00  0.00000000E+00  0.00000000E+00  0.00000000E+00  0.00000000E+00
  0.00000000E+00  0.00000000E+00  0.00000000E+00  0.00000000E+00  0.00000000E+00
  0.00000000E+00  0.00000000E+00  0.00000000E+00  0.00000000E+00  0.00000000E+00
  0.00000000E+00  0.00000000E+00  0.00000000E+00  0.00000000E+00  0.00000000E+00
  0.00000000E+00  0.00000000E+00  0.00000000E+00  0.00000000E+00  0.00000000E+00
  0.00000000E+00  0.00000000E+00  0.00000000E+00  0.00000000E+00  0.00000000E+00
  0.00000000E+00  0.00000000E+00  0.00000000E+00  0.00000000E+00  0.00000000E+00
  0.00000000E+00  0.00000000E+00  0.00000000E+00  0.00000000E+00  0.00000000E+00
  0.00000000E+00  0.00000000E+00  0.00000000E+00  0.00000000E+00  0.00000000E+00
  0.00000000E+00  0.00000000E+00  0.00000000E+00  0.00000000E+00  0.00000000E+00
  0.00000000E+00  0.00000000E+00  0.00000000E+00  0.00000000E+00  0.00000000E+00
  0.00000000E+00  0.00000000E+00  0.00000000E+00  0.00000000E+00  0.00000000E+00
  0.00000000E+00  0.00000000E+00  0.00000000E+00  0.00000000E+00  0.00000000E+00
  0.00000000E+00  0.00000000E+00  0.00000000E+00  0.00000000E+00  0.00000000E+00
  0.00000000E+00  0.00000000E+00  0.00000000E+00  0.00000000E+00  0.00000000E+00
  0.00000000E+00  0.00000000E+00  0.00000000E+00  0.00000000E+00  0.00000000E+00
  0.00000000E+00  0.00000000E+00  0.00000000E+00  0.00000000E+00  0.00000000E+00
  0.00000000E+00  0.00000000E+00  0.00000000E+00  0.00000000E+00  0.00000000E+00
  0.00000000E+00  0.00000000E+00  0.00000000E+00  0.00000000E+00  0.00000000E+00
  0.00000000E+00  0.00000000E+00  0.00000000E+00  0.00000000E+00  0.00000000E+00
  0.00000000E+00  0.00000000E+00  0.00000000E+00  0.00000000E+00  0.00000000E+00
  0.00000000E+00  0.00000000E+00  0.00000000E+00  0.00000000E+00  0.00000000E+00
  0.00000000E+00  0.00000000E+00  0.00000000E+00  0.00000000E+00  0.00000000E+00
  0.00000000E+00  0.00000000E+00  0.00000000E+00  0.00000000E+00  0.00000000E+00
  0.00000000E+00  0.00000000E+00  0.00000000E+00  0.00000000E+00  0.00000000E+00
  0.00000000E+00  0.00000000E+00  0.00000000E+00  0.00000000E+00  0.00000000E+00
  0.00000000E+00  0.00000000E+00  0.00000000E+00  0.00000000E+00  0.00000000E+00
  0.00000000E+00  0.00000000E+00  0.00000000E+00  0.00000000E+00  0.00000000E+00
  0.00000000E+00  0.00000000E+00  0.00000000E+00  0.00000000E+00  0.00000000E+00
  0.00000000E+00  0.00000000E+00  0.00000000E+00  0.00000000E+00  0.00000000E+00
  0.00000000E+00  0.00000000E+00  0.00000000E+00  0.00000000E+00  0.00000000E+00
  0.00000000E+00  0.00000000E+00  0.00000000E+00  0.00000000E+00  0.00000000E+00
  0.00000000E+00  0.00000000E+00  0.00000000E+00  0.00000000E+00  0.00000000E+00
  0.00000000E+00  0.00000000E+00  0.00000000E+00  0.00000000E+00  0.00000000E+00
  0.00000000E+00  0.00000000E+00  0.00000000E+00  0.00000000E+00  0.00000000E+00
  0.00000000E+00  0.00000000E+00  0.00000000E+00  0.00000000E+00  0.00000000E+00
  0.00000000E+00  0.00000000E+00  0.00000000E+00  0.00000000E+00  0.00000000E+00
  0.00000000E+00  0.00000000E+00  0.00000000E+00  0.00000000E+00  0.00000000E+00
  0.00000000E+00  0.00000000E+00  0.00000000E+00  0.00000000E+00  0.00000000E+00
  0.00000000E+00  0.00000000E+00  0.00000000E+00  0.00000000E+00  0.00000000E+00
  0.00000000E+00  0.00000000E+00  0.00000000E+00  0.00000000E+00  0.00000000E+00
  0.00000000E+00  0.00000000E+00  0.00000000E+00  0.00000000E+00  0.00000000E+00
  0.00000000E+00  0.00000000E+00  0.00000000E+00  0.00000000E+00  0.00000000E+00
  0.00000000E+00  0.00000000E+00  0.00000000E+00  0.00000000E+00  0.00000000E+00
  0.00000000E+00  0.00000000E+00  0.00000000E+00  0.00000000E+00  0.00000000E+00
  0.00000000E+00  0.00000000E+00  0.00000000E+00  0.00000000E+00  0.00000000E+00
  0.00000000E+00  0.00000000E+00  0.00000000E+00  0.00000000E+00  0.00000000E+00
  0.00000000E+00  0.00000000E+00  0.00000000E+00  0.00000000E+00  0.00000000E+00
  0.00000000E+00  0.00000000E+00  0.00000000E+00  0.00000000E+00  0.00000000E+00
  0.00000000E+00  0.00000000E+00  0.00000000E+00  0.00000000E+00  0.00000000E+00
  0.00000000E+00  0.00000000E+00  0.00000000E+00  0.00000000E+00  0.00000000E+00
  0.00000000E+00  0.00000000E+00  0.00000000E+00  0.00000000E+00  0.00000000E+00
  0.00000000E+00  0.00000000E+00  0.00000000E+00  0.00000000E+00  0.00000000E+00
  0.00000000E+00  0.00000000E+00  0.00000000E+00  0.00000000E+00  0.00000000E+00
  0.00000000E+00  0.00000000E+00  0.00000000E+00  0.00000000E+00  0.00000000E+00
  0.00000000E+00  0.00000000E+00  0.00000000E+00  0.00000000E+00  0.00000000E+00
  0.00000000E+00  0.00000000E+00  0.00000000E+00  0.00000000E+00  0.00000000E+00
  0.00000000E+00  0.00000000E+00  0.00000000E+00  0.00000000E+00  0.00000000E+00
  0.00000000E+00  0.00000000E+00  0.00000000E+00  0.00000000E+00  0.00000000E+00
  0.00000000E+00  0.00000000E+00  0.00000000E+00  0.00000000E+00  0.00000000E+00
  0.00000000E+00  0.00000000E+00  0.00000000E+00  0.00000000E+00  0.00000000E+00
  0.00000000E+00  0.00000000E+00  0.00000000E+00  0.00000000E+00  0.00000000E+00
  0.00000000E+00  0.00000000E+00  0.00000000E+00  0.00000000E+00  0.00000000E+00
  0.00000000E+00  0.00000000E+00  0.00000000E+00  0.00000000E+00  0.00000000E+00
  0.00000000E+00  0.00000000E+00  0.00000000E+00  0.00000000E+00  0.00000000E+00
  0.00000000E+00  0.00000000E+00  0.00000000E+00  0.00000000E+00  0.00000000E+00
  0.00000000E+00  0.00000000E+00  0.00000000E+00  0.00000000E+00  0.00000000E+00
  0.00000000E+00  0.00000000E+00  0.00000000E+00  0.00000000E+00  0.00000000E+00
  0.00000000E+00  0.00000000E+00  0.00000000E+00  0.00000000E+00  0.00000000E+00
  0.00000000E+00  0.00000000E+00  0.00000000E+00  0.00000000E+00  0.00000000E+00
  0.00000000E+00  0.00000000E+00  0.00000000E+00  0.00000000E+00  0.00000000E+00
  0.00000000E+00  0.00000000E+00  0.00000000E+00  0.00000000E+00  0.00000000E+00
  0.00000000E+00  0.00000000E+00  0.00000000E+00  0.00000000E+00  0.00000000E+00
  0.00000000E+00  0.00000000E+00  0.00000000E+00  0.00000000E+00  0.00000000E+00
  0.00000000E+00  0.00000000E+00  0.00000000E+00  0.00000000E+00  0.00000000E+00
  0.00000000E+00  0.00000000E+00  0.00000000E+00  0.00000000E+00  0.00000000E+00
  0.00000000E+00  0.00000000E+00  0.00000000E+00  0.00000000E+00  0.00000000E+00
  0.00000000E+00  0.00000000E+00  0.00000000E+00  0.00000000E+00  0.00000000E+00
  0.00000000E+00  0.00000000E+00  0.00000000E+00  0.00000000E+00  0.00000000E+00
  0.00000000E+00  0.00000000E+00  0.00000000E+00  0.00000000E+00  0.00000000E+00
  0.00000000E+00  0.00000000E+00  0.00000000E+00  0.00000000E+00  0.00000000E+00
  0.00000000E+00  0.00000000E+00  0.00000000E+00  0.00000000E+00  0.00000000E+00
  0.00000000E+00  0.00000000E+00  0.00000000E+00  0.00000000E+00  0.00000000E+00
  0.00000000E+00  0.00000000E+00  0.00000000E+00  0.00000000E+00  0.00000000E+00
  0.00000000E+00  0.00000000E+00  0.00000000E+00  0.00000000E+00  0.00000000E+00
  0.00000000E+00  0.00000000E+00  0.00000000E+00  0.00000000E+00  0.00000000E+00
  0.00000000E+00  0.00000000E+00  0.00000000E+00  0.00000000E+00  0.00000000E+00
  0.00000000E+00  0.00000000E+00  0.00000000E+00  0.00000000E+00  0.00000000E+00
  0.00000000E+00  0.00000000E+00  0.00000000E+00  0.00000000E+00  0.00000000E+00
  0.00000000E+00  0.00000000E+00  0.00000000E+00  0.00000000E+00  0.00000000E+00
  0.00000000E+00  0.00000000E+00  0.00000000E+00  0.00000000E+00  0.00000000E+00
  0.00000000E+00  0.00000000E+00  0.00000000E+00  0.00000000E+00  0.00000000E+00
  0.00000000E+00  0.00000000E+00  0.00000000E+00  0.00000000E+00  0.00000000E+00
  0.00000000E+00  0.00000000E+00  0.00000000E+00  0.00000000E+00  0.00000000E+00
  0.00000000E+00  0.00000000E+00  0.00000000E+00  0.00000000E+00  0.00000000E+00
  0.00000000E+00  0.00000000E+00  0.00000000E+00  0.00000000E+00  0.00000000E+00
  0.00000000E+00  0.00000000E+00  0.00000000E+00  0.00000000E+00  0.00000000E+00
  0.00000000E+00  0.00000000E+00  0.00000000E+00  0.00000000E+00  0.00000000E+00
  0.00000000E+00  0.00000000E+00  0.00000000E+00  0.00000000E+00  0.00000000E+00
  0.00000000E+00  0.00000000E+00  0.00000000E+00  0.00000000E+00  0.00000000E+00
  0.00000000E+00  0.00000000E+00  0.00000000E+00  0.00000000E+00  0.00000000E+00
  0.00000000E+00  0.00000000E+00  0.00000000E+00  0.00000000E+00  0.00000000E+00
  0.00000000E+00  0.00000000E+00  0.00000000E+00  0.00000000E+00  0.00000000E+00
  0.00000000E+00  0.00000000E+00  0.00000000E+00  0.00000000E+00  0.00000000E+00
  0.00000000E+00  0.00000000E+00  0.00000000E+00  0.00000000E+00  0.00000000E+00
  0.00000000E+00  0.00000000E+00  0.00000000E+00  0.00000000E+00  0.00000000E+00
  0.00000000E+00  0.00000000E+00  0.00000000E+00  0.00000000E+00  0.00000000E+00
  0.00000000E+00  0.00000000E+00  0.00000000E+00  0.00000000E+00  0.00000000E+00
  0.00000000E+00  0.00000000E+00  0.00000000E+00  0.00000000E+00  0.00000000E+00
  0.00000000E+00  0.00000000E+00  0.00000000E+00  0.00000000E+00  0.00000000E+00
  0.00000000E+00  0.00000000E+00  0.00000000E+00  0.00000000E+00  0.00000000E+00
  0.00000000E+00  0.00000000E+00  0.00000000E+00  0.00000000E+00  0.00000000E+00
  0.00000000E+00  0.00000000E+00  0.00000000E+00  0.00000000E+00  0.00000000E+00
  0.00000000E+00  0.00000000E+00  0.00000000E+00  0.00000000E+00  0.00000000E+00
  0.00000000E+00  0.00000000E+00  0.00000000E+00  0.00000000E+00  0.00000000E+00
  0.00000000E+00  0.00000000E+00  0.00000000E+00  0.00000000E+00  0.00000000E+00
  0.00000000E+00  0.00000000E+00  0.00000000E+00  0.00000000E+00  0.00000000E+00
  0.00000000E+00  0.00000000E+00  0.00000000E+00  0.00000000E+00  0.00000000E+00
  0.00000000E+00  0.00000000E+00  0.00000000E+00  0.00000000E+00  0.00000000E+00
  0.00000000E+00  0.00000000E+00  0.00000000E+00  0.00000000E+00  0.00000000E+00
  0.00000000E+00  0.00000000E+00  0.00000000E+00  0.00000000E+00  0.00000000E+00
  0.00000000E+00  0.00000000E+00  0.00000000E+00  0.00000000E+00  0.00000000E+00
  0.00000000E+00  0.00000000E+00  0.00000000E+00  0.00000000E+00  0.00000000E+00
  0.00000000E+00  0.00000000E+00  0.00000000E+00  0.00000000E+00  0.00000000E+00
  0.00000000E+00  0.00000000E+00  0.00000000E+00  0.00000000E+00  0.00000000E+00
  0.00000000E+00  0.00000000E+00  0.00000000E+00  0.00000000E+00  0.00000000E+00
  0.00000000E+00  0.00000000E+00  0.00000000E+00  0.00000000E+00  0.00000000E+00
  0.00000000E+00  0.00000000E+00  0.00000000E+00  0.00000000E+00  0.00000000E+00
  0.00000000E+00  0.00000000E+00  0.00000000E+00  0.00000000E+00  0.00000000E+00
  0.00000000E+00  0.00000000E+00  0.00000000E+00  0.00000000E+00  0.00000000E+00
  0.00000000E+00  0.00000000E+00  0.00000000E+00  0.00000000E+00  0.00000000E+00
  0.00000000E+00  0.00000000E+00  0.00000000E+00  0.00000000E+00  0.00000000E+00
  0.00000000E+00  0.00000000E+00  0.00000000E+00  0.00000000E+00  0.00000000E+00
  0.00000000E+00  0.00000000E+00  0.00000000E+00  0.00000000E+00  0.00000000E+00
  0.00000000E+00  0.00000000E+00  0.00000000E+00  0.00000000E+00  0.00000000E+00
  0.00000000E+00  0.00000000E+00  0.00000000E+00  0.00000000E+00  0.00000000E+00
  0.00000000E+00  0.00000000E+00  0.00000000E+00  0.00000000E+00  0.00000000E+00
  0.00000000E+00  0.00000000E+00  0.00000000E+00  0.00000000E+00  0.00000000E+00
  0.00000000E+00  0.00000000E+00  0.00000000E+00  0.00000000E+00  0.00000000E+00
  0.00000000E+00  0.00000000E+00  0.00000000E+00  0.00000000E+00  0.00000000E+00
  0.00000000E+00  0.00000000E+00  0.00000000E+00  0.00000000E+00  0.00000000E+00
  0.00000000E+00  0.00000000E+00  0.00000000E+00  0.00000000E+00  0.00000000E+00
  0.00000000E+00  0.00000000E+00  0.00000000E+00  0.00000000E+00  0.00000000E+00
  0.00000000E+00  0.00000000E+00  0.00000000E+00  0.00000000E+00  0.00000000E+00
  0.00000000E+00  0.00000000E+00  0.00000000E+00  0.00000000E+00  0.00000000E+00
  0.00000000E+00  0.00000000E+00  0.00000000E+00  0.00000000E+00  0.00000000E+00
  0.00000000E+00  0.00000000E+00  0.00000000E+00  0.00000000E+00  0.00000000E+00
  0.00000000E+00  0.00000000E+00  0.00000000E+00  0.00000000E+00  0.00000000E+00
  0.00000000E+00  0.00000000E+00  0.00000000E+00  0.00000000E+00  0.00000000E+00
  0.00000000E+00  0.00000000E+00  0.00000000E+00  0.00000000E+00  0.00000000E+00
  0.00000000E+00  0.00000000E+00  0.00000000E+00  0.00000000E+00  0.00000000E+00
  0.00000000E+00  0.00000000E+00  0.00000000E+00  0.00000000E+00  0.00000000E+00
  0.00000000E+00  0.00000000E+00  0.00000000E+00  0.00000000E+00  0.00000000E+00
  0.00000000E+00  0.00000000E+00  0.00000000E+00  0.00000000E+00  0.00000000E+00
  0.00000000E+00  0.00000000E+00  0.00000000E+00  0.00000000E+00  0.00000000E+00
  0.00000000E+00  0.00000000E+00  0.00000000E+00  0.00000000E+00  0.00000000E+00
  0.00000000E+00  0.00000000E+00  0.00000000E+00  0.00000000E+00  0.00000000E+00
  0.00000000E+00  0.00000000E+00  0.00000000E+00  0.00000000E+00  0.00000000E+00
  0.00000000E+00  0.00000000E+00  0.00000000E+00  0.00000000E+00  0.00000000E+00
  0.00000000E+00  0.00000000E+00  0.00000000E+00  0.00000000E+00  0.00000000E+00
  0.00000000E+00  0.00000000E+00  0.00000000E+00  0.00000000E+00  0.00000000E+00
  0.00000000E+00  0.00000000E+00  0.00000000E+00  0.00000000E+00  0.00000000E+00
  0.00000000E+00  0.00000000E+00  0.00000000E+00  0.00000000E+00  0.00000000E+00
  0.00000000E+00  0.00000000E+00  0.00000000E+00  0.00000000E+00  0.00000000E+00
  0.00000000E+00  0.00000000E+00  0.00000000E+00  0.00000000E+00  0.00000000E+00
  0.00000000E+00  0.00000000E+00  0.00000000E+00  0.00000000E+00  0.00000000E+00
  0.00000000E+00  0.00000000E+00  0.00000000E+00  0.00000000E+00  0.00000000E+00
  0.00000000E+00  0.00000000E+00  0.00000000E+00  0.00000000E+00  0.00000000E+00
  0.00000000E+00  0.00000000E+00  0.00000000E+00  0.00000000E+00  0.00000000E+00
  0.00000000E+00  0.00000000E+00  0.00000000E+00  0.00000000E+00  0.00000000E+00
  0.00000000E+00  0.00000000E+00  0.00000000E+00  0.00000000E+00  0.00000000E+00
  0.00000000E+00  0.00000000E+00  0.00000000E+00  0.00000000E+00  0.00000000E+00
  0.00000000E+00  0.00000000E+00  0.00000000E+00  0.00000000E+00  0.00000000E+00
  0.00000000E+00  0.00000000E+00  0.00000000E+00  0.00000000E+00  0.00000000E+00
  0.00000000E+00  0.00000000E+00  0.00000000E+00  0.00000000E+00  0.00000000E+00
  0.00000000E+00  0.00000000E+00  0.00000000E+00  0.00000000E+00  0.00000000E+00
  0.00000000E+00  0.00000000E+00  0.00000000E+00  0.00000000E+00  0.00000000E+00
  0.00000000E+00  0.00000000E+00  0.00000000E+00  0.00000000E+00  0.00000000E+00
  0.00000000E+00  0.00000000E+00  0.00000000E+00  0.00000000E+00  0.00000000E+00
  0.00000000E+00  0.00000000E+00  0.00000000E+00  0.00000000E+00  0.00000000E+00
  0.00000000E+00  0.00000000E+00  0.00000000E+00  0.00000000E+00  0.00000000E+00
  0.00000000E+00  0.00000000E+00  0.00000000E+00  0.00000000E+00  0.00000000E+00
  0.00000000E+00  0.00000000E+00  0.00000000E+00  0.00000000E+00  0.00000000E+00
  0.00000000E+00  0.00000000E+00  0.00000000E+00  0.00000000E+00  0.00000000E+00
  0.00000000E+00  0.00000000E+00  0.00000000E+00  0.00000000E+00  0.00000000E+00
  0.00000000E+00  0.00000000E+00  0.00000000E+00  0.00000000E+00  0.00000000E+00
  0.00000000E+00  0.00000000E+00  0.00000000E+00  0.00000000E+00  0.00000000E+00
  0.00000000E+00  0.00000000E+00  0.00000000E+00  0.00000000E+00  0.00000000E+00
  0.00000000E+00  0.00000000E+00  0.00000000E+00  0.00000000E+00  0.00000000E+00
  0.00000000E+00  0.00000000E+00  0.00000000E+00  0.00000000E+00  0.00000000E+00
  0.00000000E+00  0.00000000E+00  0.00000000E+00  0.00000000E+00  0.00000000E+00
  0.00000000E+00  0.00000000E+00  0.00000000E+00  0.00000000E+00  0.00000000E+00
  0.00000000E+00  0.00000000E+00  0.00000000E+00  0.00000000E+00  0.00000000E+00
  0.00000000E+00  0.00000000E+00  0.00000000E+00  0.00000000E+00  0.00000000E+00
  0.00000000E+00  0.00000000E+00  0.00000000E+00  0.00000000E+00  0.00000000E+00
  0.00000000E+00  0.00000000E+00  0.00000000E+00  0.00000000E+00  0.00000000E+00
  0.00000000E+00  0.00000000E+00  0.00000000E+00  0.00000000E+00  0.00000000E+00
  0.00000000E+00  0.00000000E+00  0.00000000E+00  0.00000000E+00  0.00000000E+00
  0.00000000E+00  0.00000000E+00  0.00000000E+00  0.00000000E+00  0.00000000E+00
  0.00000000E+00  0.00000000E+00  0.00000000E+00  0.00000000E+00  0.00000000E+00
  0.00000000E+00  0.00000000E+00  0.00000000E+00  0.00000000E+00  0.00000000E+00
  0.00000000E+00  0.00000000E+00  0.00000000E+00  0.00000000E+00  0.00000000E+00
  0.00000000E+00  0.00000000E+00  0.00000000E+00  0.00000000E+00  0.00000000E+00
  0.00000000E+00  0.00000000E+00  0.00000000E+00  0.00000000E+00  0.00000000E+00
  0.00000000E+00  0.00000000E+00  0.00000000E+00  0.00000000E+00  0.00000000E+00
  0.00000000E+00  0.00000000E+00  0.00000000E+00  0.00000000E+00  0.00000000E+00
  0.00000000E+00  0.00000000E+00  0.00000000E+00  0.00000000E+00  0.00000000E+00
  0.00000000E+00  0.00000000E+00  0.00000000E+00  0.00000000E+00  0.00000000E+00
  0.00000000E+00  0.00000000E+00  0.00000000E+00  0.00000000E+00  0.00000000E+00
  0.00000000E+00  0.00000000E+00  0.00000000E+00  0.00000000E+00  0.00000000E+00
  0.00000000E+00  0.00000000E+00  0.00000000E+00  0.00000000E+00  0.00000000E+00
  0.00000000E+00  0.00000000E+00  0.00000000E+00  0.00000000E+00  0.00000000E+00
  0.00000000E+00  0.00000000E+00  0.00000000E+00  0.00000000E+00  0.00000000E+00
  0.00000000E+00  0.00000000E+00  0.00000000E+00  0.00000000E+00  0.00000000E+00
  0.00000000E+00  0.00000000E+00  0.00000000E+00  0.00000000E+00  0.00000000E+00
  0.00000000E+00  0.00000000E+00  0.00000000E+00  0.00000000E+00  0.00000000E+00
  0.00000000E+00  0.00000000E+00  0.00000000E+00  0.00000000E+00  0.00000000E+00
  0.00000000E+00  0.00000000E+00  0.00000000E+00  0.00000000E+00  0.00000000E+00
  0.00000000E+00  0.00000000E+00  0.00000000E+00  0.00000000E+00  0.00000000E+00
  0.00000000E+00  0.00000000E+00  0.00000000E+00  0.00000000E+00  0.00000000E+00
  0.00000000E+00  0.00000000E+00  0.00000000E+00  0.00000000E+00  0.00000000E+00
Gaussian Version                           C   N=           2
AppleM1-GDVRevJ.32+     
