hfs                                                                     
Freq      RB3LYP                                                      6-31G(d)            
Number of atoms                            I                3
Info1-9                                    I   N=           9
          13          12           0           0           0         101
           6          18        -502
Full Title                                 C   N=           1
hfs         
Route                                      C   N=           5
#B3LYP 6-31G* freq=anharm output=pickett iop(7/8=10)        
Point Group                                C   N=           2
CS                      
Point Group NOp                            I                2
Point Group Abelian NOp                    I                2
Point Group NClass                         I                2
Point Group NIrrep                         I                2
Point Group NGen                           I                1
Point Group NOp symm assign                I                1
Point Group Irrep Names                    H   N=           2
A'      A"      
Point Group Class Names                    H   N=           2
E       SgmH    
Point Group Generators                     I   N=           1
           2
Point Group Class of Operators             I   N=           2
           1           2
Point Group Rotations                      R   N=          24
  1.00000000E+00 -1.84490439E-16  0.00000000E+00 -1.28979288E-16  1.00000000E+00
  0.00000000E+00  0.00000000E+00  0.00000000E+00  1.00000000E+00  0.00000000E+00
  0.00000000E+00  0.00000000E+00  1.00000000E+00 -1.84490439E-16  0.00000000E+00
 -1.28979288E-16  1.00000000E+00  0.00000000E+00  0.00000000E+00  0.00000000E+00
 -1.00000000E+00  0.00000000E+00  0.00000000E+00  0.00000000E+00
Point Group Cell Trans                     I   N=           6
           0           0           0           0           0           0
Point Group Char Table                     R   N=           4
  1.00000000E+00  1.00000000E+00  1.00000000E+00 -1.00000000E+00
Point Group Atom Permutations              I   N=           6
           1           2           3           1           2           3
Charge                                     I                0
Multiplicity                               I                1
Number of electrons                        I               18
Number of alpha electrons                  I                9
Number of beta electrons                   I                9
Number of basis functions                  I               32
Number of independent functions            I               32
Number of point charges in /Mol/           I                0
Number of translation vectors              I                0
Atomic numbers                             I   N=           3
           8           1           9
Nuclear charges                            R   N=           3
  8.00000000E+00  1.00000000E+00  9.00000000E+00
Current cartesian coordinates              R   N=           9
  1.01621139E-01  1.34072821E+00  0.00000000E+00 -1.72755936E+00  1.59291773E+00
  0.00000000E+00  1.01621139E-01 -1.36874927E+00  0.00000000E+00
Number of symbols in /Mol/                 I                0
Int Atom Types                             I   N=           3
           0           0           0
Force Field                                I                0
Atom Types                                 C   N=           3
                                    
MM charges                                 R   N=           3
  0.00000000E+00  0.00000000E+00  0.00000000E+00
Integer atomic weights                     I   N=           3
          16           1          19
Real atomic weights                        R   N=           3
  1.59949146E+01  1.00782504E+00  1.89984032E+01
Atom fragment info                         I   N=           3
           0           0           0
Atom residue num                           I   N=           3
           0           0           0
Nuclear spins                              I   N=           3
           0           1           1
Nuclear ZEff                               R   N=           3
 -5.60000000E+00 -1.00000000E+00 -6.75000000E+00
Nuclear ZNuc                               R   N=           3
  8.00000000E+00  1.00000000E+00  9.00000000E+00
Nuclear QMom                               R   N=           3
  0.00000000E+00  0.00000000E+00  0.00000000E+00
Nuclear GFac                               R   N=           3
  0.00000000E+00  2.79284600E+00  2.62886700E+00
MicOpt                                     I   N=           3
          -1          -1          -1
Number of residues                         I                0
Number of secondary structures             I                0
SymInf integers                            I   N=          26
           1           2           1           1           1           1
           1          -1           0           0           0           0
           0           0           0           0           0           0
           0           0           0           0           0           0
           0           0
RotTr to input orientation                 R   N=          12
  5.78512084E-01  8.15673813E-01  0.00000000E+00 -8.15673813E-01  5.78512084E-01
  0.00000000E+00  0.00000000E+00  0.00000000E+00  1.00000000E+00  7.19427659E-01
 -9.55692558E-01  0.00000000E+00
Number of contracted shells                I               10
Number of primitive shells                 I               26
Pure/Cartesian d shells                    I                1
Pure/Cartesian f shells                    I                0
Highest angular momentum                   I                2
Largest degree of contraction              I                6
Shell types                                I   N=          10
           0          -1          -1           2           0           0
           0          -1          -1           2
Number of primitives per shell             I   N=          10
           6           3           1           1           3           1
           6           3           1           1
Shell to atom map                          I   N=          10
           1           1           1           1           2           2
           3           3           3           3
Primitive exponents                        R   N=          26
  5.48467166E+03  8.25234946E+02  1.88046958E+02  5.29645000E+01  1.68975704E+01
  5.79963534E+00  1.55396162E+01  3.59993359E+00  1.01376175E+00  2.70005823E-01
  8.00000000E-01  1.87311370E+01  2.82539436E+00  6.40121692E-01  1.61277759E-01
  7.00171309E+03  1.05136609E+03  2.39285690E+02  6.73974453E+01  2.15199573E+01
  7.40310130E+00  2.08479528E+01  4.80830834E+00  1.34406986E+00  3.58151393E-01
  8.00000000E-01
Contraction coefficients                   R   N=          26
  1.83107443E-03  1.39501722E-02  6.84450781E-02  2.32714336E-01  4.70192898E-01
  3.58520853E-01 -1.10777550E-01 -1.48026263E-01  1.13076702E+00  1.00000000E+00
  1.00000000E+00  3.34946043E-02  2.34726953E-01  8.13757326E-01  1.00000000E+00
  1.81961690E-03  1.39160796E-02  6.84053245E-02  2.33185760E-01  4.71267439E-01
  3.56618546E-01 -1.08506975E-01 -1.46451658E-01  1.12868858E+00  1.00000000E+00
  1.00000000E+00
P(S=P) Contraction coefficients            R   N=          26
  0.00000000E+00  0.00000000E+00  0.00000000E+00  0.00000000E+00  0.00000000E+00
  0.00000000E+00  7.08742682E-02  3.39752839E-01  7.27158577E-01  1.00000000E+00
  0.00000000E+00  0.00000000E+00  0.00000000E+00  0.00000000E+00  0.00000000E+00
  0.00000000E+00  0.00000000E+00  0.00000000E+00  0.00000000E+00  0.00000000E+00
  0.00000000E+00  7.16287242E-02  3.45912103E-01  7.22469956E-01  1.00000000E+00
  0.00000000E+00
Coordinates of each shell                  R   N=          30
  1.01621139E-01  1.34072821E+00  0.00000000E+00  1.01621139E-01  1.34072821E+00
  0.00000000E+00  1.01621139E-01  1.34072821E+00  0.00000000E+00  1.01621139E-01
  1.34072821E+00  0.00000000E+00 -1.72755936E+00  1.59291773E+00  0.00000000E+00
 -1.72755936E+00  1.59291773E+00  0.00000000E+00  1.01621139E-01 -1.36874927E+00
  0.00000000E+00  1.01621139E-01 -1.36874927E+00  0.00000000E+00  1.01621139E-01
 -1.36874927E+00  0.00000000E+00  1.01621139E-01 -1.36874927E+00  0.00000000E+00
Constraint Structure                       R   N=           9
  1.01621139E-01  1.34072821E+00  0.00000000E+00 -1.72755936E+00  1.59291773E+00
  0.00000000E+00  1.01621139E-01 -1.36874927E+00  0.00000000E+00
Constraint Force Constants                 R   N=           9
  0.00000000E+00  0.00000000E+00  0.00000000E+00  0.00000000E+00  0.00000000E+00
  0.00000000E+00  0.00000000E+00  0.00000000E+00  0.00000000E+00
Num ILSW                                   I              100
ILSW                                       I   N=         100
           0           1           0           1           2           0
           0           0           0           0        4002          -1
           5           0           0           0           2          -1
           0           0           0           0           1           0
           1           0           0           0           0           0
           0           0      100000           0          -1           0
           0           0           0           0           0           0
           0           0           0           1           0           0
           0 -2000000000           1           0           0           0
           0           0        2004          68           0           0
           0           0           5           0           0           0
           0           0           0           0           0           1
           0           0           0           0           0           0
           0           0           0           0           0           0
           0           0           0           0           0           0
           0           0           1           0           0           0
           0           0           0           0
Num RLSW                                   I               68
RLSW                                       R   N=          68
  8.00000000E-01  7.20000000E-01  1.00000000E+00  8.10000000E-01  2.00000000E-01
  0.00000000E+00  0.00000000E+00  1.00000000E+00  0.00000000E+00  0.00000000E+00
  0.00000000E+00  0.00000000E+00  1.00000000E+00  0.00000000E+00  0.00000000E+00
  0.00000000E+00  0.00000000E+00  1.00000000E+00  0.00000000E+00  0.00000000E+00
  0.00000000E+00  0.00000000E+00  1.00000000E+00  0.00000000E+00  0.00000000E+00
  0.00000000E+00  0.00000000E+00  1.00000000E+00  0.00000000E+00  0.00000000E+00
  0.00000000E+00  0.00000000E+00  1.00000000E+00  0.00000000E+00  0.00000000E+00
  0.00000000E+00  0.00000000E+00  0.00000000E+00  1.00000000E+00  1.00000000E+00
  0.00000000E+00  1.00000000E+00  0.00000000E+00  0.00000000E+00  0.00000000E+00
  0.00000000E+00  0.00000000E+00  0.00000000E+00  0.00000000E+00  0.00000000E+00
  0.00000000E+00  0.00000000E+00  1.00000000E+00  1.00000000E+00  1.00000000E+00
  1.00000000E+00  1.00000000E+00  1.00000000E+00  0.00000000E+00  0.00000000E+00
  0.00000000E+00  0.00000000E+00  0.00000000E+00  0.00000000E+00  0.00000000E+00
  0.00000000E+00  2.00000000E-10  1.00000000E-02
MxBond                                     I                2
NBond                                      I   N=           3
           2           1           1
IBond                                      I   N=           6
           2           3           1           0           1           0
RBond                                      R   N=           6
  1.00000000E+00  1.00000000E+00  1.00000000E+00  0.00000000E+00  1.00000000E+00
  0.00000000E+00
Virial Ratio                               R      2.007112761606897E+00
SCF Energy                                 R     -1.755224824113467E+02
Total Energy                               R     -1.755224824113467E+02
RMS Force                                  R      8.313938882814408E-07
RMS Density                                R      5.333845635632724E-09
NImag                                      I                0
Zero-point Energy                          R      1.388339061680066E-02
Job Status                                 I                1
Nuclear derivative order                   I                3
Energy with zero-point                     R     -1.755085990207299E+02
Thermal Energy                             R     -1.755057225399548E+02
Thermal Enthalpy                           R     -1.755047783551411E+02
Thermal Free Energy                        R     -1.755304899702133E+02
External E-field                           R   N=         105
  0.00000000E+00  0.00000000E+00  0.00000000E+00  0.00000000E+00  0.00000000E+00
  0.00000000E+00  0.00000000E+00  0.00000000E+00  0.00000000E+00  0.00000000E+00
  0.00000000E+00  0.00000000E+00  0.00000000E+00  0.00000000E+00  0.00000000E+00
  0.00000000E+00  0.00000000E+00  0.00000000E+00  0.00000000E+00  0.00000000E+00
  0.00000000E+00  0.00000000E+00  0.00000000E+00  0.00000000E+00  0.00000000E+00
  0.00000000E+00  0.00000000E+00  0.00000000E+00  0.00000000E+00  0.00000000E+00
  0.00000000E+00  0.00000000E+00  0.00000000E+00  0.00000000E+00  0.00000000E+00
  0.00000000E+00  0.00000000E+00  0.00000000E+00  0.00000000E+00  0.00000000E+00
  0.00000000E+00  0.00000000E+00  0.00000000E+00  0.00000000E+00  0.00000000E+00
  0.00000000E+00  0.00000000E+00  0.00000000E+00  0.00000000E+00  0.00000000E+00
  0.00000000E+00  0.00000000E+00  0.00000000E+00  0.00000000E+00  0.00000000E+00
  0.00000000E+00  0.00000000E+00  0.00000000E+00  0.00000000E+00  0.00000000E+00
  0.00000000E+00  0.00000000E+00  0.00000000E+00  0.00000000E+00  0.00000000E+00
  0.00000000E+00  0.00000000E+00  0.00000000E+00  0.00000000E+00  0.00000000E+00
  0.00000000E+00  0.00000000E+00  0.00000000E+00  0.00000000E+00  0.00000000E+00
  0.00000000E+00  0.00000000E+00  0.00000000E+00  0.00000000E+00  0.00000000E+00
  0.00000000E+00  0.00000000E+00  0.00000000E+00  0.00000000E+00  0.00000000E+00
  0.00000000E+00  0.00000000E+00  0.00000000E+00  0.00000000E+00  0.00000000E+00
  0.00000000E+00  0.00000000E+00  0.00000000E+00  0.00000000E+00  0.00000000E+00
  0.00000000E+00  0.00000000E+00  0.00000000E+00  0.00000000E+00  0.00000000E+00
  0.00000000E+00  0.00000000E+00  0.00000000E+00  0.00000000E+00  0.00000000E+00
IOpCl                                      I                0
IROHF                                      I                0
Alpha Orbital Energies                     R   N=          32
 -2.47299061E+01 -1.92549573E+01 -1.23307725E+00 -9.65390723E-01 -5.56248954E-01
 -4.86486947E-01 -4.55449179E-01 -3.72432804E-01 -3.07341540E-01 -4.19335661E-02
  5.79935522E-02  7.40587878E-01  8.09688922E-01  8.36936660E-01  8.54461588E-01
  1.05710109E+00  1.15614152E+00  1.20351165E+00  1.23019120E+00  1.51747473E+00
  1.53626788E+00  1.56888224E+00  1.65250848E+00  1.84545084E+00  1.90897870E+00
  1.99275263E+00  2.31992746E+00  2.39817770E+00  2.47502941E+00  3.09477691E+00
  3.47305129E+00  3.80411849E+00
Alpha MO coefficients                      R   N=        1024
 -7.12887547E-06 -6.32559412E-05  2.34443711E-05 -3.13779423E-04  0.00000000E+00
 -9.34151495E-05 -1.27909420E-04 -2.97933271E-04  0.00000000E+00 -3.98775898E-05
  7.35186435E-04 -7.94027314E-05 -7.14980631E-07  0.00000000E+00  0.00000000E+00
 -3.94991996E-05 -1.84686232E-04  9.93132815E-01  2.00845698E-02 -4.19375298E-05
  7.08417620E-04  0.00000000E+00  1.32420587E-02  2.02493586E-05 -6.29599089E-04
  0.00000000E+00 -7.53091287E-03 -7.98353952E-03 -7.53620116E-03  8.73149728E-06
  0.00000000E+00  0.00000000E+00  9.92966711E-01  2.62311635E-02 -8.99270667E-04
 -7.23114508E-04  0.00000000E+00  9.03279398E-03  3.00440400E-05  3.42344048E-04
  0.00000000E+00 -7.52097852E-03 -7.70380298E-03 -7.47355969E-03 -1.04043780E-05
  0.00000000E+00  0.00000000E+00  4.08433795E-04 -1.09734326E-03  2.27993738E-05
  2.70131056E-04  2.74629460E-05  2.29069754E-04  0.00000000E+00 -9.46133449E-04
 -1.13037100E-04  1.26021748E-04  0.00000000E+00  1.57573367E-04  5.89868395E-04
  1.29641461E-04 -6.66369489E-06  0.00000000E+00  0.00000000E+00 -1.04077577E-01
  2.37485008E-01 -3.81814917E-02 -9.11120172E-02  0.00000000E+00  1.72106446E-01
 -1.65662228E-02 -2.25585379E-02  0.00000000E+00  5.72680392E-03  1.77829019E-02
 -6.00512651E-03  2.23454406E-03  0.00000000E+00  0.00000000E+00  5.59827878E-02
 -3.52730935E-03 -1.97431027E-01  4.44623558E-01 -5.99962218E-03  8.71263012E-02
  0.00000000E+00  4.02208938E-01 -6.15331771E-03  4.86574112E-02  0.00000000E+00
  4.80564625E-03  3.48159527E-02  3.00692170E-03 -2.09206102E-03  0.00000000E+00
  0.00000000E+00 -1.86459670E-01  4.34490762E-01 -1.22910158E-01  3.39470494E-02
  0.00000000E+00  4.16607758E-01 -6.10727323E-02  1.80435861E-02  0.00000000E+00
  2.37316036E-02 -3.68547559E-03 -7.28325386E-03 -4.25245737E-03  0.00000000E+00
  0.00000000E+00  1.49676385E-01 -7.26652066E-04  1.27935029E-01 -2.87087401E-01
 -8.24743320E-03  8.25638119E-02  0.00000000E+00 -3.32230179E-01 -2.36743981E-03
  3.95212269E-02  0.00000000E+00 -3.96320705E-03  8.17517748E-03 -4.22281605E-03
 -1.74199266E-03  0.00000000E+00  0.00000000E+00 -2.82563070E-02  6.13705498E-02
  3.61288092E-01 -2.70766127E-01  0.00000000E+00  1.12588072E-01  1.87068560E-01
 -1.35029125E-01  0.00000000E+00 -3.56022280E-02  2.45280304E-02 -8.23613215E-04
  2.68415725E-03  0.00000000E+00  0.00000000E+00 -2.04305834E-01 -1.20300545E-01
  4.09093316E-02 -7.14401316E-02  1.66485765E-01  3.54782248E-01  0.00000000E+00
 -1.80526046E-01  1.05004039E-01  2.11584528E-01  0.00000000E+00  1.89153542E-03
  3.03504411E-02  4.21650666E-03  1.05157565E-02  0.00000000E+00  0.00000000E+00
  6.97773595E-02 -1.49717312E-01 -2.86813362E-01 -3.10100203E-01  0.00000000E+00
 -2.86034134E-01 -1.68083583E-01 -1.88532554E-01  0.00000000E+00  1.66823406E-02
  1.94566237E-02 -1.15569617E-03  2.58440125E-02  0.00000000E+00  0.00000000E+00
  8.45291806E-02  6.17599724E-02  2.36980871E-02 -3.24406173E-02 -3.07665791E-01
  3.28338666E-01  0.00000000E+00 -1.26626831E-01 -2.07821937E-01  2.05527632E-01
  0.00000000E+00  7.44207088E-03  2.41116940E-02  3.59922579E-03 -1.51709386E-02
  0.00000000E+00  0.00000000E+00  0.00000000E+00  0.00000000E+00  0.00000000E+00
  0.00000000E+00  3.51556999E-01  0.00000000E+00  0.00000000E+00  0.00000000E+00
  2.42501787E-01  0.00000000E+00  0.00000000E+00  0.00000000E+00  0.00000000E+00
 -1.52872871E-02 -1.81287657E-02  0.00000000E+00  0.00000000E+00  0.00000000E+00
  0.00000000E+00  0.00000000E+00  0.00000000E+00  5.43630634E-01  0.00000000E+00
  0.00000000E+00  0.00000000E+00  3.63504804E-01  0.00000000E+00  0.00000000E+00
  0.00000000E+00  0.00000000E+00 -2.48355734E-03  1.87070374E-02  4.63506101E-02
 -9.90895269E-02 -3.15375581E-01 -9.78469809E-02  0.00000000E+00 -2.08475998E-01
 -1.75786711E-01 -6.42872146E-02  0.00000000E+00  2.40598955E-02  1.68574633E-03
 -1.67493282E-03 -8.58027457E-03  0.00000000E+00  0.00000000E+00  1.59067116E-01
  8.78984621E-02  2.16495127E-04  1.25987709E-02  5.84750426E-01  7.83496449E-02
  0.00000000E+00 -2.65052421E-02  4.08878616E-01  5.07812637E-02  0.00000000E+00
  3.15112586E-03  9.33866775E-03  5.29910883E-03  5.08291589E-03  0.00000000E+00
  0.00000000E+00  0.00000000E+00  0.00000000E+00  0.00000000E+00  0.00000000E+00
  5.83575533E-01  0.00000000E+00  0.00000000E+00  0.00000000E+00  4.07978238E-01
  0.00000000E+00  0.00000000E+00  0.00000000E+00  0.00000000E+00 -2.43938644E-02
  2.55168718E-03  0.00000000E+00  0.00000000E+00  0.00000000E+00  0.00000000E+00
  0.00000000E+00  0.00000000E+00 -4.16580959E-01  0.00000000E+00  0.00000000E+00
  0.00000000E+00 -2.98276813E-01  0.00000000E+00  0.00000000E+00  0.00000000E+00
  0.00000000E+00  9.52486048E-04  4.71561299E-03  6.60192753E-02 -1.68876062E-01
  3.62495700E-02  5.49316768E-01  0.00000000E+00 -4.13205633E-01  8.10828778E-02
  5.21962349E-01  0.00000000E+00 -9.29647581E-03  2.32757884E-02  8.26357730E-04
 -2.27158951E-02  0.00000000E+00  0.00000000E+00  1.99827858E-02  2.56075623E-01
 -4.99688363E-02  1.36975729E-01 -4.91211193E-04  5.01057761E-01  0.00000000E+00
  2.75324057E-01  3.60944408E-03  4.69530356E-01  0.00000000E+00  1.22874624E-02
 -7.41644879E-03  1.19962466E-02 -1.98584995E-03  0.00000000E+00  0.00000000E+00
  6.37271393E-02 -7.90279488E-02  3.45182876E-01 -1.60960262E-01  0.00000000E+00
 -8.61094949E-01  5.57714344E-01 -1.86143567E-01  0.00000000E+00  1.64482940E-02
  2.71695242E-02  3.92881258E-02  3.07520147E-04  0.00000000E+00  0.00000000E+00
  1.72099522E-01  1.47159991E+00  1.93665086E-02 -6.49107438E-02  5.68142602E-03
 -6.81269611E-02  0.00000000E+00 -9.36545837E-02  4.85169607E-03 -7.66689706E-02
  0.00000000E+00 -2.27709596E-03 -1.06772517E-02 -7.51694448E-03  4.89666254E-03
  0.00000000E+00  0.00000000E+00  1.06257691E-02 -1.00925387E-01  4.50954902E-01
  4.10229718E-01  0.00000000E+00  3.49459892E-01 -9.10399983E-02 -7.71244618E-01
  0.00000000E+00  1.41134937E-01 -1.25837748E-02 -8.81806133E-02 -3.24748539E-02
  0.00000000E+00  0.00000000E+00  9.44388116E-01 -7.85829125E-01  5.16718840E-03
  9.07059629E-02 -7.66450950E-02  1.04283277E-01  0.00000000E+00 -3.90687568E-01
  1.57666499E-02 -2.95267828E-01  0.00000000E+00  8.01297477E-02 -8.72077211E-02
  5.08411545E-02  2.88268939E-02  0.00000000E+00  0.00000000E+00 -3.59902840E-02
 -4.37837834E-01 -4.32152222E-01  4.94202530E-01  0.00000000E+00  1.03990091E+00
  3.54498199E-01 -9.44561770E-01  0.00000000E+00 -1.99810940E-01 -1.22384629E-01
 -1.06920027E-01  4.45834665E-02  0.00000000E+00  0.00000000E+00 -2.91893677E-01
  1.97513761E-01 -1.84408352E-02 -8.36349753E-01  1.38702210E-03  1.93859847E-01
  0.00000000E+00  1.05684420E+00 -3.64687546E-02 -5.85715213E-01  0.00000000E+00
 -3.13756447E-01 -5.91302053E-01 -3.05044448E-01 -1.74772442E-02  0.00000000E+00
  0.00000000E+00  3.54360544E-04 -8.77194949E-01 -3.34657008E-01 -4.06569317E-01
  0.00000000E+00  1.50437923E+00  5.14550806E-01  5.54921714E-01  0.00000000E+00
 -1.78270906E-01 -3.48101239E-01 -3.09584980E-01 -2.14032361E-02  0.00000000E+00
  0.00000000E+00  5.55898141E-01 -6.54331516E-01 -1.02368200E-02 -4.43503866E-02
 -2.09302200E-01 -7.32477778E-02  0.00000000E+00  2.14152816E-01  6.46816871E-02
  1.81442002E-01  0.00000000E+00 -2.82422817E-02  1.44427551E-02 -3.88136686E-02
  1.80771005E-02  0.00000000E+00  0.00000000E+00  0.00000000E+00  0.00000000E+00
  0.00000000E+00  0.00000000E+00 -9.22802430E-01  0.00000000E+00  0.00000000E+00
  0.00000000E+00  1.04135855E+00  0.00000000E+00  0.00000000E+00  0.00000000E+00
  0.00000000E+00 -1.68698400E-02  2.06601173E-02  0.00000000E+00  0.00000000E+00
  0.00000000E+00  0.00000000E+00  0.00000000E+00  0.00000000E+00 -2.10281699E-01
  0.00000000E+00  0.00000000E+00  0.00000000E+00  3.78646401E-02  0.00000000E+00
  0.00000000E+00  0.00000000E+00  0.00000000E+00 -2.91848769E-03 -1.02094353E-03
 -2.75778444E-02 -6.73200529E-01  5.97594259E-01 -2.89199200E-01  0.00000000E+00
  1.61194232E+00 -1.11987449E+00  4.99958321E-01  0.00000000E+00 -2.58533601E-01
 -1.24385183E-01 -1.65398423E-01  1.74894361E-02  0.00000000E+00  0.00000000E+00
 -8.71520801E-02 -1.03481822E+00 -4.80286512E-02 -9.70567726E-01  1.85220947E-01
  2.70482181E-01  0.00000000E+00  1.92607363E+00 -8.86622804E-02 -2.73372585E-01
  0.00000000E+00 -4.66247299E-01 -4.16870705E-01 -4.11572669E-01 -3.53124795E-02
  0.00000000E+00  0.00000000E+00 -4.70151083E-02 -7.77406792E-01  1.60209196E-01
  2.05009598E-01  0.00000000E+00  1.79765694E+00 -3.83293287E-01 -3.97962714E-01
  0.00000000E+00 -2.46405750E-01 -4.14338366E-01 -8.36418599E-02  1.49089187E-01
  0.00000000E+00  0.00000000E+00 -1.75544578E-01 -4.96196525E-01  4.00719082E-02
  6.31440617E-01  4.77242766E-01 -4.88028066E-01  0.00000000E+00 -1.52131259E+00
 -4.87288096E-01  3.47331391E-01  0.00000000E+00  3.28342115E-01  1.49126140E-01
  3.76305655E-01 -6.15127146E-02  0.00000000E+00  0.00000000E+00  0.00000000E+00
  0.00000000E+00  0.00000000E+00  0.00000000E+00  1.63294839E-01  0.00000000E+00
  0.00000000E+00  0.00000000E+00 -4.02345100E-01  0.00000000E+00  0.00000000E+00
  0.00000000E+00  0.00000000E+00  1.76875796E-02 -1.78293065E-01  0.00000000E+00
  0.00000000E+00  0.00000000E+00  0.00000000E+00  0.00000000E+00  0.00000000E+00
 -8.90121846E-01  0.00000000E+00  0.00000000E+00  0.00000000E+00  1.06269802E+00
  0.00000000E+00  0.00000000E+00  0.00000000E+00  0.00000000E+00 -4.55998579E-03
  7.89357229E-03 -3.56195480E-02 -4.07306949E-01  2.59228544E-01  1.28999428E-01
  0.00000000E+00  1.03671098E+00 -8.18690704E-01 -2.27048184E-01  0.00000000E+00
 -2.63516839E-01 -2.00919704E-01  6.05736549E-02 -1.09770786E-01  0.00000000E+00
  0.00000000E+00 -3.82360125E-01 -2.22243679E-01  1.62385997E-02  1.57392531E-01
 -7.23961290E-01 -2.59627767E-01  0.00000000E+00 -5.09655146E-01  9.43418774E-01
  1.64359201E-01  0.00000000E+00  7.24371753E-02 -1.24994480E-02  1.69594295E-01
 -5.54923553E-02  0.00000000E+00  0.00000000E+00  2.71031487E-03  2.67202425E-02
 -6.24453475E-04 -1.10785360E-02  0.00000000E+00 -1.60403400E-01 -1.42344625E-01
  2.11420724E-01  0.00000000E+00 -8.90127681E-02 -1.50075729E-03  9.64503918E-02
 -6.41593216E-01  0.00000000E+00  0.00000000E+00 -5.18937255E-02 -1.22822164E-01
 -2.13560971E-02 -3.62229118E-01  1.57127458E-01 -1.90989130E-01  0.00000000E+00
  8.01662700E-01 -2.93071176E-01  3.77498691E-01  0.00000000E+00 -1.29095889E-01
 -2.47667060E-01 -4.05793006E-02  5.57322057E-01  0.00000000E+00  0.00000000E+00
  0.00000000E+00  0.00000000E+00  0.00000000E+00  0.00000000E+00  4.64537411E-02
  0.00000000E+00  0.00000000E+00  0.00000000E+00  1.49386581E-02  0.00000000E+00
  0.00000000E+00  0.00000000E+00  0.00000000E+00 -5.74900342E-02  6.39597230E-01
  0.00000000E+00  0.00000000E+00  0.00000000E+00  0.00000000E+00  0.00000000E+00
  0.00000000E+00 -1.45720795E-01  0.00000000E+00  0.00000000E+00  0.00000000E+00
  2.91370386E-01  0.00000000E+00  0.00000000E+00  0.00000000E+00  0.00000000E+00
 -1.27953373E-02 -6.19455440E-01  3.61327705E-02  5.64962949E-01  2.14383477E-02
 -7.87669899E-02  0.00000000E+00 -1.70683297E+00  8.18304530E-02  9.40386038E-01
  0.00000000E+00  3.46973782E-01  1.82539707E-01 -1.74335850E-01  1.33908124E-01
  0.00000000E+00  0.00000000E+00  1.25296588E-01  1.30158202E-02 -8.47727227E-02
 -1.27279097E+00 -3.48386029E-02 -5.13554707E-01  0.00000000E+00  3.02001461E+00
  5.63009607E-02  1.27291625E+00  0.00000000E+00 -2.21765277E-01 -8.14867206E-01
 -4.58432352E-01 -1.36776856E-01  0.00000000E+00  0.00000000E+00  0.00000000E+00
  0.00000000E+00  0.00000000E+00  0.00000000E+00  2.86566780E-03  0.00000000E+00
  0.00000000E+00  0.00000000E+00  3.55635208E-02  0.00000000E+00  0.00000000E+00
  0.00000000E+00  0.00000000E+00  8.57444926E-01  3.93827260E-02  0.00000000E+00
  0.00000000E+00  0.00000000E+00  0.00000000E+00  0.00000000E+00  0.00000000E+00
 -7.27218646E-04  0.00000000E+00  0.00000000E+00  0.00000000E+00  2.32773724E-03
  0.00000000E+00  0.00000000E+00  0.00000000E+00  0.00000000E+00  4.66811682E-01
 -3.53233586E-02 -1.43695039E-02 -3.26844448E-01  4.90805406E-02  7.54737144E-02
  0.00000000E+00  7.92766519E-01 -2.91628185E-01 -2.32885939E-01  0.00000000E+00
  1.68097946E-03 -1.59264209E-02 -1.59342299E-01 -1.09556048E-01  0.00000000E+00
  0.00000000E+00 -2.67040955E-01 -1.49931305E-01  2.13446995E-02  1.85608663E-01
 -6.14752740E-03  2.12272883E-03  0.00000000E+00 -5.77371905E-01  2.90911352E-02
 -2.02063852E-01  0.00000000E+00  8.54729115E-01  1.97009257E-01 -8.06235871E-01
  3.59889014E-02  0.00000000E+00  0.00000000E+00  0.00000000E+00  0.00000000E+00
  0.00000000E+00  0.00000000E+00 -3.07008863E-03  0.00000000E+00  0.00000000E+00
  0.00000000E+00 -1.51291730E-02  0.00000000E+00  0.00000000E+00  0.00000000E+00
  0.00000000E+00 -5.12709596E-01 -1.69116704E-02  0.00000000E+00  0.00000000E+00
  0.00000000E+00  0.00000000E+00  0.00000000E+00  0.00000000E+00 -4.14414382E-03
  0.00000000E+00  0.00000000E+00  0.00000000E+00  7.76600227E-03  0.00000000E+00
  0.00000000E+00  0.00000000E+00  0.00000000E+00  8.85825321E-01  5.09395173E-03
  1.56310909E-02 -4.80316295E-01  2.29080640E-03  3.76295887E-01  0.00000000E+00
  6.19534263E-01 -6.31312929E-02 -4.50399057E-01  0.00000000E+00 -1.40348379E-01
  5.77041883E-01 -5.83388799E-01 -3.80073816E-02  0.00000000E+00  0.00000000E+00
 -5.49736542E-02 -5.49847868E-02  4.51245923E-02 -1.12128924E-01  8.25318026E-04
 -3.40901843E-01  0.00000000E+00 -3.69406890E-01 -1.25852171E-03  4.43293438E-02
  0.00000000E+00 -3.67984231E-01  5.56250054E-01 -5.83984176E-02  2.05669780E-04
  0.00000000E+00  0.00000000E+00  2.58364121E-02  1.68028694E-01  2.44471725E-02
  2.58975318E-02  0.00000000E+00 -6.11408038E-01  1.22362733E-01  9.27174760E-02
  0.00000000E+00 -5.36818830E-01  2.60634794E-01  4.15108655E-01  7.55476774E-01
  0.00000000E+00  0.00000000E+00  6.14150184E-01 -3.88957124E-02  1.30396272E-03
 -1.99251728E-01 -1.13784848E-01 -8.82814832E-02  0.00000000E+00  3.77333980E-01
  2.44415311E-01  1.83508390E-01  0.00000000E+00  5.23181531E-02 -1.00917727E-02
 -1.39636359E-01  6.83113416E-01  0.00000000E+00  0.00000000E+00  0.00000000E+00
  0.00000000E+00  0.00000000E+00  0.00000000E+00  7.26068910E-02  0.00000000E+00
  0.00000000E+00  0.00000000E+00 -3.34766965E-01  0.00000000E+00  0.00000000E+00
  0.00000000E+00  0.00000000E+00 -2.84261826E-03  8.37824829E-01  0.00000000E+00
  0.00000000E+00  0.00000000E+00  0.00000000E+00  0.00000000E+00  0.00000000E+00
 -1.64149639E-01  0.00000000E+00  0.00000000E+00  0.00000000E+00  4.01114815E-01
  0.00000000E+00  0.00000000E+00  0.00000000E+00  0.00000000E+00  4.75058704E-03
  8.68492050E-01 -4.45820376E-02 -3.84184585E-01  1.25697583E-01 -1.74186472E-02
  0.00000000E+00  1.24081434E+00 -1.02455488E+00 -1.11453827E-01  0.00000000E+00
  8.50170028E-01 -3.92788032E-01 -6.93177496E-01  3.14662823E-01  0.00000000E+00
  0.00000000E+00 -1.12795895E+00 -1.01273751E-01 -1.04212788E-02  2.60167336E-01
 -1.31057264E-01  1.11041887E-01  0.00000000E+00 -4.59499329E-01  3.79904911E-01
 -2.70595119E-01  0.00000000E+00 -8.36398444E-02 -1.68231449E-02  1.17893430E-01
  5.93897541E-01  0.00000000E+00  0.00000000E+00 -2.12733542E-01 -3.67235816E-01
  4.89603488E-02 -1.69457972E-01  0.00000000E+00  2.95316847E+00 -1.83909298E-01
 -1.41127264E+00  0.00000000E+00 -1.01934774E+00  6.09878550E-01 -1.10783688E+00
 -1.22760887E-02  0.00000000E+00  0.00000000E+00  2.16542988E-02 -3.20648942E-01
 -8.18311370E-02  9.04787628E-01  5.73181974E-03  1.64387190E-01  0.00000000E+00
 -1.53319153E+00 -3.54118835E-03 -1.54944116E+00  0.00000000E+00  9.11491791E-02
 -1.21500109E+00  7.76700300E-02  1.46796514E-02  0.00000000E+00  0.00000000E+00
 -3.59456178E-01  5.67021495E-01  9.16965971E-02  1.57493354E-01  0.00000000E+00
  1.76465544E+00 -2.24791700E-01  7.11129393E-01  0.00000000E+00 -1.08817913E+00
 -1.76191872E+00 -1.05667914E+00  4.02632681E-03  0.00000000E+00  0.00000000E+00
  1.74464952E-01 -5.45806774E-01 -1.66173379E-01 -7.18341175E-01  1.23990965E-02
 -1.08973910E-01  0.00000000E+00  2.43763724E+00 -2.04818454E-02  8.97103987E-01
  0.00000000E+00 -9.06632114E-01  1.23505611E-01 -9.38728351E-01  1.64944295E-02
  0.00000000E+00  0.00000000E+00  2.19765046E-01  2.77720832E-01 -3.30098876E-02
 -6.56574618E-03  0.00000000E+00 -3.07622570E+00  2.26780468E-01  1.17202438E+00
  0.00000000E+00  7.40221455E-01  3.17688566E-01  9.39587257E-01  9.99657358E-03
  0.00000000E+00  0.00000000E+00  1.80330934E-01  1.72471905E-01 -5.74668904E-01
 -1.57665328E+00  3.87473796E-03 -2.52649651E-01  0.00000000E+00  7.16321375E+00
 -2.79197630E-02  1.27392457E+00  0.00000000E+00 -2.44593498E+00 -1.79301932E+00
 -2.44785710E+00 -3.17426999E-02  0.00000000E+00  0.00000000E+00
Orthonormal basis                          R   N=        1024
  2.71234432E-02  1.40850876E-01 -1.86120698E-02 -3.01158862E-02  0.00000000E+00
  1.88445223E-01 -3.83702496E-02 -6.75516026E-02 -5.41752189E-21  1.30463548E-01
  1.47998437E-01  1.18673839E-01 -1.91599486E-03  3.35219071E-26  7.74932167E-23
  9.89751680E-02  1.45672190E-01  1.72389745E-02  8.80261300E-02 -3.74620061E-03
  3.44749799E-02 -2.04801001E-22  1.36415988E-01 -1.21883561E-02  9.68460599E-02
 -8.87974361E-22  8.43026783E-02  1.20632705E-01  8.30598277E-02 -5.72105229E-03
 -3.39831825E-25 -8.24088841E-22 -2.86197635E-02 -1.17301667E-01  4.36510744E-02
 -7.99658347E-02 -7.78570403E-18 -1.07680007E-01  7.67198329E-02 -1.83461913E-01
 -4.82173045E-19 -1.22759602E-01 -4.39227916E-02 -9.93683806E-02  1.98327498E-03
  7.96552744E-24  1.84427934E-20 -1.35119136E-01 -1.15598640E-01  4.83410230E-02
  1.98961936E-01  1.09945586E-02 -1.12838514E-02 -3.86704274E-20  2.28777308E-01
  2.78702649E-02 -5.45394530E-02 -1.07702734E-19  1.71587388E-01  1.55473998E-01
  1.73665804E-01  1.38445563E-02 -3.53989775E-23 -8.40075717E-20  3.79625976E-02
  1.29285495E-01  2.55466750E-01 -4.66194487E-02 -7.54285619E-17  9.79708366E-02
  3.71542442E-01 -2.92329224E-02 -1.41610537E-17  4.09332309E-02  1.13013701E-01
  1.05378031E-01 -4.65795948E-02  8.45495054E-22  1.96833504E-18 -2.27923398E-01
 -1.59929821E-01 -2.30033444E-02 -6.78834630E-02  1.24835618E-01  9.72634572E-02
 -3.60690239E-18 -6.13820573E-02  2.15587956E-01  1.52204860E-01 -5.96888804E-18
 -6.40238814E-02 -2.47272238E-03 -5.81128870E-02  1.05692584E-01 -1.51305495E-21
 -3.39973906E-18  1.75842391E-19  7.49498885E-17  2.77511436E-16  3.00664871E-18
  2.99738416E-01 -9.43771500E-17 -2.12020445E-17  1.37143577E-16  3.98242521E-01
 -8.49561141E-17  8.96622441E-18  2.07184132E-17 -7.02134453E-16 -7.29062550E-05
 -1.68949312E-01 -2.10599351E-17  9.98327537E-17  9.52736195E-18 -5.59875500E-17
 -3.34361586E-16 -1.57499790E-16  2.87589363E-01  9.12291077E-18  1.87535742E-16
 -1.17003467E-18  3.95322107E-01 -1.49109828E-16  1.65431091E-16  1.61609062E-16
 -6.40044182E-16  7.54652778E-05  1.74879463E-01 -2.46043428E-02 -6.68138650E-02
 -8.80306934E-02 -3.25927338E-01  2.10742309E-17 -7.38667382E-02 -1.14320239E-01
 -3.05239894E-01  2.87162311E-17 -7.29656224E-02  7.69755522E-03 -6.21329240E-02
  7.64741011E-02 -2.57744067E-20 -5.02129645E-17 -2.49120525E-02 -3.15460024E-02
 -4.30467165E-02 -1.06220966E-01 -1.20270189E-01  3.34815918E-01  8.24727396E-17
 -9.93412029E-02 -1.52351802E-01  3.71780198E-01  1.16347491E-16 -8.37315858E-02
 -1.79902201E-02 -8.23747056E-02 -6.26879941E-02  1.56118612E-20  4.16600511E-17
 -4.86986585E-02 -9.47913504E-02 -1.97973728E-01 -9.91858455E-02  1.37126670E-16
 -5.75781374E-02 -1.43605308E-01 -8.94857031E-02  1.81465291E-16  1.79443366E-02
 -7.02892054E-02 -8.68133631E-02 -3.11057693E-01  1.36310954E-19  8.06879124E-17
  2.14437481E-01  6.26538906E-02 -5.03715882E-03 -1.34554631E-02  4.68555054E-01
  6.81248245E-02 -1.53584281E-16 -1.32215073E-02  4.41244847E-01  6.07400571E-02
 -1.72558414E-16  2.42410385E-03 -2.14842531E-02 -7.49884488E-03  5.23697141E-02
  7.95600103E-21  5.72074866E-18 -3.50973284E-17 -2.84737094E-17 -2.06196334E-16
  2.89478394E-16 -4.55733598E-01 -1.81518320E-17 -7.19568479E-17 -4.81328914E-17
 -3.43677332E-01 -2.96416536E-18  4.67056684E-17 -5.70622557E-17  1.03758722E-16
 -6.35461953E-05 -1.47258778E-01  6.53009464E-17 -5.57675048E-17 -4.50712062E-17
 -5.73226620E-17  2.21491856E-16  1.29928827E-16  4.79782600E-01  1.36417249E-16
  2.61311453E-16  2.41950928E-17  3.65143321E-01  3.95787199E-17 -8.21171453E-17
  9.23810746E-19 -3.25530125E-17 -8.32584720E-05 -1.92939022E-01 -3.51210536E-02
 -3.85104187E-02  5.81673083E-02 -2.86838154E-02 -3.76684706E-17 -1.53194606E-02
  1.96313998E-02 -2.19757885E-02 -2.52174919E-16  2.97390740E-02 -3.45644110E-02
 -3.37221943E-02 -5.27843746E-01 -1.46902983E-17 -9.93452580E-18  8.75590548E-02
  3.33846283E-02 -1.06811304E-03 -3.01209290E-03 -2.95039166E-01  8.30739150E-03
  1.00324389E-16 -1.63616750E-03 -1.89888267E-01  7.61402956E-03  7.32925812E-17
  7.57732134E-03 -1.25783322E-02 -9.20793956E-05  6.29681642E-01 -2.81128294E-19
 -9.22996941E-17  8.70944271E-18 -1.45483547E-17  1.72411775E-16 -1.74165144E-16
  1.96704105E-01  1.32158838E-16  1.51155942E-17 -1.99472431E-17  1.49217939E-01
 -4.90757732E-17 -3.61749760E-16  2.54832821E-16  1.45898055E-16  2.68326364E-04
  6.21806108E-01  6.23461500E-17  3.23560721E-17  3.68593412E-16  3.77108780E-17
  1.71818206E-16 -3.25674896E-17  1.64806461E-01 -3.14394912E-17 -1.82677759E-16
  3.74126640E-17  1.07855908E-01  3.48324960E-17 -2.26555094E-16  9.86584707E-17
  1.44662202E-17 -2.55061307E-04 -5.91066326E-01 -2.10171669E-01 -1.33659957E-01
  7.82292023E-03  4.77660437E-01  3.15086777E-16 -9.03230656E-03  2.17823851E-04
  2.01577571E-01  1.10257586E-16 -9.75903498E-02  1.53491191E-01 -8.57400524E-02
 -5.81209412E-03  2.63170770E-17 -8.85826592E-18 -2.17808461E-02  3.83857294E-02
  3.81324367E-01  2.04806747E-01  6.15707202E-03  4.96045195E-01 -9.47393949E-17
  3.53402144E-02  2.89342337E-03  1.98430906E-01 -7.75388365E-18  5.86133957E-02
 -2.01545569E-01  5.82923220E-02  4.32113446E-03  2.29303343E-18  1.10728136E-16
 -3.42957801E-17 -1.08210346E-16 -3.62726001E-16  2.28389031E-16  8.18642942E-16
  3.64341186E-16 -1.20582513E-16  5.74387189E-17  1.43313065E-16 -5.97432155E-17
  5.10956050E-16 -9.84941401E-16  1.03907885E-15  6.89058225E-01 -2.97347495E-04
  5.19428715E-16 -6.33370839E-16 -1.04141436E-16 -4.38413950E-16 -3.22444576E-16
 -9.23686156E-16  2.57711397E-16  4.07628317E-18  6.09799534E-16  8.91441278E-16
  5.12752644E-16 -1.41496906E-15 -1.28352377E-16  2.05523480E-15  9.73980872E-16
  6.89058225E-01 -2.97347495E-04  6.43312598E-01  1.42777432E-01 -8.94423014E-02
 -1.15230572E-01 -8.19437117E-17 -2.78280849E-03 -3.72082578E-02 -5.72584562E-02
 -1.02219565E-16 -5.06039672E-02 -1.11846542E-01 -1.54689275E-02 -4.04150423E-02
  7.78760365E-17 -1.08494975E-16 -2.27191973E-02 -5.72260423E-02  6.54194647E-01
  1.26629223E-01  8.02424752E-04 -8.23791562E-02  1.34092923E-17 -1.84400092E-02
 -1.16992644E-03  3.40136294E-03  7.92638076E-18 -1.28977603E-01 -6.90767509E-02
 -1.21252194E-01  1.73479947E-02  1.17843650E-17  2.16949938E-16  6.35590982E-01
  5.49058289E-02 -1.54857246E-01  2.83764579E-01  2.77454109E-16 -1.05911098E-02
 -6.64700322E-02  7.87443604E-02 -1.10993962E-16 -2.27236121E-01  8.85667306E-02
 -1.09173338E-01 -7.64977690E-02 -8.56332243E-17  8.52350153E-17 -9.87696184E-02
 -2.77514527E-02 -5.26149304E-01 -3.66986003E-02  1.44348719E-02  2.46510662E-01
 -2.66055426E-17  3.48033504E-02  1.43922316E-03  4.17816027E-02 -5.29860993E-18
  1.42188438E-01 -1.19079755E-02  1.60531308E-01  3.19664688E-02 -1.79794192E-17
 -2.55980234E-16 -4.65672413E-17 -1.61400296E-16 -6.16423335E-16  3.75734739E-16
  1.38830082E-17  5.02331030E-16 -1.33983274E-16 -3.52323117E-17  3.85711693E-16
  1.54538326E-16  6.00622847E-16 -1.49220458E-15  1.93717134E-15  7.26652031E-01
 -3.13570251E-04  8.61047861E-16 -9.59515987E-16  2.54893154E-17 -5.83618649E-16
 -4.57708329E-16 -1.39768692E-15  3.38101100E-16 -1.56794002E-17  1.00504753E-15
  1.37221763E-15  2.86463176E-16 -2.46710085E-15 -3.64044360E-16  3.47590045E-15
  1.74023372E-15 -7.26652031E-01  3.13570251E-04  2.09369348E-01 -1.41063831E-01
  5.26956372E-01  1.01826151E-02 -1.17769994E-16 -9.12361131E-03  1.13493863E-01
 -1.23314502E-01  6.79750901E-17  3.95891730E-01 -4.20094954E-01 -2.20753210E-01
  1.29757259E-01  9.59088762E-18  2.18153174E-16  3.22853320E-01  1.65196056E-01
 -7.07103280E-02  2.61548031E-03 -1.04219260E-02  8.74275520E-02  4.13313680E-17
  2.28776179E-02  4.27381935E-03  8.59665122E-02  4.38580851E-17  2.53378152E-01
 -3.48818248E-01  1.18869610E-01 -6.75224349E-02  5.87704437E-17  5.03024365E-16
 -1.02632024E-01  8.55145623E-02 -3.13539374E-01  7.81707490E-02 -7.56179344E-16
  6.71926905E-02  7.29064778E-03 -1.80378632E-01  1.96349759E-16 -1.02265600E-01
 -4.41845188E-01  6.65430028E-01  4.10283822E-02 -6.79120353E-16  1.14716664E-15
 -1.86816871E-01 -5.98838308E-02 -9.49067087E-03 -2.01155212E-02  2.17641113E-02
 -8.36160219E-02  5.76846004E-16  1.90573293E-02 -6.54751001E-03  1.24102337E-01
 -3.25809461E-18  1.01428389E-01 -4.97428388E-01  3.85213360E-01  1.03562399E-01
  2.57643368E-16  1.86103402E-15 -1.18712709E-17 -3.48650321E-16  1.30957623E-14
 -5.66326210E-16 -3.05543459E-01  1.53317283E-16 -3.08448914E-15  3.80778337E-16
  5.63114840E-02 -7.45055387E-15 -7.78286043E-17  6.78556730E-15 -3.06605904E-14
  3.14599028E-04  7.29036067E-01 -2.10886886E-15  2.39038037E-15  2.74780213E-16
 -4.93293666E-16 -1.41706528E-14 -2.20323917E-16  3.71772388E-01 -1.74939052E-16
  4.33565409E-15 -3.34671841E-17 -1.20650930E-01 -3.62998607E-15  1.72301104E-16
  3.78463398E-15 -3.12288795E-14  3.28447982E-04  7.61128941E-01  5.92495524E-03
  1.23267409E-03 -2.82803067E-01  7.84409955E-03 -1.28413166E-14 -4.22046212E-03
  6.34238104E-02  5.86954860E-03  4.00407283E-15  1.62671026E-01  2.24779897E-02
 -1.79679295E-01  7.20108493E-01 -2.11265368E-15  3.06070307E-14  5.60907877E-02
 -4.81755740E-02 -5.25585441E-03  7.78176721E-03  3.49141820E-01  1.55050478E-02
  1.56282741E-14  8.01214362E-04 -1.13795885E-01 -8.70702978E-03 -3.84114744E-15
  7.25200785E-02  3.06267818E-02 -9.85599779E-02  7.36271865E-01  6.54012182E-16
  3.27602076E-14 -6.99243472E-02  1.56133608E-01 -4.33721659E-01  1.03820891E-01
  2.81060050E-15  1.23522509E-02  1.75146539E-01 -8.08596098E-02 -2.02207875E-15
  2.94818639E-01 -4.86285251E-02 -9.95366639E-02 -1.27114355E-01  3.64409448E-15
  2.47261207E-16 -6.85624671E-02 -2.75250961E-01 -1.05063259E-02  1.09120265E-02
 -2.67838801E-01 -3.54537957E-02  2.94551078E-15  3.54562230E-03  1.25273527E-01
  3.50934493E-02 -2.02022802E-15  7.20719631E-01 -1.01198898E-01 -6.17735392E-01
 -1.60307985E-01 -9.35859289E-16  8.68080899E-16 -4.31695597E-02  1.43616436E-01
 -4.30832472E-01  1.17949948E-01 -5.31692478E-15 -7.29143659E-03  2.50141726E-01
 -7.25067667E-02  4.23448562E-15  5.30311661E-01 -8.61436298E-03 -3.82931093E-01
 -2.11341314E-02 -4.90987416E-15  1.56295875E-15  1.10326016E-01 -3.73435157E-01
 -2.50645506E-02  3.93408745E-02 -3.22706432E-01  2.18828136E-02 -4.45989592E-15
  4.68576693E-03  1.76319009E-01 -7.06555719E-04  3.41454677E-15 -5.14721183E-01
 -4.06756365E-03  5.22009909E-01 -1.10211471E-01  1.19317592E-15 -5.49021882E-17
  9.29656652E-17  1.57156588E-15 -2.27430171E-15  5.54170827E-17  7.71487841E-01
 -1.22910006E-15  2.58664809E-15 -6.70890474E-16 -6.10264825E-01  6.35510233E-15
 -4.06544772E-15  8.68221359E-16 -8.86467134E-17 -5.89276338E-05 -1.36555954E-01
  8.42250875E-16 -1.96139562E-15 -1.31855270E-15  3.25759646E-15  1.75081778E-15
  7.27151150E-15  7.03963409E-01 -1.97626215E-17 -2.80738894E-15 -6.22864206E-15
 -5.63848886E-01 -9.24653240E-15  3.20768649E-15  4.17398734E-15 -3.68700516E-16
  2.26211075E-05  5.24210241E-02  6.16826372E-02 -6.83283661E-02 -2.37873742E-02
 -4.41089197E-02 -6.97563350E-15 -4.15471226E-03  6.86811423E-02  6.38849856E-02
  5.72177564E-15  1.35410356E-01 -5.16890798E-01  5.06905805E-01  9.03788661E-02
  3.59596872E-15  8.68616807E-16  1.76832248E-01 -6.95255716E-02 -1.20511973E-01
  2.69151457E-01 -1.65842640E-01  7.64143500E-01 -5.71755430E-15  5.85078380E-02
  1.64627632E-01 -5.66625356E-01  4.21189246E-15 -2.47589571E-01  4.41883224E-01
 -3.19779752E-01  2.83788749E-02 -6.76377981E-16 -8.34457786E-16  1.04416233E-01
 -4.39008399E-01 -1.99835664E-01 -5.09475551E-01  3.34650558E-15  1.42863110E-01
  2.42309060E-01  4.68222796E-01 -2.40343012E-15 -2.63103538E-01  1.84930813E-01
  2.12714691E-02  2.79811109E-01 -2.20461375E-15 -6.84335223E-16  8.43498870E-02
  3.69449806E-01  9.68058763E-02 -2.00252200E-01 -6.23133270E-01  1.22651236E-02
  3.72607752E-15  3.42672420E-02  6.91776680E-01 -1.39316741E-02 -3.06946423E-15
  2.01689260E-01 -1.46751435E-01  1.98203721E-01  1.24061462E-01  4.22511049E-16
  2.70144374E-16  2.08944638E-02 -1.29578184E-01  8.17386832E-03 -5.79153017E-02
  5.00633761E-16 -3.33895291E-03  7.53794265E-03  1.17880871E-01 -4.82507359E-16
 -8.59076904E-02  1.04373039E-03  4.07181916E-02  7.02440726E-02 -6.91749371E-16
  1.94680851E-16  6.96068489E-02  2.77725069E-02 -4.24708293E-01  1.14682427E+00
 -1.26465599E-01 -3.68185955E-01  8.43825241E-16 -8.58534409E-02  1.49851419E-01
  4.51516526E-01 -9.06690970E-16 -3.51626342E-01 -2.57465333E-01 -3.64715364E-01
  3.65812184E-02  1.52597643E-16  4.59110478E-17  6.56663284E-02 -2.31085689E-01
  1.63212483E-01  7.95284577E-01  2.94017159E-15 -8.81186477E-02 -1.55745972E-01
 -6.99895311E-01 -2.22497011E-15 -1.87552522E-01 -2.94058112E-02  1.88774254E-01
  2.48728227E-01 -2.66655637E-15 -6.03105192E-16  2.48188692E-01  2.96168329E-02
  7.52963342E-02 -3.02328891E-01 -4.00882819E-01 -3.39594969E-01  2.68724925E-15
 -4.55287883E-02  5.23360032E-01  2.90144801E-01 -2.24169450E-15 -1.59176527E-01
  4.12263391E-01 -1.95931512E-01  1.58387418E-01  4.97850814E-16  1.46056683E-16
  4.69832041E-17  2.83899915E-16  2.88594933E-16 -5.26136370E-16  5.70131601E-01
 -6.72413647E-16 -8.52864542E-16  5.70864418E-16 -9.54390160E-01  4.04026799E-16
 -2.06854591E-16  5.58557780E-16  5.02225822E-16  1.71791515E-04  3.98101071E-01
 -1.82989118E-17 -1.93676153E-16 -1.76529517E-16  3.63635617E-16 -8.16293813E-16
  4.12763297E-16 -6.16417533E-01  1.40630253E-16  1.17712242E-15 -4.18922078E-16
  9.81884320E-01 -4.32002937E-16  3.31717371E-16  1.31007789E-16  3.01407409E-16
  1.61778481E-04  3.74897367E-01 -2.57292045E-01  1.11372221E+00  4.01435157E-01
 -1.63119932E-01  1.04526297E-15 -2.39906154E-01 -6.28168364E-01 -2.81293008E-02
 -3.33522869E-16 -3.68191575E-01  4.12573530E-02 -2.25774115E-01  2.27507640E-01
 -1.49153332E-15 -4.83349519E-16  1.76459671E-01 -2.82069508E-01 -2.97985568E-02
  1.23785799E-01 -3.11076549E-01  1.75775507E-01  1.68167787E-15 -1.51156862E-02
  5.06114229E-01 -2.51691017E-01 -1.72471184E-15  1.25856655E-01 -3.14125687E-01
  9.80936097E-02  2.11029552E-01  2.64951948E-16 -1.76067447E-16 -1.97590609E-01
  5.12997386E-01 -2.25717493E-01  1.81790572E-01 -1.27808684E-15  9.62840425E-02
  1.72656974E-01 -2.51615982E-01  6.68713548E-16  4.84368145E-03 -6.37010701E-01
 -6.38390806E-01 -3.34864672E-02  1.57840345E-15  5.72087949E-16 -1.01292667E+00
  1.36940821E+00 -4.25601293E-02  3.48110615E-02 -9.00995838E-02  6.42622354E-02
 -1.07474014E-15  3.99913337E-02  1.90138019E-01 -7.11330134E-02  9.84615149E-16
 -2.71295434E-01  1.06888373E-01 -1.80808185E-01  2.91614518E-02 -2.67600475E-16
  9.03887280E-17 -1.96488814E-01  6.31439509E-01 -3.26212252E-01  7.17134190E-02
  6.96562172E-17  1.15961657E-01  1.41335826E+00 -1.95184189E-01 -9.02980943E-16
 -1.23844376E+00 -2.83054019E-01 -2.52021961E-01 -2.48075921E-02  5.81521287E-16
  3.85768576E-16  1.29909035E+00  2.24906497E-01 -5.01015751E-03 -3.46910656E-02
  1.54083458E-01 -1.89658694E-02 -9.79287382E-16  9.81397983E-03 -4.43088577E-01
  3.29515160E-02  9.55001122E-16 -3.98129713E-02  4.51010621E-02 -6.39350083E-02
 -2.31250173E-01 -1.03913390E-16  1.62337020E-16 -1.36452954E-01  4.04950562E-01
  1.00202436E-01 -2.08436260E-02  2.07793989E-15  9.45260929E-02 -3.38854843E-01
  1.53377632E+00 -1.56448576E-15 -9.56787060E-02 -1.48262323E+00 -1.64936829E-01
  3.48675122E-03 -2.84806660E-15 -9.23096832E-16 -1.32029987E-02 -4.87939231E-01
  1.60470831E-01 -1.82775073E-01 -3.99890699E-03 -2.57176239E-01  2.63199213E-15
 -2.37799241E-01  2.67976163E-02  1.58412222E+00 -1.50188597E-15  4.06190915E-01
  1.48845741E+00  3.91036036E-01  3.24000592E-02  5.27321738E-16  1.97866850E-16
 -3.49539170E-01 -7.95847879E-01  2.33068807E-01  3.26596133E-02  3.73658329E-15
  4.48401106E+00 -1.02878738E+00 -1.97691920E-01 -6.02872080E-15 -1.07698708E+00
 -1.03569427E+00 -1.36970437E+00 -1.50114804E-02 -5.33670495E-15  2.57166593E-16
 -2.12240947E-01 -1.51759192E+00 -1.99156091E-01 -5.86213231E-01  2.20596194E-03
  1.70033206E-03  8.63782102E-16  1.93647182E+00  4.77024586E-02 -3.12125302E-01
 -2.37140536E-15 -8.79702863E-01 -8.27167689E-01 -9.21144198E-01  7.90923246E-02
  8.58891496E-16 -1.14791125E-16  2.13145260E-01  8.49541831E-01 -5.32266244E-02
 -3.90295440E-02 -1.60548085E-15 -4.25733833E+00  3.93994622E-01  2.05776969E+00
 -1.49091990E-15  7.46776508E-01 -3.67871633E-02  9.80618439E-01  1.69291196E-02
  8.52809973E-16  6.33281445E-16  3.59896291E-01  2.79407880E-01 -5.35855014E-01
 -2.46493500E+00  7.44395947E-03 -2.95817071E-01  1.81771196E-15  8.62183389E+00
 -4.97506896E-02  2.05502745E+00  2.01565783E-15 -2.44133997E+00 -1.55163714E+00
 -2.43702547E+00 -3.72311425E-02 -1.22120160E-16 -5.23393612E-16
Total SCF Density                          R   N=         528
  2.07892107E+00 -1.93123804E-01  5.64071775E-01 -3.77560288E-02  6.84537065E-02
  6.54400126E-01 -3.21769409E-02  6.50744772E-02  4.22993660E-02  3.76847338E-01
 -3.18569741E-16 -2.56680756E-16 -1.28444745E-16 -6.06374657E-18  9.28656152E-01
 -2.39693846E-01  5.86847744E-01  2.57990462E-01  1.54783449E-01  8.48461916E-16
  6.84006833E-01 -2.35941152E-02  4.64063985E-02  3.59101920E-01  3.56524740E-02
 -3.71710704E-16  1.52556524E-01  1.97590944E-01 -2.58466358E-02  5.72197584E-02
  4.80589505E-02  2.07619968E-01 -1.34411944E-17  1.11395892E-01  3.36050510E-02
  1.17126481E-01  4.08867200E-16 -5.42857023E-16  9.80216008E-17 -3.66599129E-16
  6.46621109E-01  2.36651322E-16 -1.79464868E-16 -2.19891713E-16  4.50256515E-01
 -1.83432596E-02  8.64680676E-03 -5.62388686E-02  4.78543158E-03  6.71555718E-17
 -5.68821383E-03 -3.04397908E-02  8.24442162E-04  6.53015991E-18  5.48551308E-03
 -1.60951901E-02  1.65429856E-03  4.89932595E-03 -2.92488433E-02  1.43452396E-16
 -3.58286314E-03  1.85579028E-03 -1.51596034E-02  1.21367329E-16 -8.56128743E-04
  2.75439862E-03 -1.10403576E-02 -9.18263584E-03  3.41959776E-03  2.02719544E-03
  1.53911581E-17 -7.31960454E-03  1.80065917E-03  8.33766885E-04  7.51015258E-18
 -3.69121666E-04 -1.33317450E-04  3.05135930E-04  3.70762260E-03 -8.22573906E-03
 -6.51734412E-03 -1.62312326E-02  1.89633367E-16 -1.31872970E-02 -4.15790155E-03
 -9.45386937E-03  1.49516922E-16  8.03402991E-05  1.20377429E-03  3.38553411E-06
  1.51766313E-03  2.49578570E-16 -3.31463594E-16  2.01506515E-16 -8.11803728E-17
 -3.85664970E-02 -3.40834879E-16  1.15675519E-16 -4.24347289E-17 -2.68508816E-02
 -3.24982905E-17 -1.76150263E-19  4.05446175E-18 -5.21907498E-18  1.60216875E-03
  7.83936875E-17  1.97882878E-17 -1.60034975E-16 -4.97571697E-17 -9.85314872E-03
  1.45703943E-16 -1.24965992E-16 -6.68052404E-17 -6.76621707E-03 -1.10856558E-17
 -1.38017804E-17 -3.07228364E-17 -2.40809691E-18  4.26479679E-04  6.71711808E-04
 -2.76897364E-02  7.24571021E-02 -3.35835710E-01  2.68068293E-02  3.24799918E-16
 -1.65685707E-02 -1.81433527E-01  5.55613229E-03  2.06970161E-17  3.24283387E-02
 -5.24029820E-03 -3.27950171E-03 -4.60554560E-04 -1.86869424E-16  9.23168750E-17
  1.97832516E-01  2.24125028E-02 -5.30828961E-02 -1.80447052E-01  1.02231716E-02
 -3.78883058E-16 -1.01016680E-01 -9.86734053E-02 -2.03741040E-03 -3.24569912E-16
  1.50319021E-02 -3.30761115E-03 -2.01782049E-04  9.93230123E-04 -1.73898938E-17
 -5.80324656E-18  8.88318312E-02  5.39528646E-02 -5.59400417E-03  1.52374110E-02
 -5.52507305E-04  7.17948339E-03 -2.47462031E-16  3.40458000E-02 -2.13858639E-03
 -7.07232729E-03  1.38293805E-15  1.61542738E-03 -3.56835619E-03  2.31867419E-04
 -5.25096355E-04 -6.55165294E-16  2.24598923E-16  3.45643057E-03 -5.95723554E-03
  2.08779183E+00  1.56560237E-02 -3.96955240E-02 -4.36529429E-03 -4.42280504E-02
  6.57874277E-16 -8.88204068E-02  1.74734612E-04 -5.02679341E-04  4.97274144E-16
 -3.89573202E-03  1.32259093E-02 -1.02138002E-03  2.12044425E-03  1.39775669E-16
 -5.18488147E-17 -8.22332359E-03  1.25596129E-02 -2.16484527E-01  5.73538553E-01
  6.34436801E-03 -1.35548220E-02 -6.89361544E-02 -1.33108016E-02  4.15579367E-16
 -3.98584663E-02 -3.83601606E-02 -4.19642439E-03  2.50187860E-16  5.60895699E-03
 -1.89527917E-03 -1.28211518E-03 -2.49892686E-02  5.70666012E-17  5.14983837E-17
  6.31812942E-02  2.68202673E-02 -5.01293098E-04  1.02402368E-02  9.28753638E-01
 -1.53414924E-02  4.27934123E-02 -8.97639858E-03 -4.21431488E-01 -1.04026447E-16
 -4.29513220E-02 -1.81747725E-02 -2.30498270E-01  2.87727951E-16 -5.54668507E-03
  3.30280498E-02 -3.80891973E-03  1.69608073E-02  1.37366918E-17  7.43261126E-17
 -2.97770019E-02 -3.16224650E-02  3.27399045E-02 -3.98472242E-02  5.22794524E-03
  5.08657530E-01  6.17878788E-16  1.63062439E-15 -5.85439946E-16  3.67603487E-16
 -1.04027479E-01 -6.33346482E-15  1.32477058E-15  1.55206110E-15 -7.62536407E-02
  1.05059591E-15  4.82684994E-16  1.10646453E-15  4.34717096E-17  3.62162706E-03
 -2.18185909E-02  2.09314021E-16  2.07671114E-15  9.04261905E-16 -4.25148455E-16
 -3.98506641E-17 -5.39047123E-16  9.38067679E-01  2.88101239E-02 -7.77788303E-02
  1.06392476E-02  8.53452645E-02 -2.79403467E-15 -9.62907109E-02  1.21005269E-02
  6.95988162E-02 -2.01622915E-15 -3.87010216E-03  2.89443380E-03  7.09623132E-04
 -2.37168110E-03  2.99662359E-16 -1.03011411E-16 -1.08739060E-02  2.03926504E-02
 -2.38374724E-01  5.82368555E-01 -1.26965125E-02 -2.00097038E-01  2.41205462E-15
  6.43699894E-01  4.92206224E-03 -1.09266293E-02 -6.15225124E-02 -7.02761482E-03
 -1.40710366E-16 -3.23123827E-02 -3.40502557E-02 -2.37321103E-03 -1.31878560E-16
  5.13535946E-03 -1.69606020E-03 -9.24001492E-04 -1.71992527E-02  5.17617738E-17
  4.06889966E-17  5.10080510E-02  2.25210703E-02  8.05146846E-04  4.61951614E-03
  6.41227839E-01  5.62340602E-04  1.41456656E-16 -1.04699166E-02  4.43047930E-01
 -2.94496780E-03  1.13753654E-02 -1.04684518E-02 -2.58359804E-01 -4.90556203E-16
 -4.24598042E-02 -1.40193810E-02 -1.41922133E-01 -1.24071395E-16 -3.33249309E-03
  2.00562523E-02 -2.11283021E-03  1.06165078E-02  3.31946815E-17 -1.83624997E-18
 -1.83501430E-02 -1.69789463E-02  1.67096103E-02 -2.16717366E-02  2.05500828E-03
  3.08307448E-01  1.76651292E-15 -1.18198567E-01 -3.30180807E-04  1.87276941E-01
 -1.81499569E-16  1.15330066E-15 -5.41189853E-16 -6.94919792E-17 -9.25649081E-02
 -4.40308864E-15  8.24954122E-16  8.76591581E-16 -6.70641678E-02  7.30305477E-16
  3.51675308E-16  7.56925417E-16  3.84417545E-17  3.36654852E-03 -1.46899496E-02
  1.90075161E-16  1.43975770E-15 -1.17414411E-15 -4.89307148E-16  1.30980164E-18
  3.51903929E-17  6.43761699E-01  1.41356176E-15  1.27343499E-16  1.46432720E-15
  4.42279102E-01  1.94819275E-03 -3.61966524E-03 -4.36467622E-03 -7.37958964E-03
  6.72085043E-16 -6.66020502E-03 -2.61575978E-03 -4.05919193E-03  4.64312080E-16
  1.42104281E-04  5.81358401E-04 -3.35939529E-05  3.87808620E-04 -2.02257897E-17
  7.22794812E-19  9.29494653E-04  1.02281904E-03 -1.73531198E-02  5.55170878E-03
 -2.12939607E-04  6.91459412E-03 -4.21541763E-16  3.53496477E-03 -1.28562350E-04
  4.35402825E-03 -2.84670943E-16  3.27799530E-04 -6.64104561E-03  1.84021761E-02
 -2.44186457E-03 -3.89999901E-02  7.71835361E-16  8.00463824E-03 -2.18262486E-03
 -1.97446347E-02  5.45305097E-16 -1.28467979E-04  3.62442459E-03 -6.83732734E-04
  1.31144056E-03 -2.93573563E-17 -1.01768244E-17  9.48062541E-04 -2.92013914E-03
 -2.38727839E-02  2.02659472E-02  5.62129865E-03  4.62642151E-02  1.52571973E-16
  4.75261036E-03  3.51149699E-03  2.77589776E-02  1.34058016E-16  9.27948080E-04
  5.87061380E-03  1.89983101E-03 -3.69906417E-03 -1.63770701E-03 -6.37205866E-03
  1.08622195E-15 -5.69783454E-03 -1.11043900E-03 -3.44794587E-03  7.51845439E-16
 -7.91894367E-05  4.91571898E-04 -9.17954262E-06  1.61667881E-04 -3.64823439E-17
 -1.01180956E-17 -2.63224340E-04  3.75547434E-04 -1.67095624E-02  4.06864798E-03
  5.41464029E-03  6.02196584E-03 -2.26867926E-16  2.28043569E-03  3.70278965E-03
  3.78335573E-03 -1.61948044E-16  2.77698944E-04  7.94091065E-04  2.83158248E-04
 -1.18577727E-03  2.36848668E-03  1.36172503E-02  2.95732227E-03  2.08274778E-16
  6.70416009E-03  7.53696865E-03  2.24001817E-03  1.44844241E-16 -1.10395152E-03
 -1.18898378E-04  5.16372423E-05 -8.05003347E-04 -3.97492707E-18 -1.11621852E-17
 -5.95109875E-03 -3.52063642E-03  5.33292078E-04 -1.23565476E-03  1.88373223E-02
 -2.34817093E-03  2.25140929E-16 -7.31718777E-04  1.27053477E-02 -1.60038527E-03
  1.45188088E-16 -1.60657973E-04 -1.68331407E-04  3.36880016E-05  7.46008962E-04
 -7.46277025E-18 -2.87715365E-17  1.18113144E-16  6.27970565E-17 -6.19200602E-04
  4.42475754E-17  6.05902165E-17  3.30224604E-17 -4.16558713E-04 -1.39476499E-17
 -4.83727404E-18 -2.43842385E-18  1.28178375E-18  2.83832670E-05  9.41243372E-05
 -6.66083142E-17 -3.35808090E-17 -5.01196476E-17  4.03576152E-17 -1.82571171E-16
 -7.81266500E-17 -3.46918681E-03  6.56644000E-17 -1.28101955E-16 -5.45939135E-17
 -2.35759797E-03 -5.82615389E-20 -8.97204400E-18 -1.81416514E-18 -2.23184675E-18
  1.39287691E-05 -2.99049272E-17  2.91307945E-16 -1.46598093E-16  5.43292910E-17
  1.86833929E-02  1.23833738E-16 -4.92143869E-17  6.20146484E-17  1.29329775E-02
  4.11152739E-17  9.72216511E-18  1.65456411E-17 -4.50498905E-18 -7.89850429E-04
 -6.55685303E-04  1.42269556E-16  5.58592880E-17  4.11109508E-16 -7.22062742E-18
  2.34961802E-16 -1.97674194E-17  1.63952033E-02 -4.84765987E-17  1.58693993E-16
  1.33453364E-17  1.07780876E-02  2.28222264E-18  2.51513034E-17  1.61480719E-17
  1.17883487E-17 -8.30750251E-05  7.44846469E-04
Grdnt Energy                               R     -1.755224824113467E+02
Grdnt NVar                                 I                0
Grdnt IGetFC                               I                4
Quartic Cent Dist                          R   N=          10
  1.24287090E-03  2.40790067E-03 -3.64836855E-03  6.20011349E-04 -1.20652716E-03
  6.42255702E-04 -5.95175305E-04 -4.46773868E-05 -6.20011349E-04 -3.00307597E-04
Sextic Cent Dist                           R   N=          14
  3.73295112E-07 -1.34532343E-06 -2.00941767E-06  2.98144675E-06  1.86646485E-07
  6.72987885E-07 -8.18563120E-07  1.35362612E-07 -6.83381873E-08 -3.45432843E-08
 -3.24803781E-08  1.52593089E-07  1.18966250E-07  3.40533959E-08
Mulliken Charges                           R   N=           3
 -2.69773090E-01  4.28692934E-01 -1.58919845E-01
APT Charges                                R   N=           3
 -8.07407452E-02  2.61953090E-01 -1.81212345E-01
Optimization MaxStp                        I                2
Optimization MaxJob                        I                1
Optimization Job offset                    I                0
Optimization Num results per geometry      I                8
Optimization Num geometry variables        I                9
Optimization Reference Energy              R     -1.750000000000000E+02
Optimization Number of geometries          I   N=           1
           1
Opt point       1 Results for each geome   R   N=           8
 -5.22482411E-01  0.00000000E+00  1.81983024E-06  8.31393888E-07  8.65316893E-06
  3.97428309E-06  0.00000000E+00  0.00000000E+00
Opt point       1 Geometries               R   N=           9
  1.01621139E-01  1.34072821E+00  0.00000000E+00 -1.72755936E+00  1.59291773E+00
  0.00000000E+00  1.01621139E-01 -1.36874927E+00  0.00000000E+00
Opt point       1 Gradient at each geome   R   N=           9
 -1.62006297E-07  5.08247641E-07  0.00000000E+00  1.53130649E-06 -1.14500542E-06
  0.00000000E+00 -1.36930019E-06  6.36757804E-07  0.00000000E+00
ONIOM Charges                              I   N=          16
           0           0           0           0           0           0
           0           0           0           0           0           0
           0           0           0           0
ONIOM Multiplicities                       I   N=          16
           1           0           0           0           0           0
           0           0           0           0           0           0
           0           0           0           0
Atom Layers                                I   N=           3
           1           1           1
Atom Modifiers                             I   N=           3
           0           0           0
Int Atom Modified Types                    I   N=           3
           0           0           0
Atom Modified Types                        C   N=           3
                                    
Link Atoms                                 I   N=           3
           0           0           0
Atom Modified MM Charges                   R   N=           3
  0.00000000E+00  0.00000000E+00  0.00000000E+00
Link Distances                             R   N=          12
  0.00000000E+00  0.00000000E+00  0.00000000E+00  0.00000000E+00  0.00000000E+00
  0.00000000E+00  0.00000000E+00  0.00000000E+00  0.00000000E+00  0.00000000E+00
  0.00000000E+00  0.00000000E+00
Cartesian Gradient                         R   N=           9
 -1.62006297E-07  5.08247641E-07  0.00000000E+00  1.53130649E-06 -1.14500542E-06
  0.00000000E+00 -1.36930019E-06  6.36757804E-07  0.00000000E+00
Cartesian Force Constants                  R   N=          45
  5.31362551E-01 -4.26757519E-02  3.51622019E-01  0.00000000E+00  0.00000000E+00
  7.11468363E-07 -4.89255013E-01  6.28698111E-02  0.00000000E+00  4.79462912E-01
  5.07215090E-03 -3.85806223E-02  0.00000000E+00 -5.16028884E-02  7.60411073E-02
  0.00000000E+00  0.00000000E+00 -3.03979800E-06  0.00000000E+00  0.00000000E+00
  4.99511619E-06 -4.21075384E-02 -2.01940592E-02  0.00000000E+00  9.79210068E-03
  4.65307375E-02  0.00000000E+00  3.23154377E-02  3.76036010E-02 -3.13041397E-01
  0.00000000E+00 -1.12669227E-02 -3.74604849E-02  0.00000000E+00 -2.63366784E-02
  3.50501881E-01  0.00000000E+00  0.00000000E+00  2.32833018E-06  0.00000000E+00
  0.00000000E+00 -1.95531819E-06  0.00000000E+00  0.00000000E+00 -3.73008382E-07
Cartesian 3rd/4th derivatives              R   N=         270
 -2.47509305E-02 -3.56384743E-02  3.34611201E-01 -3.85432417E-15 -3.78917759E-14
 -4.19451835E-02  8.21306832E-03  3.84192043E-02  4.51959257E-15 -1.58813476E-02
  2.06669913E-02 -1.24830176E-02 -1.15066801E-17 -3.84132517E-02  2.88926388E-02
  1.84367592E-15  1.33177186E-15  7.02356944E-04 -3.55462359E-15  1.58774366E-15
 -5.92875225E-04  1.65378621E-02 -2.78072998E-03 -6.65268396E-16  7.66827926E-03
  1.77462604E-02  1.71094767E-15 -2.42061412E-02  1.49714831E-02 -3.22128183E-01
  3.79032826E-14 -5.95259951E-06 -1.64096213E-02 -2.91951552E-15 -1.49655305E-02
  3.38537804E-01  2.01064825E-15  3.65600041E-14  4.12428266E-02 -9.64968977E-16
 -1.57623698E-15 -1.09481719E-04 -1.04567928E-15 -3.49837671E-14 -4.11333448E-02
  1.84076120E-02  1.44243100E-01 -8.07026016E-02 -1.19915514E-14 -1.11867671E-14
  4.41475479E-02 -5.40267321E-02 -1.80235057E-01  1.23792129E-14  8.38519675E-02
 -1.86044194E-01  9.80390170E-02 -7.03785066E-15  1.64739192E-01 -1.90682589E-02
  1.03836523E-14 -2.05814845E-15 -2.98150703E-02 -1.06308693E-14  2.26936432E-15
  2.88470534E-03  3.56191202E-02  3.59919575E-02 -3.87661576E-16 -2.98252354E-02
  2.13050017E-02  2.47217080E-16 -5.79388495E-03  4.18010943E-02 -1.73364152E-02
  1.82246178E-14  1.54958649E-02 -7.89707581E-02 -2.11215863E-16 -5.72969592E-02
  9.63071731E-02  1.60789908E-15  1.32449156E-14 -1.43324775E-02 -1.74834358E-15
  4.76848634E-15  2.69303650E-02  1.40444496E-16 -1.80134019E-14 -1.25978875E-02
  1.85007289E+00 -2.95324500E-01 -1.72597499E-01 -7.09401997E-15 -7.45708088E-15
 -2.74492545E-01 -1.83968421E+00  3.22356789E-01  5.79807807E-15  1.83839334E+00
  2.47866097E-01  1.62596589E-01  1.33521372E-15 -2.80503595E-01 -1.46563982E-01
  5.97097817E-15  5.19729123E-16  2.75000851E-01 -7.52055414E-15  1.26137059E-15
 -2.71425144E-01 -1.03886796E-02 -2.70322886E-02  1.29594190E-15  1.29086712E-03
  3.26374983E-02  1.54957597E-15  9.09781264E-03  4.74584035E-02  1.00009100E-02
  6.12186715E-15 -4.18531938E-02 -1.60326069E-02 -1.78109971E-15 -5.60520965E-03
  6.03169709E-03  1.12304180E-15  6.93735175E-15 -5.08305817E-04  1.72247608E-15
 -2.59658431E-15 -3.57570698E-03 -2.84551788E-15 -4.34076744E-15  4.08401285E-03
 -8.91313159E-02  1.39339012E-02  2.93896376E-01  8.49895403E-13 -8.50117859E-14
 -4.59111630E-02  4.86726720E-02 -1.82468037E-02 -1.00336800E-12 -5.13750192E-02
 -1.43510468E-02 -4.28414998E-03  4.81429156E-14  9.60681957E-03  1.20912133E-02
 -7.13434606E-13 -1.98534353E-14 -4.88413570E-03  8.32253466E-13 -2.38141332E-13
  4.14354339E-03  4.04586502E-02  4.31290252E-03  1.53472594E-13  2.70234715E-03
  4.74422722E-03 -1.18818860E-13 -4.31609956E-02  4.17145580E-04 -2.89612235E-01
  3.68688703E-14  8.63998417E-03 -7.80706334E-03  2.57994768E-13 -9.05712975E-03
  2.97419284E-01 -1.36460797E-13  1.04865221E-13  5.07953119E-02  1.71114531E-13
  1.89998417E-13  7.40592321E-04 -3.46537340E-14 -2.94863638E-13 -5.15359401E-02
 -1.19656529E+00  1.87547544E-01  1.96322526E-01  4.29534534E-13 -2.18544489E-12
  5.46328060E-02  1.11303897E+00 -2.61415665E-01  5.62541510E-14 -1.07190563E+00
 -1.11706820E-01 -1.58550951E-01 -1.92706184E-13  1.54444981E-01  1.91812824E-01
 -3.16746698E-13  2.42287028E-13 -9.60013462E-02  1.97641325E-13 -2.53330828E-13
  8.88586345E-02  8.35263260E-02  7.38681213E-02 -4.85788685E-13 -4.11333412E-02
 -4.27381611E-02  1.19105374E-13 -4.23929691E-02 -7.58407233E-02 -3.77715827E-02
  2.37815107E-12  1.06970683E-01 -3.32618731E-02  1.10437994E-14 -3.11299602E-02
  7.10334625E-02 -1.12787836E-13  1.94315786E-12  4.13685359E-02 -2.53895476E-13
  4.46037011E-13  7.14271175E-03  3.66683312E-13 -2.38919487E-12 -4.85112615E-02
  6.53292297E+00 -1.08932774E+00 -1.17354281E+00 -6.99641565E-13  2.97967737E-12
 -1.33909234E+00 -6.51436413E+00  1.11466086E+00  3.17415788E-13  6.50747547E+00
  1.06842662E+00  1.07503692E+00 -2.91699865E-13 -1.09856555E+00 -1.04806176E+00
  1.13581100E-13 -1.35839689E-13  1.35169806E+00 -9.47015446E-14 -9.08050677E-14
 -1.34921107E+00 -1.85588457E-02 -2.53331143E-02  3.82225777E-13  6.88865484E-03
  3.01389327E-02 -1.88795557E-14  1.16701854E-02  2.09011231E-02  9.85058896E-02
 -2.68797751E-12 -1.60953047E-02 -2.69751581E-02  2.26644756E-13 -4.80581838E-03
 -7.15307449E-02  5.86060465E-13 -2.84383768E-12 -1.26057228E-02 -2.22714244E-13
  3.82504932E-13 -2.48699326E-03 -3.63346221E-13  2.46133275E-12  1.50927023E-02
Dipole Moment                              R   N=           3
 -7.13270207E-01  3.22962402E-01  0.00000000E+00
Dipole Derivatives                         R   N=          27
 -2.96897002E-02  1.27450566E-01  0.00000000E+00 -2.02109156E-02  8.37131304E-02
  0.00000000E+00  0.00000000E+00  0.00000000E+00 -3.07035148E-01  1.44911745E-01
 -3.56120946E-02  0.00000000E+00 -1.40903541E-02  2.58811661E-01  0.00000000E+00
  0.00000000E+00  0.00000000E+00  3.89938452E-01 -1.15222045E-01 -9.18384712E-02
  0.00000000E+00  3.43012696E-02 -3.42524792E-01  0.00000000E+00  0.00000000E+00
  0.00000000E+00 -8.29033033E-02
Polarizability                             R   N=           6
  7.01443480E+00 -1.12135442E+00  1.14869160E+01  0.00000000E+00  0.00000000E+00
  3.82292439E+00
Quadrupole Moment                          R   N=           6
  7.97339191E-01  2.29349774E-02 -8.20274169E-01 -1.24537771E+00  0.00000000E+00
  0.00000000E+00
NDeriv for static properties               I                3
ND12 for static properties                 I               -2
Dipole Moment num derivs                   R   N=          18
  1.31155164E-02 -6.87498730E-02  0.00000000E+00  6.45606412E-03 -2.42625644E-01
  0.00000000E+00  1.42019855E-01 -7.01905916E-02  0.00000000E+00  7.76099100E-03
 -1.81417877E-02 -7.63170324E-15  7.91001372E-02 -2.37452534E-02 -4.13624708E-16
  2.75493101E-01 -2.10793164E-01  6.60032562E-15
Dipole Derivatives num derivs              R   N=         162
  2.31282272E-02 -4.01375558E-02 -2.23211199E-15 -2.95824528E-02  6.35681620E-02
  2.30823170E-14  2.52644423E-14 -7.09886982E-15 -4.12377259E-02 -4.44792266E-02
  5.47736431E-02  2.98560969E-15  6.43237315E-03 -1.18498233E-02 -7.19755492E-16
 -1.91715827E-14  1.35815145E-15 -7.89383312E-04  2.13509994E-02 -1.46360873E-02
 -7.53497708E-16  2.31500796E-02 -5.17183387E-02 -2.23625615E-14 -6.09285960E-15
  5.74071837E-15  4.20271093E-02 -7.14548923E-02 -4.05121982E-02  3.44169606E-15
  5.59192807E-02 -2.68202475E-02  1.11942032E-14  4.05255028E-14 -4.95881717E-14
  7.78782377E-02  8.64194878E-02  9.66186233E-03 -8.13461308E-15 -8.96865837E-02
  2.06489672E-02  9.60674442E-16 -1.62858400E-14  2.65878660E-14 -2.43312792E-02
 -1.49645955E-02  3.08503359E-02  4.69291702E-15  3.37673030E-02  6.17128026E-03
 -1.21548777E-14 -2.42396628E-14  2.30003056E-14 -5.35469585E-02 -2.18780556E-01
  2.42128947E-01 -1.40276123E-15  2.12139668E-01 -1.94011731E-01  9.58529458E-15
  6.51457982E-15 -3.55124394E-14 -1.58332974E-01  2.56425957E-01 -2.00343469E-01
  7.02855471E-15 -1.27159540E-01  1.79172961E-02  2.79100271E-15 -3.76771523E-15
  7.37692139E-15  1.36933168E-01 -3.76454016E-02 -4.17854787E-02 -5.62579348E-15
 -8.49801273E-02  1.76094435E-01 -1.23762973E-14 -2.74686459E-15  2.81355180E-14
  2.13998062E-02  2.72877227E-02 -4.99742509E-02  7.35069859E-13 -6.55369197E-02
  2.63560031E-02  5.49281426E-13  1.00811919E-12 -5.15885528E-12 -1.25916249E-02
 -4.09616811E-02  4.60785260E-02 -8.13138133E-13  1.73498796E-02 -1.12760306E-02
 -1.79940900E-13 -7.01403123E-13  2.83355111E-14 -4.24729612E-03  1.36739582E-02
  3.89572498E-03  7.80682741E-14  4.81870401E-02 -1.50799726E-02 -3.69340526E-13
 -3.06716069E-13  5.13051977E-12  1.68389209E-02 -6.79133936E-02 -1.90180161E-01
 -1.41404725E-12 -1.11273960E-01  7.22946059E-03  6.56929678E-13  1.96069571E-12
 -4.35181761E-12  1.25803088E-02  2.99636316E-02  7.93813198E-02  4.40661462E-13
  1.39763685E-01  1.16833173E-01  2.76897701E-13 -1.30182765E-12  3.10333493E-12
 -3.56086013E-02  3.79497620E-02  1.10798841E-01  9.73385790E-13 -2.84897246E-02
 -1.24062634E-01 -9.33827378E-13 -6.58868053E-13  1.24848268E-12  2.30282926E-02
 -1.69594338E-01  1.33440551E-01  7.79258315E-13 -3.41867392E-01  2.20759521E-01
 -1.25239153E-12  1.34493529E-12  2.39420963E-12 -6.92020532E-02  2.92312821E-03
 -1.02392898E-01 -7.90148267E-13  1.68052195E-02 -1.77701490E-01  5.69914706E-13
 -6.40262679E-13  5.64584699E-13  3.46110827E-03  1.66671210E-01 -3.10476522E-02
  1.08899515E-14  3.25062172E-01 -4.30580314E-02  6.82476823E-13 -7.04672614E-13
 -2.95879433E-12  6.57409451E-02
Polarizability num derivs                  R   N=          36
 -1.58149531E-01 -1.45570141E-01 -3.07034483E+00  4.61343577E-14  2.75001812E-14
 -2.65240056E-02 -6.46316370E-03  1.71556062E+00 -9.45254610E-01  6.78270091E-14
 -4.32669499E-15 -1.43261091E-02 -7.06701828E+00  2.04048666E+00 -8.74144943E-01
 -6.44881045E-14  1.01959418E-13  1.90258792E-01  1.80946292E-01 -1.80749759E-01
  4.04653091E-01  1.60585069E-13 -5.22384115E-12 -5.97113889E-03  2.11065274E+00
 -1.22865843E+00  2.33060442E+00  4.54095096E-12  1.46325948E-12 -7.71030586E-03
  7.79175011E+00 -2.82454005E+00  7.87794672E-01 -2.91904833E-12  3.56229836E-14
 -4.62435452E-02
Quadrupole Moment num derivs               R   N=          36
  8.97862029E-03 -1.13115728E-01  1.04137107E-01  2.53399922E-03 -7.85056728E-15
 -4.40082271E-14  5.53988612E-01 -8.69613703E-01  3.15625091E-01  7.17581130E-01
 -3.04895633E-15  2.27958449E-14 -7.60181004E-01  3.34547678E-01  4.25633326E-01
  2.28759973E-01  2.28431046E-14 -3.08499586E-14  1.63379343E-03 -4.28966521E-02
  4.12628587E-02  2.40693454E-02  3.00193643E-12 -4.71077816E-13 -3.72548665E-01
  6.27097265E-01 -2.54548600E-01  2.36583796E-01 -1.13584184E-12 -2.22090081E-12
  1.87997396E-01 -1.86780889E-01 -1.21650679E-03  4.20028051E-01  6.37486164E-12
 -6.09314166E-12
QEq coupling tensors                       R   N=          18
  2.10092923E-02  4.99913567E-01 -3.14251746E+00  0.00000000E+00  0.00000000E+00
  3.12150816E+00 -3.92275126E-01  8.17302609E-02  1.44068859E-01  0.00000000E+00
  0.00000000E+00  2.48206267E-01  2.44955385E+00  8.43021026E-02 -5.05017351E+00
  0.00000000E+00  0.00000000E+00  2.60061966E+00
NDeriv for magnetic props                  I                3
ND12 for magnetic props                    I               -2
QEq coupling tensors num derivs            R   N=         108
 -8.61473404E-02  1.33786221E-01  2.07241939E-01  2.04924414E-17 -4.81283947E-14
 -1.21094598E-01  1.22391210E-02  5.42673854E-02 -1.72721835E-02  2.90812591E-14
 -6.49713784E-15  5.03306249E-03 -9.91922082E-02  1.03944230E-01  1.17475685E-01
  2.11831752E-15 -7.42739881E-15 -1.82834771E-02 -1.89144231E-01  2.43646603E-01
  8.50617951E-02 -4.68378555E-13  3.35798780E-16  1.04082436E-01 -8.46956460E-02
 -2.10244717E-01  6.99379386E-02  5.62538452E-15  3.96807238E-17  1.47577074E-02
 -4.35760530E-02 -1.03247505E+00  2.02309979E-01  7.56458580E-13  1.64167333E-14
 -1.58733926E-01  1.17497586E+00  1.92901767E-01 -4.47810191E-01  4.28035253E-15
  6.59526191E-15 -7.27165669E-01 -1.54535021E+00  3.15556864E-01  6.53701252E-01
 -2.27501922E-15  2.39940392E-15  8.91648956E-01  7.86553447E-02  8.42025658E-02
 -1.69148108E-01 -8.04919149E-16 -3.46217776E-14  9.04927635E-02 -5.43079511E-02
  1.02296398E-01  7.52160096E-02 -2.12281147E-15 -8.14715509E-12 -2.09080591E-02
  4.09881181E-02 -4.08561812E-03 -2.42214570E-02 -2.21224738E-12  1.85024209E-13
 -1.67666611E-02 -8.24383851E-02 -1.84005691E-02  8.53907442E-02 -2.24508906E-13
 -7.56638537E-12 -2.95236100E-03 -7.89019185E-02 -3.57991156E-01 -1.12647150E-01
 -4.95711648E-11  1.09481092E-11  1.91549068E-01  9.27211401E-01 -1.85237119E-01
 -4.69374409E-01  4.42769518E-13  1.67080851E-13 -4.57836992E-01 -3.60875844E-01
  3.94581442E-01  3.36244928E-01  8.00605169E-11  1.03932931E-12  2.46309160E-02
 -7.52618487E-02  4.58998270E-02 -1.34765019E-02  3.36358790E-13  4.50602892E-12
  8.87383506E-02 -5.85370886E+00  1.23560897E+00  2.60628395E+00 -8.40314348E-13
  4.97210115E-13  3.24742490E+00 -4.30173916E-02  3.01772553E-03 -1.88862626E-01
  1.15835995E-13  2.87714774E-12  2.31880013E-01
Number of Normal Modes                     I                3
Vib-LE2Fix                                 I               14
Vib-NDFDPol                                I                0
Vib-NumROA                                 I                0
Vib-NDim                                   I                3
Vib-NDim0                                  I                3
Vib-LFlags                                 I                8
Vib-IFlags                                 I   N=          24
           0           0           1           0           0           0
           0           0           0           0           2           0
           0           0           0           0           0           0
           3           0           0           0           0           0
Vib-AtMass                                 R   N=           3
  1.59949146E+01  1.00782504E+00  1.89984032E+01
Vib-E2                                     R   N=          42
  1.00018989E+03  1.41076449E+03  3.68314969E+03  1.70126654E+01  1.09179530E+00
  1.06904720E+00  1.00273802E+01  1.28026673E+00  8.54448360E+00  4.77551090E+00
  5.74291044E+01  2.44659428E+01  0.00000000E+00  0.00000000E+00  0.00000000E+00
  0.00000000E+00  0.00000000E+00  0.00000000E+00  0.00000000E+00  0.00000000E+00
  0.00000000E+00  0.00000000E+00  0.00000000E+00  0.00000000E+00  0.00000000E+00
  0.00000000E+00  0.00000000E+00  0.00000000E+00  0.00000000E+00  0.00000000E+00
  0.00000000E+00  0.00000000E+00  0.00000000E+00  0.00000000E+00  0.00000000E+00
  0.00000000E+00  0.00000000E+00  0.00000000E+00  0.00000000E+00  0.00000000E+00
  0.00000000E+00  0.00000000E+00
Vib-Modes                                  R   N=          27
  8.75452587E-03  7.60047014E-01  0.00000000E+00 -1.16810271E-01 -1.66760538E-02
  0.00000000E+00 -1.17397119E-03 -6.39005310E-01  0.00000000E+00 -4.73011568E-02
 -2.71690148E-02  0.00000000E+00  7.23828945E-02  9.94784648E-01  0.00000000E+00
  3.59834804E-02 -2.98973969E-02  0.00000000E+00 -6.32720050E-02  8.89512713E-03
  0.00000000E+00  9.91049945E-01 -1.17198269E-01  0.00000000E+00  6.96130707E-04
 -1.27176210E-03  0.00000000E+00
Anharmonic Number of Normal Modes          I                9
Anharmonic Vib-LE2Fix                      I               14
Anharmonic Vib-NDFDPol                     I                0
Anharmonic Vib-NumROA                      I                0
Anharmonic Vib-NDim                        I                3
Anharmonic Vib-NDim0                       I                3
Anharmonic Vib-LFlags                      I                8
Anharmonic Vib-IFlags                      I   N=          72
           1           0           3           0           0           0
           0           0           1           0           2           0
           0           0           0           0           1           0
           1           0           0           0           0           0
           2           0           3           0           0           0
           0           0           3           0           3           2
           0           0           0           0           2           0
           2           0           0           0           0           0
           3           0           3           1           0           0
           0           0           3           0           2           1
           0           0           0           0           2           0
           1           0           0           0           0           0
Anharmonic Vib-AtMass                      R   N=           3
  1.59949146E+01  1.00782504E+00  1.89984032E+01
Anharmonic Vib-E2                          R   N=         126
  9.81498049E+02  1.37007574E+03  3.49980833E+03  1.95172129E+03  2.33780824E+03
  2.72073089E+03  4.48023787E+03  4.84111326E+03  6.83119495E+03  0.00000000E+00
  0.00000000E+00  0.00000000E+00  0.00000000E+00  0.00000000E+00  0.00000000E+00
  0.00000000E+00  0.00000000E+00  0.00000000E+00  0.00000000E+00  0.00000000E+00
  0.00000000E+00  0.00000000E+00  0.00000000E+00  0.00000000E+00  0.00000000E+00
  0.00000000E+00  0.00000000E+00  4.71765187E+00  5.78015958E+01  1.79072984E+01
  1.60612780E-01  8.90214937E-02  2.05416874E+00  3.09815897E-01  7.75551773E-01
  4.48422295E+00  0.00000000E+00  0.00000000E+00  0.00000000E+00  0.00000000E+00
  0.00000000E+00  0.00000000E+00  0.00000000E+00  0.00000000E+00  0.00000000E+00
  0.00000000E+00  0.00000000E+00  0.00000000E+00  0.00000000E+00  0.00000000E+00
  0.00000000E+00  0.00000000E+00  0.00000000E+00  0.00000000E+00  0.00000000E+00
  0.00000000E+00  0.00000000E+00  0.00000000E+00  0.00000000E+00  0.00000000E+00
  0.00000000E+00  0.00000000E+00  0.00000000E+00  1.91753744E+01  1.68307185E+02
  2.04123598E+01  3.28299108E-01  1.51912459E-01  3.01202056E+00  2.75873528E-01
  6.39106089E-01  2.61877340E+00  0.00000000E+00  0.00000000E+00  0.00000000E+00
  0.00000000E+00  0.00000000E+00  0.00000000E+00  0.00000000E+00  0.00000000E+00
  0.00000000E+00  0.00000000E+00  0.00000000E+00  0.00000000E+00  0.00000000E+00
  0.00000000E+00  0.00000000E+00  0.00000000E+00  0.00000000E+00  0.00000000E+00
  0.00000000E+00  0.00000000E+00  0.00000000E+00  0.00000000E+00  0.00000000E+00
  0.00000000E+00  0.00000000E+00  0.00000000E+00  0.00000000E+00  0.00000000E+00
  0.00000000E+00  0.00000000E+00  0.00000000E+00  0.00000000E+00  0.00000000E+00
  0.00000000E+00  0.00000000E+00  0.00000000E+00  0.00000000E+00  0.00000000E+00
  0.00000000E+00  0.00000000E+00  0.00000000E+00  0.00000000E+00  0.00000000E+00
  0.00000000E+00  0.00000000E+00  0.00000000E+00  0.00000000E+00  0.00000000E+00
  0.00000000E+00  0.00000000E+00  0.00000000E+00  0.00000000E+00  0.00000000E+00
  0.00000000E+00
Anharmonic Vib-Modes                       R   N=          81
  2.00593046E-02  1.83697473E-01  0.00000000E+00 -2.05447060E-02 -1.84416132E-02
  0.00000000E+00 -1.57982432E-02 -1.53678151E-01  0.00000000E+00 -4.76667932E-02
 -1.92974202E-02  0.00000000E+00  1.65968985E-01  9.39730488E-01  0.00000000E+00
  3.13267691E-02 -3.36040517E-02  0.00000000E+00  6.02244112E-02 -1.56504217E-02
  0.00000000E+00 -9.43792949E-01  1.99987563E-01  0.00000000E+00 -6.37219478E-04
  2.56730449E-03  0.00000000E+00  4.16637594E-02  3.81826298E-01  0.00000000E+00
 -6.42323828E-02  6.40314987E-03  0.00000000E+00 -3.16696758E-02 -3.21802428E-01
  0.00000000E+00 -3.26491744E-02  1.62202398E-01  0.00000000E+00  1.84275620E-01
  9.76852906E-01  0.00000000E+00  1.77121819E-02 -1.88379532E-01  0.00000000E+00
 -8.55887924E-02 -4.23861271E-02  0.00000000E+00  1.64874009E-01  1.93764466E+00
  0.00000000E+00  6.33117036E-02 -6.71027086E-02  0.00000000E+00  7.91154327E-02
  1.67563851E-01  0.00000000E+00 -9.68558265E-01  2.21442763E-01  0.00000000E+00
 -1.52279810E-02 -1.52820477E-01  0.00000000E+00  1.54648328E-02 -3.21366236E-02
  0.00000000E+00 -7.91233494E-01  1.09354727E+00  0.00000000E+00  2.89532882E-02
 -3.09542731E-02  0.00000000E+00  1.19958732E-01 -2.91780621E-02  0.00000000E+00
 -1.88539767E+00  4.14967745E-01  0.00000000E+00 -9.77908759E-04  2.55209501E-03
  0.00000000E+00
Anharmonic number of displacements         I                3
Anharmonic displacement N1                 I                0
Anharmonic displacement flags              I   N=           3
           1           2           3
Anharmonic displacements                   R   N=          27
 -2.12249390E-03 -1.84269847E-01  0.00000000E+00  2.83201045E-02  4.04303133E-03
  0.00000000E+00  2.84623831E-04  1.54923852E-01  0.00000000E+00  4.52690262E-02
  2.60017921E-02  0.00000000E+00 -6.92732138E-02 -9.52047167E-01  0.00000000E+00
 -3.44375747E-02  2.86129587E-02  0.00000000E+00 -6.11946081E-02  8.60307522E-03
  0.00000000E+00  9.58511003E-01 -1.13350322E-01  0.00000000E+00  6.73274789E-04
 -1.23000659E-03  0.00000000E+00
ClPar MaxAn                                I              200
ClPar NIntPar                              I               12
ClPar NRealPar                             I               16
ClPar NBits                                I               30
ClPar LenBitVec                            I                1
ClPar Read BitMap                          I   N=         200
           0           0           0           0           0           0
           0           0           0           0           0           0
           0           0           0           0           0           0
           0           0           0           0           0           0
           0           0           0           0           0           0
           0           0           0           0           0           0
           0           0           0           0           0           0
           0           0           0           0           0           0
           0           0           0           0           0           0
           0           0           0           0           0           0
           0           0           0           0           0           0
           0           0           0           0           0           0
           0           0           0           0           0           0
           0           0           0           0           0           0
           0           0           0           0           0           0
           0           0           0           0           0           0
           0           0           0           0           0           0
           0           0           0           0           0           0
           0           0           0           0           0           0
           0           0           0           0           0           0
           0           0           0           0           0           0
           0           0           0           0           0           0
           0           0           0           0           0           0
           0           0           0           0           0           0
           0           0           0           0           0           0
           0           0           0           0           0           0
           0           0           0           0           0           0
           0           0           0           0           0           0
           0           0           0           0           0           0
           0           0           0           0           0           0
           0           0           0           0           0           0
           0           0           0           0           0           0
           0           0           0           0           0           0
           0           0
ClPar Default BitMap                       I   N=         200
      516096      516096      516096      516096      516096      516096
      516096      516096      516096      516096      516096      516096
      516096      516096      516096      516096      516096      516096
      516096      516096      516096      516096      516096      516096
      516096      516096      516096      516096      516096      516096
      516096      516096      516096      516096      516096      516096
      516096      516096      516096      516096      516096      516096
      516096      516096      516096      516096      516096      516096
      516096      516096      516096      516096      516096      516096
      516096      516096      516096      516096      516096      516096
      516096      516096      516096      516096      516096      516096
      516096      516096      516096      516096      516096      516096
      516096      516096      516096      516096      516096      516096
      516096      516096      516096      516096      516096      516096
      516096      516096      122880      122880      122880      122880
      122880      122880      122880      122880      122880      122880
      122880      122880      122880      122880      122880      122880
      122880      122880      122880      122880      122880      122880
      122880      122880      122880      122880      122880      122880
      122880      122880      122880      122880      122880      122880
      122880      122880      122880      122880      122880      122880
      122880      122880      122880      122880      122880      122880
      122880      122880      122880      122880      122880      122880
      122880      122880      122880      122880      122880      122880
      122880      122880      122880      122880      122880      122880
      122880      122880      122880      122880      122880      122880
      122880      122880      122880      122880      122880      122880
      122880      122880      122880      122880      122880      122880
      122880      122880      122880      122880      122880      122880
      122880      122880      122880      122880      122880      122880
      122880      122880      122880      122880      122880      122880
      122880      122880      122880      122880      122880      122880
      122880      122880      122880      122880      122880      122880
      122880      122880
ClPar Int Params                           I   N=        2400
           0           0           0           0           0           0
           0           0           0           0           0           0
           0           0           0           0           0           0
           0           0           0           0           0           0
           0           0           0           0           0           0
           0           0           0           0           0           0
           0           0           0           0           0           0
           0           0           0           0           0           0
           0           0           0           0           0           0
           0           0           0           0           0           0
           0           0           0           0           0           0
           0           0           0           0           0           0
           0           0           0           0           0           0
           0           0           0           0           0           0
           0           0           0           0           0           0
           0           0           0           0           0           0
           0           0           0           0           0           0
           0           0           0           0           0           0
           0           0           0           0           0           0
           0           0           0           0           0           0
           0           0           0           0           0           0
           0           0           0           0           0           0
           0           0           0           0           0           0
           0           0           0           0           0           0
           0           0           0           0           0           0
           0           0           0           0           0           0
           0           0           0           0           0           0
           0           0           0           0           0           0
           0           0           0           0           0           0
           0           0           0           0           0           0
           0           0           0           0           0           0
           0           0           0           0           0           0
           0           0           0           0           0           0
           0           0           0           0           0           0
           0           0           0           0           0           0
           0           0           0           0           0           0
           0           0           0           0           0           0
           0           0           0           0           0           0
           0           0           0           0           0           0
           0           0           0           0           0           0
           0           0           0           0           0           0
           0           0           0           0           0           0
           0           0           0           0           0           0
           0           0           0           0           0           0
           0           0           0           0           0           0
           0           0           0           0           0           0
           0           0           0           0           0           0
           0           0           0           0           0           0
           0           0           0           0           0           0
           0           0           0           0           0           0
           0           0           0           0           0           0
           0           0           0           0           0           0
           0           0           0           0           0           0
           0           0           0           0           0           0
           0           0           0           0           0           0
           0           0           0           0           0           0
           0           0           0           0           0           0
           0           0           0           0           0           0
           0           0           0           0           0           0
           0           0           0           0           0           0
           0           0           0           0           0           0
           0           0           0           0           0           0
           0           0           0           0           0           0
           0           0           0           0           0           0
           0           0           0           0           0           0
           0           0           0           0           0           0
           0           0           0           0           0           0
           0           0           0           0           0           0
           0           0           0           0           0           0
           0           0           0           0           0           0
           0           0           0           0           0           0
           0           0           0           0           0           0
           0           0           0           0           0           0
           0           0           0           0           0           0
           0           0           0           0           0           0
           0           0           0           0           0           0
           0           0           0           0           0           0
           0           0           0           0           0           0
           0           0           0           0           0           0
           0           0           0           0           0           0
           0           0           0           0           0           0
           0           0           0           0           0           0
           0           0           0           0           0           0
           0           0           0           0           0           0
           0           0           0           0           0           0
           0           0           0           0           0           0
           0           0           0           0           0           0
           0           0           0           0           0           0
           0           0           0           0           0           0
           0           0           0           0           0           0
           0           0           0           0           0           0
           0           0           0           0           0           0
           0           0           0           0           0           0
           0           0           0           0           0           0
           0           0           0           0           0           0
           0           0           0           0           0           0
           0           0           0           0           0           0
           0           0           0           0           0           0
           0           0           0           0           0           0
           0           0           0           0           0           0
           0           0           0           0           0           0
           0           0           0           0           0           0
           0           0           0           0           0           0
           0           0           0           0           0           0
           0           0           0           0           0           0
           0           0           0           0           0           0
           0           0           0           0           0           0
           0           0           0           0           0           0
           0           0           0           0           0           0
           0           0           0           0           0           0
           0           0           0           0           0           0
           0           0           0           0           0           0
           0           0           0           0           0           0
           0           0           0           0           0           0
           0           0           0           0           0           0
           0           0           0           0           0           0
           0           0           0           0           0           0
           0           0           0           0           0           0
           0           0           0           0           0           0
           0           0           0           0           0           0
           0           0           0           0           0           0
           0           0           0           0           0           0
           0           0           0           0           0           0
           0           0           0           0           0           0
           0           0           0           0           0           0
           0           0           0           0           0           0
           0           0           0           0           0           0
           0           0           0           0           0           0
           0           0           0           0           0           0
           0           0           0           0           0           0
           0           0           0           0           0           0
           0           0           0           0           0           0
           0           0           0           0           0           0
           0           0           0           0           0           0
           0           0           0           0           0           0
           0           0           0           0           0           0
           0           0           0           0           0           0
           0           0           0           0           0           0
           0           0           0           0           0           0
           0           0           0           0           0           0
           0           0           0           0           0           0
           0           0           0           0           0           0
           0           0           0           0           0           0
           0           0           0           0           0           0
           0           0           0           0           0           0
           0           0           0           0           0           0
           0           0           0           0           0           0
           0           0           0           0           0           0
           0           0           0           0           0           0
           0           0           0           0           0           0
           0           0           0           0           0           0
           0           0           0           0           0           0
           0           0           0           0           0           0
           0           0           0           0           0           0
           0           0           0           0           0           0
           0           0           0           0           0           0
           0           0           0           0           0           0
           0           0           0           0           0           0
           0           0           0           0           0           0
           0           0           0           0           0           0
           0           0           0           0           0           0
           0           0           0           0           0           0
           0           0           0           0           0           0
           0           0           0           0           0           0
           0           0           0           0           0           0
           0           0           0           0           0           0
           0           0           0           0           0           0
           0           0           0           0           0           0
           0           0           0           0           0           0
           0           0           0           0           0           0
           0           0           0           0           0           0
           0           0           0           0           0           0
           0           0           0           0           0           0
           0           0           0           0           0           0
           0           0           0           0           0           0
           0           0           0           0           0           0
           0           0           0           0           0           0
           0           0           0           0           0           0
           0           0           0           0           0           0
           0           0           0           0           0           0
           0           0           0           0           0           0
           0           0           0           0           0           0
           0           0           0           0           0           0
           0           0           0           0           0           0
           0           0           0           0           0           0
           0           0           0           0           0           0
           0           0           0           0           0           0
           0           0           0           0           0           0
           0           0           0           0           0           0
           0           0           0           0           0           0
           0           0           0           0           0           0
           0           0           0           0           0           0
           0           0           0           0           0           0
           0           0           0           0           0           0
           0           0           0           0           0           0
           0           0           0           0           0           0
           0           0           0           0           0           0
           0           0           0           0           0           0
           0           0           0           0           0           0
           0           0           0           0           0           0
           0           0           0           0           0           0
           0           0           0           0           0           0
           0           0           0           0           0           0
           0           0           0           0           0           0
           0           0           0           0           0           0
           0           0           0           0           0           0
           0           0           0           0           0           0
           0           0           0           0           0           0
           0           0           0           0           0           0
           0           0           0           0           0           0
           0           0           0           0           0           0
           0           0           0           0           0           0
           0           0           0           0           0           0
           0           0           0           0           0           0
           0           0           0           0           0           0
           0           0           0           0           0           0
           0           0           0           0           0           0
           0           0           0           0           0           0
           0           0           0           0           0           0
           0           0           0           0           0           0
           0           0           0           0           0           0
           0           0           0           0           0           0
           0           0           0           0           0           0
           0           0           0           0           0           0
           0           0           0           0           0           0
           0           0           0           0           0           0
           0           0           0           0           0           0
           0           0           0           0           0           0
           0           0           0           0           0           0
           0           0           0           0           0           0
           0           0           0           0           0           0
           0           0           0           0           0           0
           0           0           0           0           0           0
           0           0           0           0           0           0
           0           0           0           0           0           0
           0           0           0           0           0           0
           0           0           0           0           0           0
           0           0           0           0           0           0
           0           0           0           0           0           0
           0           0           0           0           0           0
           0           0           0           0           0           0
           0           0           0           0           0           0
           0           0           0           0           0           0
           0           0           0           0           0           0
           0           0           0           0           0           0
           0           0           0           0           0           0
           0           0           0           0           0           0
           0           0           0           0           0           0
           0           0           0           0           0           0
           0           0           0           0           0           0
           0           0           0           0           0           0
           0           0           0           0           0           0
           0           0           0           0           0           0
           0           0           0           0           0           0
           0           0           0           0           0           0
           0           0           0           0           0           0
           0           0           0           0           0           0
           0           0           0           0           0           0
           0           0           0           0           0           0
           0           0           0           0           0           0
           0           0           0           0           0           0
           0           0           0           0           0           0
           0           0           0           0           0           0
           0           0           0           0           0           0
           0           0           0           0           0           0
           0           0           0           0           0           0
           0           0           0           0           0           0
           0           0           0           0           0           0
           0           0           0           0           0           0
           0           0           0           0           0           0
           0           0           0           0           0           0
           0           0           0           0           0           0
           0           0           0           0           0           0
           0           0           0           0           0           0
           0           0           0           0           0           0
           0           0           0           0           0           0
           0           0           0           0           0           0
           0           0           0           0           0           0
           0           0           0           0           0           0
           0           0           0           0           0           0
           0           0           0           0           0           0
           0           0           0           0           0           0
           0           0           0           0           0           0
           0           0           0           0           0           0
           0           0           0           0           0           0
           0           0           0           0           0           0
           0           0           0           0           0           0
           0           0           0           0           0           0
           0           0           0           0           0           0
           0           0           0           0           0           0
           0           0           0           0           0           0
           0           0           0           0           0           0
           0           0           0           0           0           0
           0           0           0           0           0           0
           0           0           0           0           0           0
           0           0           0           0           0           0
           0           0           0           0           0           0
           0           0           0           0           0           0
           0           0           0           0           0           0
           0           0           0           0           0           0
           0           0           0           0           0           0
           0           0           0           0           0           0
           0           0           0           0           0           0
           0           0           0           0           0           0
           0           0           0           0           0           0
           0           0           0           0           0           0
           0           0           0           0           0           0
           0           0           0           0           0           0
           0           0           0           0           0           0
           0           0           0           0           0           0
           0           0           0           0           0           0
           0           0           0           0           0           0
           0           0           0           0           0           0
           0           0           0           0           0           0
           0           0           0           0           0           0
           0           0           0           0           0           0
           0           0           0           0           0           0
           0           0           0           0           0           0
           0           0           0           0           0           0
           0           0           0           0           0           0
           0           0           0           0           0           0
           0           0           0           0           0           0
           0           0           0           0           0           0
           0           0           0           0           0           0
           0           0           0           0           0           0
           0           0           0           0           0           0
           0           0           0           0           0           0
           0           0           0           0           0           0
           0           0           0           0           0           0
           0           0           0           0           0           0
           0           0           0           0           0           0
           0           0           0           0           0           0
           0           0           0           0           0           0
           0           0           0           0           0           0
           0           0           0           0           0           0
           0           0           0           0           0           0
           0           0           0           0           0           0
           0           0           0           0           0           0
           0           0           0           0           0           0
           0           0           0           0           0           0
           0           0           0           0           0           0
           0           0           0           0           0           0
           0           0           0           0           0           0
           0           0           0           0           0           0
           0           0           0           0           0           0
           0           0           0           0           0           0
           0           0           0           0           0           0
           0           0           0           0           0           0
           0           0           0           0           0           0
           0           0           0           0           0           0
           0           0           0           0           0           0
           0           0           0           0           0           0
           0           0           0           0           0           0
           0           0           0           0           0           0
           0           0           0           0           0           0
           0           0           0           0           0           0
           0           0           0           0           0           0
           0           0           0           0           0           0
           0           0           0           0           0           0
           0           0           0           0           0           0
           0           0           0           0           0           0
           0           0           0           0           0           0
           0           0           0           0           0           0
           0           0           0           0           0           0
           0           0           0           0           0           0
           0           0           0           0           0           0
           0           0           0           0           0           0
           0           0           0           0           0           0
           0           0           0           0           0           0
           0           0           0           0           0           0
           0           0           0           0           0           0
           0           0           0           0           0           0
           0           0           0           0           0           0
           0           0           0           0           0           0
           0           0           0           0           0           0
           0           0           0           0           0           0
           0           0           0           0           0           0
           0           0           0           0           0           0
           0           0           0           0           0           0
           0           0           0           0           0           0
           0           0           0           0           0           0
           0           0           0           0           0           0
           0           0           0           0           0           0
           0           0           0           0           0           0
           0           0           0           0           0           0
           0           0           0           0           0           0
           0           0           0           0           0           0
           0           0           0           0           0           0
           0           0           0           0           0           0
           0           0           0           0           0           0
           0           0           0           0           0           0
           0           0           0           0           0           0
           0           0           0           0           0           0
           0           0           0           0           0           0
           0           0           0           0           0           0
           0           0           0           0           0           0
           0           0           0           0           0           0
           0           0           0           0           0           0
           0           0           0           0           0           0
           0           0           0           0           0           0
ClPar Real Params                          R   N=        3200
  0.00000000E+00  0.00000000E+00  0.00000000E+00  0.00000000E+00  0.00000000E+00
  0.00000000E+00  0.00000000E+00  0.00000000E+00  0.00000000E+00  0.00000000E+00
  0.00000000E+00  0.00000000E+00  0.00000000E+00  0.00000000E+00  0.00000000E+00
  0.00000000E+00  0.00000000E+00  0.00000000E+00  0.00000000E+00  0.00000000E+00
  0.00000000E+00  0.00000000E+00  0.00000000E+00  0.00000000E+00  0.00000000E+00
  0.00000000E+00  0.00000000E+00  0.00000000E+00  0.00000000E+00  0.00000000E+00
  0.00000000E+00  0.00000000E+00  0.00000000E+00  0.00000000E+00  0.00000000E+00
  0.00000000E+00  0.00000000E+00  0.00000000E+00  0.00000000E+00  0.00000000E+00
  0.00000000E+00  0.00000000E+00  0.00000000E+00  0.00000000E+00  0.00000000E+00
  0.00000000E+00  0.00000000E+00  0.00000000E+00  0.00000000E+00  0.00000000E+00
  0.00000000E+00  0.00000000E+00  0.00000000E+00  0.00000000E+00  0.00000000E+00
  0.00000000E+00  0.00000000E+00  0.00000000E+00  0.00000000E+00  0.00000000E+00
  0.00000000E+00  0.00000000E+00  0.00000000E+00  0.00000000E+00  0.00000000E+00
  0.00000000E+00  0.00000000E+00  0.00000000E+00  0.00000000E+00  0.00000000E+00
  0.00000000E+00  0.00000000E+00  0.00000000E+00  0.00000000E+00  0.00000000E+00
  0.00000000E+00  0.00000000E+00  0.00000000E+00  0.00000000E+00  0.00000000E+00
  0.00000000E+00  0.00000000E+00  0.00000000E+00  0.00000000E+00  0.00000000E+00
  0.00000000E+00  0.00000000E+00  0.00000000E+00  0.00000000E+00  0.00000000E+00
  0.00000000E+00  0.00000000E+00  0.00000000E+00  0.00000000E+00  0.00000000E+00
  0.00000000E+00  0.00000000E+00  0.00000000E+00  0.00000000E+00  0.00000000E+00
  0.00000000E+00  0.00000000E+00  0.00000000E+00  0.00000000E+00  0.00000000E+00
  0.00000000E+00  0.00000000E+00  0.00000000E+00  0.00000000E+00  0.00000000E+00
  0.00000000E+00  0.00000000E+00  0.00000000E+00  0.00000000E+00  0.00000000E+00
  0.00000000E+00  0.00000000E+00  0.00000000E+00  0.00000000E+00  0.00000000E+00
  0.00000000E+00  0.00000000E+00  0.00000000E+00  0.00000000E+00  0.00000000E+00
  0.00000000E+00  0.00000000E+00  0.00000000E+00  0.00000000E+00  0.00000000E+00
  0.00000000E+00  0.00000000E+00  0.00000000E+00  0.00000000E+00  0.00000000E+00
  0.00000000E+00  0.00000000E+00  0.00000000E+00  0.00000000E+00  0.00000000E+00
  0.00000000E+00  0.00000000E+00  0.00000000E+00  0.00000000E+00  0.00000000E+00
  0.00000000E+00  0.00000000E+00  0.00000000E+00  0.00000000E+00  0.00000000E+00
  0.00000000E+00  0.00000000E+00  0.00000000E+00  0.00000000E+00  0.00000000E+00
  0.00000000E+00  0.00000000E+00  0.00000000E+00  0.00000000E+00  0.00000000E+00
  0.00000000E+00  0.00000000E+00  0.00000000E+00  0.00000000E+00  0.00000000E+00
  0.00000000E+00  0.00000000E+00  0.00000000E+00  0.00000000E+00  0.00000000E+00
  0.00000000E+00  0.00000000E+00  0.00000000E+00  0.00000000E+00  0.00000000E+00
  0.00000000E+00  0.00000000E+00  0.00000000E+00  0.00000000E+00  0.00000000E+00
  0.00000000E+00  0.00000000E+00  0.00000000E+00  0.00000000E+00  0.00000000E+00
  0.00000000E+00  0.00000000E+00  0.00000000E+00  0.00000000E+00  0.00000000E+00
  0.00000000E+00  0.00000000E+00  0.00000000E+00  0.00000000E+00  0.00000000E+00
  0.00000000E+00  0.00000000E+00  0.00000000E+00  0.00000000E+00  0.00000000E+00
  2.26000000E-01  4.43000000E-01  1.01000000E-01  1.47000000E-01  1.92000000E-01
  2.40000000E-01  2.75000000E-01  3.03000000E-01  3.25000000E-01  4.13000000E-01
  9.60000000E-02  1.35000000E-01  1.73000000E-01  2.11000000E-01  2.48000000E-01
  2.86000000E-01  3.23000000E-01  3.60000000E-01  8.20000000E-02  1.04000000E-01
  1.17000000E-01  1.23000000E-01  1.29000000E-01  1.34000000E-01  1.40000000E-01
  1.44000000E-01  1.48000000E-01  1.52000000E-01  1.55000000E-01  1.76000000E-01
  1.98000000E-01  2.19000000E-01  2.39000000E-01  2.60000000E-01  2.80000000E-01
  3.00000000E-01  7.90000000E-02  9.90000000E-02  1.19000000E-01  1.26000000E-01
  1.33000000E-01  1.40000000E-01  1.47000000E-01  1.53000000E-01  1.58000000E-01
  1.63000000E-01  1.57000000E-01  1.70000000E-01  1.87000000E-01  2.03000000E-01
  2.19000000E-01  2.34000000E-01  2.50000000E-01  2.65000000E-01  7.40000000E-02
  9.20000000E-02  1.05000000E-01  1.06000000E-01  1.07000000E-01  1.08000000E-01
  1.09000000E-01  1.10000000E-01  1.11000000E-01  1.12000000E-01  1.13000000E-01
  1.14000000E-01  1.15000000E-01  1.16000000E-01  1.17000000E-01  1.17000000E-01
  1.26000000E-01  1.36000000E-01  1.46000000E-01  1.55000000E-01  1.65000000E-01
  1.73000000E-01  1.82000000E-01  1.90000000E-01  1.62000000E-01  1.78000000E-01
  1.10000000E-01  1.35000000E-01  1.59000000E-01  1.83000000E-01  2.07000000E-01
  2.31000000E-01  6.90000000E-02  9.40000000E-02  1.02000000E-01  1.03000000E-01
  1.05000000E-01  1.07000000E-01  1.09000000E-01  1.11000000E-01  1.13000000E-01
  1.15000000E-01  1.17000000E-01  1.19000000E-01  1.20000000E-01  1.22000000E-01
  1.24000000E-01  1.26000000E-01  1.28000000E-01  1.28000000E-01  1.28000000E-01
  1.28000000E-01  1.28000000E-01  1.28000000E-01  1.28000000E-01  1.28000000E-01
  1.28000000E-01  1.28000000E-01  1.28000000E-01  1.28000000E-01  1.28000000E-01
  1.28000000E-01  1.28000000E-01  1.28000000E-01  1.28000000E-01  1.28000000E-01
  1.28000000E-01  1.28000000E-01  1.28000000E-01  1.28000000E-01  1.28000000E-01
  1.28000000E-01  1.28000000E-01  1.28000000E-01  1.28000000E-01  1.28000000E-01
  1.28000000E-01  1.28000000E-01  1.28000000E-01  1.28000000E-01  1.28000000E-01
  1.28000000E-01  1.28000000E-01  1.28000000E-01  1.28000000E-01  1.28000000E-01
  1.28000000E-01  1.28000000E-01  1.28000000E-01  1.28000000E-01  1.28000000E-01
  1.28000000E-01  1.28000000E-01  1.28000000E-01  1.28000000E-01  1.28000000E-01
  1.28000000E-01  1.28000000E-01  1.28000000E-01  1.28000000E-01  1.28000000E-01
  1.28000000E-01  1.28000000E-01  1.28000000E-01  1.28000000E-01  1.28000000E-01
  1.28000000E-01  1.28000000E-01  1.28000000E-01  1.28000000E-01  1.28000000E-01
  1.28000000E-01  1.28000000E-01  1.28000000E-01  1.28000000E-01  1.28000000E-01
  1.28000000E-01  1.28000000E-01  1.28000000E-01  1.28000000E-01  1.28000000E-01
  1.28000000E-01  1.28000000E-01  1.28000000E-01  1.28000000E-01  1.28000000E-01
  1.28000000E-01  1.28000000E-01  1.28000000E-01  1.28000000E-01  1.28000000E-01
  1.28000000E-01  1.28000000E-01  1.28000000E-01  1.28000000E-01  1.28000000E-01
  1.28000000E-01  1.28000000E-01  1.28000000E-01  1.28000000E-01  1.28000000E-01
  1.28000000E-01  1.28000000E-01  1.28000000E-01  1.28000000E-01  1.28000000E-01
  5.47000000E-01  5.92000000E-01  5.99000000E-01  6.68000000E-01  6.98000000E-01
  7.18000000E-01  7.26000000E-01  7.36000000E-01  7.43000000E-01  7.45000000E-01
  6.07000000E-01  6.66000000E-01  6.93000000E-01  7.09000000E-01  7.20000000E-01
  7.29000000E-01  7.35000000E-01  7.40000000E-01  6.08000000E-01  7.34000000E-01
  7.46000000E-01  7.55000000E-01  7.61000000E-01  7.65000000E-01  7.67000000E-01
  7.60000000E-01  7.49000000E-01  7.33000000E-01  7.08000000E-01  6.48000000E-01
  6.88000000E-01  7.09000000E-01  7.22000000E-01  7.31000000E-01  7.38000000E-01
  7.44000000E-01  6.09000000E-01  7.30000000E-01  7.41000000E-01  7.52000000E-01
  7.58000000E-01  7.63000000E-01  7.66000000E-01  7.58000000E-01  7.48000000E-01
  7.33000000E-01  7.01000000E-01  6.45000000E-01  6.86000000E-01  7.08000000E-01
  7.22000000E-01  7.31000000E-01  7.38000000E-01  7.44000000E-01  6.08000000E-01
  7.28000000E-01  7.32000000E-01  7.32000000E-01  7.32000000E-01  7.32000000E-01
  7.32000000E-01  7.32000000E-01  7.32000000E-01  7.32000000E-01  7.32000000E-01
  7.31000000E-01  7.31000000E-01  7.31000000E-01  7.31000000E-01  7.46000000E-01
  7.37000000E-01  7.46000000E-01  7.51000000E-01  7.55000000E-01  7.58000000E-01
  7.47000000E-01  7.32000000E-01  7.11000000E-01  7.41000000E-01  7.07000000E-01
  7.47000000E-01  7.43000000E-01  7.42000000E-01  7.42000000E-01  7.43000000E-01
  7.44000000E-01  6.05000000E-01  7.24000000E-01  7.26000000E-01  7.26000000E-01
  7.27000000E-01  7.27000000E-01  7.27000000E-01  7.28000000E-01  7.28000000E-01
  7.28000000E-01  7.28000000E-01  7.28000000E-01  7.29000000E-01  7.29000000E-01
  7.29000000E-01  7.29000000E-01  7.29000000E-01  7.29000000E-01  7.29000000E-01
  7.29000000E-01  7.29000000E-01  7.29000000E-01  7.29000000E-01  7.29000000E-01
  7.29000000E-01  7.29000000E-01  7.29000000E-01  7.29000000E-01  7.29000000E-01
  7.29000000E-01  7.29000000E-01  7.29000000E-01  7.29000000E-01  7.29000000E-01
  7.29000000E-01  7.29000000E-01  7.29000000E-01  7.29000000E-01  7.29000000E-01
  7.29000000E-01  7.29000000E-01  7.29000000E-01  7.29000000E-01  7.29000000E-01
  7.29000000E-01  7.29000000E-01  7.29000000E-01  7.29000000E-01  7.29000000E-01
  7.29000000E-01  7.29000000E-01  7.29000000E-01  7.29000000E-01  7.29000000E-01
  7.29000000E-01  7.29000000E-01  7.29000000E-01  7.29000000E-01  7.29000000E-01
  7.29000000E-01  7.29000000E-01  7.29000000E-01  7.29000000E-01  7.29000000E-01
  7.29000000E-01  7.29000000E-01  7.29000000E-01  7.29000000E-01  7.29000000E-01
  7.29000000E-01  7.29000000E-01  7.29000000E-01  7.29000000E-01  7.29000000E-01
  7.29000000E-01  7.29000000E-01  7.29000000E-01  7.29000000E-01  7.29000000E-01
  7.29000000E-01  7.29000000E-01  7.29000000E-01  7.29000000E-01  7.29000000E-01
  7.29000000E-01  7.29000000E-01  7.29000000E-01  7.29000000E-01  7.29000000E-01
  7.29000000E-01  7.29000000E-01  7.29000000E-01  7.29000000E-01  7.29000000E-01
  7.29000000E-01  7.29000000E-01  7.29000000E-01  7.29000000E-01  7.29000000E-01
  7.29000000E-01  7.29000000E-01  7.29000000E-01  7.29000000E-01  7.29000000E-01
  7.29000000E-01  7.29000000E-01  7.29000000E-01  7.29000000E-01  7.29000000E-01
  7.29000000E-01  7.29000000E-01  7.29000000E-01  7.29000000E-01  7.29000000E-01
  1.00000000E+00  1.70400000E+00  3.23000000E-01  3.89000000E-01  4.67000000E-01
  5.67000000E-01  6.36000000E-01  6.64000000E-01  6.96000000E-01  8.79000000E-01
  3.07000000E-01  3.48000000E-01  4.00000000E-01  4.54000000E-01  5.09000000E-01
  5.65000000E-01  6.21000000E-01  6.77000000E-01  2.56000000E-01  3.50000000E-01
  3.64000000E-01  3.62000000E-01  3.62000000E-01  3.62000000E-01  3.62000000E-01
  3.65000000E-01  3.69000000E-01  3.75000000E-01  3.86000000E-01  4.46000000E-01
  4.55000000E-01  4.74000000E-01  4.96000000E-01  5.20000000E-01  5.45000000E-01
  5.70000000E-01  2.45000000E-01  3.22000000E-01  3.55000000E-01  3.59000000E-01
  3.64000000E-01  3.70000000E-01  3.76000000E-01  3.85000000E-01  3.95000000E-01
  4.08000000E-01  3.76000000E-01  4.23000000E-01  4.22000000E-01  4.32000000E-01
  4.45000000E-01  4.59000000E-01  4.75000000E-01  4.91000000E-01  2.28000000E-01
  2.92000000E-01  2.89000000E-01  2.92000000E-01  2.95000000E-01  2.98000000E-01
  3.00000000E-01  3.03000000E-01  3.06000000E-01  3.09000000E-01  3.12000000E-01
  3.15000000E-01  3.18000000E-01  3.21000000E-01  3.24000000E-01  3.61000000E-01
  3.69000000E-01  3.70000000E-01  3.72000000E-01  3.75000000E-01  3.78000000E-01
  3.85000000E-01  3.94000000E-01  4.07000000E-01  5.26000000E-01  6.21000000E-01
  3.36000000E-01  3.54000000E-01  3.71000000E-01  3.86000000E-01  4.02000000E-01
  4.17000000E-01  2.09000000E-01  2.94000000E-01  2.65000000E-01  2.72000000E-01
  2.78000000E-01  2.84000000E-01  2.91000000E-01  2.97000000E-01  3.03000000E-01
  3.10000000E-01  3.16000000E-01  3.22000000E-01  3.29000000E-01  3.35000000E-01
  3.41000000E-01  3.48000000E-01  3.54000000E-01  3.54000000E-01  3.54000000E-01
  3.54000000E-01  3.54000000E-01  3.54000000E-01  3.54000000E-01  3.54000000E-01
  3.54000000E-01  3.54000000E-01  3.54000000E-01  3.54000000E-01  3.54000000E-01
  3.54000000E-01  3.54000000E-01  3.54000000E-01  3.54000000E-01  3.54000000E-01
  3.54000000E-01  3.54000000E-01  3.54000000E-01  3.54000000E-01  3.54000000E-01
  3.54000000E-01  3.54000000E-01  3.54000000E-01  3.54000000E-01  3.54000000E-01
  3.54000000E-01  3.54000000E-01  3.54000000E-01  3.54000000E-01  3.54000000E-01
  3.54000000E-01  3.54000000E-01  3.54000000E-01  3.54000000E-01  3.54000000E-01
  3.54000000E-01  3.54000000E-01  3.54000000E-01  3.54000000E-01  3.54000000E-01
  3.54000000E-01  3.54000000E-01  3.54000000E-01  3.54000000E-01  3.54000000E-01
  3.54000000E-01  3.54000000E-01  3.54000000E-01  3.54000000E-01  3.54000000E-01
  3.54000000E-01  3.54000000E-01  3.54000000E-01  3.54000000E-01  3.54000000E-01
  3.54000000E-01  3.54000000E-01  3.54000000E-01  3.54000000E-01  3.54000000E-01
  3.54000000E-01  3.54000000E-01  3.54000000E-01  3.54000000E-01  3.54000000E-01
  3.54000000E-01  3.54000000E-01  3.54000000E-01  3.54000000E-01  3.54000000E-01
  3.54000000E-01  3.54000000E-01  3.54000000E-01  3.54000000E-01  3.54000000E-01
  3.54000000E-01  3.54000000E-01  3.54000000E-01  3.54000000E-01  3.54000000E-01
  3.54000000E-01  3.54000000E-01  3.54000000E-01  3.54000000E-01  3.54000000E-01
  3.54000000E-01  3.54000000E-01  3.54000000E-01  3.54000000E-01  3.54000000E-01
  3.54000000E-01  3.54000000E-01  3.54000000E-01  3.54000000E-01  3.54000000E-01
  2.74000000E-01  2.96000000E-01  5.80000000E-02  4.40000000E-02  3.90000000E-02
  3.90000000E-02  3.60000000E-02  3.20000000E-02  2.90000000E-02  3.30000000E-02
  5.50000000E-02  3.90000000E-02  3.30000000E-02  3.00000000E-02  2.80000000E-02
  2.60000000E-02  2.50000000E-02  2.50000000E-02  4.50000000E-02  4.40000000E-02
  3.30000000E-02  2.50000000E-02  2.10000000E-02  1.80000000E-02  1.50000000E-02
  1.80000000E-02  2.10000000E-02  2.50000000E-02  3.30000000E-02  5.00000000E-02
  3.80000000E-02  3.10000000E-02  2.70000000E-02  2.40000000E-02  2.20000000E-02
  2.10000000E-02  4.30000000E-02  4.00000000E-02  3.20000000E-02  2.50000000E-02
  2.10000000E-02  1.80000000E-02  1.60000000E-02  1.90000000E-02  2.20000000E-02
  2.80000000E-02  3.10000000E-02  4.70000000E-02  3.40000000E-02  2.80000000E-02
  2.40000000E-02  2.10000000E-02  1.90000000E-02  1.80000000E-02  3.90000000E-02
  3.60000000E-02  2.50000000E-02  2.50000000E-02  2.50000000E-02  2.60000000E-02
  2.60000000E-02  2.60000000E-02  2.70000000E-02  2.70000000E-02  2.70000000E-02
  2.70000000E-02  2.80000000E-02  2.80000000E-02  2.80000000E-02  3.30000000E-02
  3.30000000E-02  2.60000000E-02  2.10000000E-02  1.80000000E-02  1.60000000E-02
  1.80000000E-02  2.20000000E-02  2.60000000E-02  4.90000000E-02  8.20000000E-02
  3.00000000E-02  2.40000000E-02  2.10000000E-02  1.80000000E-02  1.60000000E-02
  1.50000000E-02  3.50000000E-02  3.60000000E-02  2.20000000E-02  2.30000000E-02
  2.40000000E-02  2.40000000E-02  2.50000000E-02  2.50000000E-02  2.60000000E-02
  2.70000000E-02  2.70000000E-02  2.80000000E-02  2.80000000E-02  2.90000000E-02
  3.00000000E-02  3.00000000E-02  3.10000000E-02  3.10000000E-02  3.10000000E-02
  3.10000000E-02  3.10000000E-02  3.10000000E-02  3.10000000E-02  3.10000000E-02
  3.10000000E-02  3.10000000E-02  3.10000000E-02  3.10000000E-02  3.10000000E-02
  3.10000000E-02  3.10000000E-02  3.10000000E-02  3.10000000E-02  3.10000000E-02
  3.10000000E-02  3.10000000E-02  3.10000000E-02  3.10000000E-02  3.10000000E-02
  3.10000000E-02  3.10000000E-02  3.10000000E-02  3.10000000E-02  3.10000000E-02
  3.10000000E-02  3.10000000E-02  3.10000000E-02  3.10000000E-02  3.10000000E-02
  3.10000000E-02  3.10000000E-02  3.10000000E-02  3.10000000E-02  3.10000000E-02
  3.10000000E-02  3.10000000E-02  3.10000000E-02  3.10000000E-02  3.10000000E-02
  3.10000000E-02  3.10000000E-02  3.10000000E-02  3.10000000E-02  3.10000000E-02
  3.10000000E-02  3.10000000E-02  3.10000000E-02  3.10000000E-02  3.10000000E-02
  3.10000000E-02  3.10000000E-02  3.10000000E-02  3.10000000E-02  3.10000000E-02
  3.10000000E-02  3.10000000E-02  3.10000000E-02  3.10000000E-02  3.10000000E-02
  3.10000000E-02  3.10000000E-02  3.10000000E-02  3.10000000E-02  3.10000000E-02
  3.10000000E-02  3.10000000E-02  3.10000000E-02  3.10000000E-02  3.10000000E-02
  3.10000000E-02  3.10000000E-02  3.10000000E-02  3.10000000E-02  3.10000000E-02
  3.10000000E-02  3.10000000E-02  3.10000000E-02  3.10000000E-02  3.10000000E-02
  3.10000000E-02  3.10000000E-02  3.10000000E-02  3.10000000E-02  3.10000000E-02
  3.10000000E-02  3.10000000E-02  3.10000000E-02  3.10000000E-02  3.10000000E-02
  3.10000000E-02  3.10000000E-02  3.10000000E-02  3.10000000E-02  3.10000000E-02
 -5.92770000E-01 -9.17860000E-01 -2.48668000E+00 -8.36430000E-01 -3.18470000E-01
 -4.55790000E-01 -5.70730000E-01 -6.77940000E-01 -7.69860000E-01 -8.51140000E-01
 -1.51908000E+00 -3.18830000E-01 -2.17900000E-01 -3.01260000E-01 -3.72750000E-01
 -4.15890000E-01 -4.45930000E-01 -5.91320000E-01 -9.56370000E-01 -2.88450000E-01
 -4.87320000E-01 -6.34280000E-01 -7.17490000E-01 -7.91980000E-01 -8.68490000E-01
 -9.17520000E-01 -9.54890000E-01 -9.88460000E-01 -1.50055000E+00 -2.92560000E-01
 -2.14960000E-01 -2.91180000E-01 -3.42080000E-01 -3.84480000E-01 -4.34940000E-01
 -5.24310000E-01 -8.10070000E-01 -2.58460000E-01 -4.35550000E-01 -5.32740000E-01
 -6.08450000E-01 -6.10260000E-01 -7.58920000E-01 -8.90130000E-01 -8.45780000E-01
 -8.69340000E-01 -1.38234000E+00 -2.64850000E-01 -1.97280000E-01 -2.65040000E-01
 -2.94470000E-01 -3.16570000E-01 -3.63590000E-01 -4.57840000E-01 -8.61830000E-01
 -1.33004000E+00 -6.82880000E-01 -6.25540000E-01 -6.35430000E-01 -8.79690000E-01
 -9.02690000E-01 -9.59650000E-01 -1.01869000E+00 -6.81170000E-01 -7.96500000E-01
 -9.04950000E-01 -8.34790000E-01 -9.01560000E-01 -9.74130000E-01 -1.03326000E+00
 -7.15490000E-01 -7.83960000E-01 -8.28380000E-01 -5.61040000E-01 -1.03841000E+00
 -8.62500000E-01 -9.59300000E-01 -1.01755000E+00 -7.64900000E-01 -1.29467000E+00
 -1.92740000E-01 -2.56010000E-01 -3.19820000E-01 -1.94660000E-01 -2.60090000E-01
 -4.27990000E-01  0.00000000E+00  0.00000000E+00  0.00000000E+00  0.00000000E+00
  0.00000000E+00  0.00000000E+00  0.00000000E+00  0.00000000E+00  0.00000000E+00
  0.00000000E+00  0.00000000E+00  0.00000000E+00  0.00000000E+00  0.00000000E+00
  0.00000000E+00  0.00000000E+00  0.00000000E+00  0.00000000E+00  0.00000000E+00
  0.00000000E+00  0.00000000E+00  0.00000000E+00  0.00000000E+00  0.00000000E+00
  0.00000000E+00  0.00000000E+00  0.00000000E+00  0.00000000E+00  0.00000000E+00
  0.00000000E+00  0.00000000E+00  0.00000000E+00  0.00000000E+00  0.00000000E+00
  0.00000000E+00  0.00000000E+00  0.00000000E+00  0.00000000E+00  0.00000000E+00
  0.00000000E+00  0.00000000E+00  0.00000000E+00  0.00000000E+00  0.00000000E+00
  0.00000000E+00  0.00000000E+00  0.00000000E+00  0.00000000E+00  0.00000000E+00
  0.00000000E+00  0.00000000E+00  0.00000000E+00  0.00000000E+00  0.00000000E+00
  0.00000000E+00  0.00000000E+00  0.00000000E+00  0.00000000E+00  0.00000000E+00
  0.00000000E+00  0.00000000E+00  0.00000000E+00  0.00000000E+00  0.00000000E+00
  0.00000000E+00  0.00000000E+00  0.00000000E+00  0.00000000E+00  0.00000000E+00
  0.00000000E+00  0.00000000E+00  0.00000000E+00  0.00000000E+00  0.00000000E+00
  0.00000000E+00  0.00000000E+00  0.00000000E+00  0.00000000E+00  0.00000000E+00
  0.00000000E+00  0.00000000E+00  0.00000000E+00  0.00000000E+00  0.00000000E+00
  0.00000000E+00  0.00000000E+00  0.00000000E+00  0.00000000E+00  0.00000000E+00
  0.00000000E+00  0.00000000E+00  0.00000000E+00  0.00000000E+00  0.00000000E+00
  0.00000000E+00  0.00000000E+00  0.00000000E+00  0.00000000E+00  0.00000000E+00
  0.00000000E+00  0.00000000E+00  0.00000000E+00  0.00000000E+00  0.00000000E+00
  0.00000000E+00  0.00000000E+00  0.00000000E+00  0.00000000E+00  0.00000000E+00
  0.00000000E+00  0.00000000E+00  0.00000000E+00  0.00000000E+00  0.00000000E+00
  1.90440000E+00  1.36430000E+00  4.84000000E-01  7.31600000E+00  9.24030000E+00
  8.78200000E+00  5.61290000E+00  4.83340000E+00  3.24870000E+00  2.71090000E+00
  2.01130000E+00  1.50282000E+01  1.46788000E+01  2.13546000E+01  2.38290000E+01
  1.98022000E+01  1.50468000E+01  1.09745000E+01  1.27219000E+01  1.51949000E+01
  1.57342000E+01  2.79222000E+01  1.61366000E+01  2.21252000E+01  2.45676000E+01
  1.96016000E+01  1.79818000E+01  1.72396000E+01  5.01500000E+00  1.92898000E+01
  2.34477000E+01  2.23993000E+01  2.96586000E+01  2.60081000E+01  2.15580000E+01
  1.69594000E+01  1.56479000E+01  1.86897000E+01  1.93530000E+01  3.43444000E+01
  1.98480000E+01  2.72140000E+01  3.02182000E+01  2.41099000E+01  2.21176000E+01
  2.12047000E+01  7.56690000E+00  2.37264000E+01  2.93879000E+01  3.01278000E+01
  4.19382000E+01  3.85203000E+01  3.39511000E+01  2.75774000E+01  1.56460000E+01
  1.04460000E+01  2.01830000E+01  4.99540000E+01  4.76430000E+01  1.18690000E+01
  1.08670000E+01  9.96100000E+00  9.18700000E+00  3.67980000E+01  1.34070000E+01
  9.38200000E+00  9.81700000E+00  8.90800000E+00  8.40700000E+00  8.05800000E+00
  1.29600000E+01  2.67920000E+01  2.49300000E+01  3.45630000E+01  1.11860000E+01
  1.09440000E+01  1.01270000E+01  9.40400000E+00  1.36660000E+01  7.81000000E+00
  6.93600000E+01  5.86630000E+01  4.79690000E+01  4.52740000E+01  3.92290000E+01
  3.30660000E+01  0.00000000E+00  0.00000000E+00  0.00000000E+00  0.00000000E+00
  0.00000000E+00  0.00000000E+00  0.00000000E+00  0.00000000E+00  0.00000000E+00
  0.00000000E+00  0.00000000E+00  0.00000000E+00  0.00000000E+00  0.00000000E+00
  0.00000000E+00  0.00000000E+00  0.00000000E+00  0.00000000E+00  0.00000000E+00
  0.00000000E+00  0.00000000E+00  0.00000000E+00  0.00000000E+00  0.00000000E+00
  0.00000000E+00  0.00000000E+00  0.00000000E+00  0.00000000E+00  0.00000000E+00
  0.00000000E+00  0.00000000E+00  0.00000000E+00  0.00000000E+00  0.00000000E+00
  0.00000000E+00  0.00000000E+00  0.00000000E+00  0.00000000E+00  0.00000000E+00
  0.00000000E+00  0.00000000E+00  0.00000000E+00  0.00000000E+00  0.00000000E+00
  0.00000000E+00  0.00000000E+00  0.00000000E+00  0.00000000E+00  0.00000000E+00
  0.00000000E+00  0.00000000E+00  0.00000000E+00  0.00000000E+00  0.00000000E+00
  0.00000000E+00  0.00000000E+00  0.00000000E+00  0.00000000E+00  0.00000000E+00
  0.00000000E+00  0.00000000E+00  0.00000000E+00  0.00000000E+00  0.00000000E+00
  0.00000000E+00  0.00000000E+00  0.00000000E+00  0.00000000E+00  0.00000000E+00
  0.00000000E+00  0.00000000E+00  0.00000000E+00  0.00000000E+00  0.00000000E+00
  0.00000000E+00  0.00000000E+00  0.00000000E+00  0.00000000E+00  0.00000000E+00
  0.00000000E+00  0.00000000E+00  0.00000000E+00  0.00000000E+00  0.00000000E+00
  0.00000000E+00  0.00000000E+00  0.00000000E+00  0.00000000E+00  0.00000000E+00
  0.00000000E+00  0.00000000E+00  0.00000000E+00  0.00000000E+00  0.00000000E+00
  0.00000000E+00  0.00000000E+00  0.00000000E+00  0.00000000E+00  0.00000000E+00
  0.00000000E+00  0.00000000E+00  0.00000000E+00  0.00000000E+00  0.00000000E+00
  0.00000000E+00  0.00000000E+00  0.00000000E+00  0.00000000E+00  0.00000000E+00
  0.00000000E+00  0.00000000E+00  0.00000000E+00  0.00000000E+00  0.00000000E+00
  0.00000000E+00  0.00000000E+00  0.00000000E+00  0.00000000E+00  0.00000000E+00
  0.00000000E+00  0.00000000E+00  0.00000000E+00  0.00000000E+00  0.00000000E+00
  0.00000000E+00  0.00000000E+00  0.00000000E+00  0.00000000E+00  0.00000000E+00
  0.00000000E+00  0.00000000E+00  0.00000000E+00  0.00000000E+00  0.00000000E+00
  0.00000000E+00  0.00000000E+00  0.00000000E+00  0.00000000E+00  0.00000000E+00
  0.00000000E+00  0.00000000E+00  0.00000000E+00  0.00000000E+00  0.00000000E+00
  0.00000000E+00  0.00000000E+00  0.00000000E+00  0.00000000E+00  0.00000000E+00
  0.00000000E+00  0.00000000E+00  0.00000000E+00  0.00000000E+00  0.00000000E+00
  0.00000000E+00  0.00000000E+00  0.00000000E+00  0.00000000E+00  0.00000000E+00
  0.00000000E+00  0.00000000E+00  0.00000000E+00  0.00000000E+00  0.00000000E+00
  0.00000000E+00  0.00000000E+00  0.00000000E+00  0.00000000E+00  0.00000000E+00
  0.00000000E+00  0.00000000E+00  0.00000000E+00  0.00000000E+00  0.00000000E+00
  0.00000000E+00  0.00000000E+00  0.00000000E+00  0.00000000E+00  0.00000000E+00
  0.00000000E+00  0.00000000E+00  0.00000000E+00  0.00000000E+00  0.00000000E+00
  0.00000000E+00  0.00000000E+00  0.00000000E+00  0.00000000E+00  0.00000000E+00
  0.00000000E+00  0.00000000E+00  0.00000000E+00  0.00000000E+00  0.00000000E+00
  0.00000000E+00  0.00000000E+00  0.00000000E+00  0.00000000E+00  0.00000000E+00
  0.00000000E+00  0.00000000E+00  0.00000000E+00  0.00000000E+00  0.00000000E+00
  0.00000000E+00  0.00000000E+00  0.00000000E+00  0.00000000E+00  0.00000000E+00
  0.00000000E+00  0.00000000E+00  0.00000000E+00  0.00000000E+00  0.00000000E+00
  0.00000000E+00  0.00000000E+00  0.00000000E+00  0.00000000E+00  0.00000000E+00
  0.00000000E+00  0.00000000E+00  0.00000000E+00  0.00000000E+00  0.00000000E+00
  0.00000000E+00  0.00000000E+00  0.00000000E+00  0.00000000E+00  0.00000000E+00
  0.00000000E+00  0.00000000E+00  0.00000000E+00  0.00000000E+00  0.00000000E+00
  0.00000000E+00  0.00000000E+00  0.00000000E+00  0.00000000E+00  0.00000000E+00
  0.00000000E+00  0.00000000E+00  0.00000000E+00  0.00000000E+00  0.00000000E+00
  0.00000000E+00  0.00000000E+00  0.00000000E+00  0.00000000E+00  0.00000000E+00
  0.00000000E+00  0.00000000E+00  0.00000000E+00  0.00000000E+00  0.00000000E+00
  0.00000000E+00  0.00000000E+00  0.00000000E+00  0.00000000E+00  0.00000000E+00
  0.00000000E+00  0.00000000E+00  0.00000000E+00  0.00000000E+00  0.00000000E+00
  0.00000000E+00  0.00000000E+00  0.00000000E+00  0.00000000E+00  0.00000000E+00
  0.00000000E+00  0.00000000E+00  0.00000000E+00  0.00000000E+00  0.00000000E+00
  0.00000000E+00  0.00000000E+00  0.00000000E+00  0.00000000E+00  0.00000000E+00
  0.00000000E+00  0.00000000E+00  0.00000000E+00  0.00000000E+00  0.00000000E+00
  0.00000000E+00  0.00000000E+00  0.00000000E+00  0.00000000E+00  0.00000000E+00
  0.00000000E+00  0.00000000E+00  0.00000000E+00  0.00000000E+00  0.00000000E+00
  0.00000000E+00  0.00000000E+00  0.00000000E+00  0.00000000E+00  0.00000000E+00
  0.00000000E+00  0.00000000E+00  0.00000000E+00  0.00000000E+00  0.00000000E+00
  0.00000000E+00  0.00000000E+00  0.00000000E+00  0.00000000E+00  0.00000000E+00
  0.00000000E+00  0.00000000E+00  0.00000000E+00  0.00000000E+00  0.00000000E+00
  0.00000000E+00  0.00000000E+00  0.00000000E+00  0.00000000E+00  0.00000000E+00
  0.00000000E+00  0.00000000E+00  0.00000000E+00  0.00000000E+00  0.00000000E+00
  0.00000000E+00  0.00000000E+00  0.00000000E+00  0.00000000E+00  0.00000000E+00
  0.00000000E+00  0.00000000E+00  0.00000000E+00  0.00000000E+00  0.00000000E+00
  0.00000000E+00  0.00000000E+00  0.00000000E+00  0.00000000E+00  0.00000000E+00
  0.00000000E+00  0.00000000E+00  0.00000000E+00  0.00000000E+00  0.00000000E+00
  0.00000000E+00  0.00000000E+00  0.00000000E+00  0.00000000E+00  0.00000000E+00
  0.00000000E+00  0.00000000E+00  0.00000000E+00  0.00000000E+00  0.00000000E+00
  0.00000000E+00  0.00000000E+00  0.00000000E+00  0.00000000E+00  0.00000000E+00
  0.00000000E+00  0.00000000E+00  0.00000000E+00  0.00000000E+00  0.00000000E+00
  0.00000000E+00  0.00000000E+00  0.00000000E+00  0.00000000E+00  0.00000000E+00
  0.00000000E+00  0.00000000E+00  0.00000000E+00  0.00000000E+00  0.00000000E+00
  0.00000000E+00  0.00000000E+00  0.00000000E+00  0.00000000E+00  0.00000000E+00
  0.00000000E+00  0.00000000E+00  0.00000000E+00  0.00000000E+00  0.00000000E+00
  0.00000000E+00  0.00000000E+00  0.00000000E+00  0.00000000E+00  0.00000000E+00
  0.00000000E+00  0.00000000E+00  0.00000000E+00  0.00000000E+00  0.00000000E+00
  0.00000000E+00  0.00000000E+00  0.00000000E+00  0.00000000E+00  0.00000000E+00
  0.00000000E+00  0.00000000E+00  0.00000000E+00  0.00000000E+00  0.00000000E+00
  0.00000000E+00  0.00000000E+00  0.00000000E+00  0.00000000E+00  0.00000000E+00
  0.00000000E+00  0.00000000E+00  0.00000000E+00  0.00000000E+00  0.00000000E+00
  0.00000000E+00  0.00000000E+00  0.00000000E+00  0.00000000E+00  0.00000000E+00
  0.00000000E+00  0.00000000E+00  0.00000000E+00  0.00000000E+00  0.00000000E+00
  0.00000000E+00  0.00000000E+00  0.00000000E+00  0.00000000E+00  0.00000000E+00
  0.00000000E+00  0.00000000E+00  0.00000000E+00  0.00000000E+00  0.00000000E+00
  0.00000000E+00  0.00000000E+00  0.00000000E+00  0.00000000E+00  0.00000000E+00
  0.00000000E+00  0.00000000E+00  0.00000000E+00  0.00000000E+00  0.00000000E+00
  0.00000000E+00  0.00000000E+00  0.00000000E+00  0.00000000E+00  0.00000000E+00
  0.00000000E+00  0.00000000E+00  0.00000000E+00  0.00000000E+00  0.00000000E+00
  0.00000000E+00  0.00000000E+00  0.00000000E+00  0.00000000E+00  0.00000000E+00
  0.00000000E+00  0.00000000E+00  0.00000000E+00  0.00000000E+00  0.00000000E+00
  0.00000000E+00  0.00000000E+00  0.00000000E+00  0.00000000E+00  0.00000000E+00
  0.00000000E+00  0.00000000E+00  0.00000000E+00  0.00000000E+00  0.00000000E+00
  0.00000000E+00  0.00000000E+00  0.00000000E+00  0.00000000E+00  0.00000000E+00
  0.00000000E+00  0.00000000E+00  0.00000000E+00  0.00000000E+00  0.00000000E+00
  0.00000000E+00  0.00000000E+00  0.00000000E+00  0.00000000E+00  0.00000000E+00
  0.00000000E+00  0.00000000E+00  0.00000000E+00  0.00000000E+00  0.00000000E+00
  0.00000000E+00  0.00000000E+00  0.00000000E+00  0.00000000E+00  0.00000000E+00
  0.00000000E+00  0.00000000E+00  0.00000000E+00  0.00000000E+00  0.00000000E+00
  0.00000000E+00  0.00000000E+00  0.00000000E+00  0.00000000E+00  0.00000000E+00
  0.00000000E+00  0.00000000E+00  0.00000000E+00  0.00000000E+00  0.00000000E+00
  0.00000000E+00  0.00000000E+00  0.00000000E+00  0.00000000E+00  0.00000000E+00
  0.00000000E+00  0.00000000E+00  0.00000000E+00  0.00000000E+00  0.00000000E+00
  0.00000000E+00  0.00000000E+00  0.00000000E+00  0.00000000E+00  0.00000000E+00
  0.00000000E+00  0.00000000E+00  0.00000000E+00  0.00000000E+00  0.00000000E+00
  0.00000000E+00  0.00000000E+00  0.00000000E+00  0.00000000E+00  0.00000000E+00
  0.00000000E+00  0.00000000E+00  0.00000000E+00  0.00000000E+00  0.00000000E+00
  0.00000000E+00  0.00000000E+00  0.00000000E+00  0.00000000E+00  0.00000000E+00
  0.00000000E+00  0.00000000E+00  0.00000000E+00  0.00000000E+00  0.00000000E+00
  0.00000000E+00  0.00000000E+00  0.00000000E+00  0.00000000E+00  0.00000000E+00
  0.00000000E+00  0.00000000E+00  0.00000000E+00  0.00000000E+00  0.00000000E+00
  0.00000000E+00  0.00000000E+00  0.00000000E+00  0.00000000E+00  0.00000000E+00
  0.00000000E+00  0.00000000E+00  0.00000000E+00  0.00000000E+00  0.00000000E+00
  0.00000000E+00  0.00000000E+00  0.00000000E+00  0.00000000E+00  0.00000000E+00
  0.00000000E+00  0.00000000E+00  0.00000000E+00  0.00000000E+00  0.00000000E+00
  0.00000000E+00  0.00000000E+00  0.00000000E+00  0.00000000E+00  0.00000000E+00
  0.00000000E+00  0.00000000E+00  0.00000000E+00  0.00000000E+00  0.00000000E+00
  0.00000000E+00  0.00000000E+00  0.00000000E+00  0.00000000E+00  0.00000000E+00
  0.00000000E+00  0.00000000E+00  0.00000000E+00  0.00000000E+00  0.00000000E+00
  0.00000000E+00  0.00000000E+00  0.00000000E+00  0.00000000E+00  0.00000000E+00
  0.00000000E+00  0.00000000E+00  0.00000000E+00  0.00000000E+00  0.00000000E+00
  0.00000000E+00  0.00000000E+00  0.00000000E+00  0.00000000E+00  0.00000000E+00
  0.00000000E+00  0.00000000E+00  0.00000000E+00  0.00000000E+00  0.00000000E+00
  0.00000000E+00  0.00000000E+00  0.00000000E+00  0.00000000E+00  0.00000000E+00
  0.00000000E+00  0.00000000E+00  0.00000000E+00  0.00000000E+00  0.00000000E+00
  0.00000000E+00  0.00000000E+00  0.00000000E+00  0.00000000E+00  0.00000000E+00
  0.00000000E+00  0.00000000E+00  0.00000000E+00  0.00000000E+00  0.00000000E+00
  0.00000000E+00  0.00000000E+00  0.00000000E+00  0.00000000E+00  0.00000000E+00
  0.00000000E+00  0.00000000E+00  0.00000000E+00  0.00000000E+00  0.00000000E+00
  0.00000000E+00  0.00000000E+00  0.00000000E+00  0.00000000E+00  0.00000000E+00
  0.00000000E+00  0.00000000E+00  0.00000000E+00  0.00000000E+00  0.00000000E+00
  0.00000000E+00  0.00000000E+00  0.00000000E+00  0.00000000E+00  0.00000000E+00
  0.00000000E+00  0.00000000E+00  0.00000000E+00  0.00000000E+00  0.00000000E+00
  0.00000000E+00  0.00000000E+00  0.00000000E+00  0.00000000E+00  0.00000000E+00
  0.00000000E+00  0.00000000E+00  0.00000000E+00  0.00000000E+00  0.00000000E+00
  0.00000000E+00  0.00000000E+00  0.00000000E+00  0.00000000E+00  0.00000000E+00
  0.00000000E+00  0.00000000E+00  0.00000000E+00  0.00000000E+00  0.00000000E+00
  0.00000000E+00  0.00000000E+00  0.00000000E+00  0.00000000E+00  0.00000000E+00
  0.00000000E+00  0.00000000E+00  0.00000000E+00  0.00000000E+00  0.00000000E+00
  0.00000000E+00  0.00000000E+00  0.00000000E+00  0.00000000E+00  0.00000000E+00
  0.00000000E+00  0.00000000E+00  0.00000000E+00  0.00000000E+00  0.00000000E+00
  0.00000000E+00  0.00000000E+00  0.00000000E+00  0.00000000E+00  0.00000000E+00
  0.00000000E+00  0.00000000E+00  0.00000000E+00  0.00000000E+00  0.00000000E+00
  0.00000000E+00  0.00000000E+00  0.00000000E+00  0.00000000E+00  0.00000000E+00
  0.00000000E+00  0.00000000E+00  0.00000000E+00  0.00000000E+00  0.00000000E+00
  0.00000000E+00  0.00000000E+00  0.00000000E+00  0.00000000E+00  0.00000000E+00
  0.00000000E+00  0.00000000E+00  0.00000000E+00  0.00000000E+00  0.00000000E+00
  0.00000000E+00  0.00000000E+00  0.00000000E+00  0.00000000E+00  0.00000000E+00
  0.00000000E+00  0.00000000E+00  0.00000000E+00  0.00000000E+00  0.00000000E+00
  0.00000000E+00  0.00000000E+00  0.00000000E+00  0.00000000E+00  0.00000000E+00
  0.00000000E+00  0.00000000E+00  0.00000000E+00  0.00000000E+00  0.00000000E+00
  0.00000000E+00  0.00000000E+00  0.00000000E+00  0.00000000E+00  0.00000000E+00
  0.00000000E+00  0.00000000E+00  0.00000000E+00  0.00000000E+00  0.00000000E+00
  0.00000000E+00  0.00000000E+00  0.00000000E+00  0.00000000E+00  0.00000000E+00
  0.00000000E+00  0.00000000E+00  0.00000000E+00  0.00000000E+00  0.00000000E+00
  0.00000000E+00  0.00000000E+00  0.00000000E+00  0.00000000E+00  0.00000000E+00
  0.00000000E+00  0.00000000E+00  0.00000000E+00  0.00000000E+00  0.00000000E+00
  0.00000000E+00  0.00000000E+00  0.00000000E+00  0.00000000E+00  0.00000000E+00
  0.00000000E+00  0.00000000E+00  0.00000000E+00  0.00000000E+00  0.00000000E+00
  0.00000000E+00  0.00000000E+00  0.00000000E+00  0.00000000E+00  0.00000000E+00
  0.00000000E+00  0.00000000E+00  0.00000000E+00  0.00000000E+00  0.00000000E+00
  0.00000000E+00  0.00000000E+00  0.00000000E+00  0.00000000E+00  0.00000000E+00
  0.00000000E+00  0.00000000E+00  0.00000000E+00  0.00000000E+00  0.00000000E+00
  0.00000000E+00  0.00000000E+00  0.00000000E+00  0.00000000E+00  0.00000000E+00
  0.00000000E+00  0.00000000E+00  0.00000000E+00  0.00000000E+00  0.00000000E+00
  0.00000000E+00  0.00000000E+00  0.00000000E+00  0.00000000E+00  0.00000000E+00
  0.00000000E+00  0.00000000E+00  0.00000000E+00  0.00000000E+00  0.00000000E+00
  0.00000000E+00  0.00000000E+00  0.00000000E+00  0.00000000E+00  0.00000000E+00
  0.00000000E+00  0.00000000E+00  0.00000000E+00  0.00000000E+00  0.00000000E+00
  0.00000000E+00  0.00000000E+00  0.00000000E+00  0.00000000E+00  0.00000000E+00
  0.00000000E+00  0.00000000E+00  0.00000000E+00  0.00000000E+00  0.00000000E+00
  0.00000000E+00  0.00000000E+00  0.00000000E+00  0.00000000E+00  0.00000000E+00
  0.00000000E+00  0.00000000E+00  0.00000000E+00  0.00000000E+00  0.00000000E+00
  0.00000000E+00  0.00000000E+00  0.00000000E+00  0.00000000E+00  0.00000000E+00
  0.00000000E+00  0.00000000E+00  0.00000000E+00  0.00000000E+00  0.00000000E+00
  0.00000000E+00  0.00000000E+00  0.00000000E+00  0.00000000E+00  0.00000000E+00
  0.00000000E+00  0.00000000E+00  0.00000000E+00  0.00000000E+00  0.00000000E+00
  0.00000000E+00  0.00000000E+00  0.00000000E+00  0.00000000E+00  0.00000000E+00
  0.00000000E+00  0.00000000E+00  0.00000000E+00  0.00000000E+00  0.00000000E+00
  0.00000000E+00  0.00000000E+00  0.00000000E+00  0.00000000E+00  0.00000000E+00
  0.00000000E+00  0.00000000E+00  0.00000000E+00  0.00000000E+00  0.00000000E+00
  0.00000000E+00  0.00000000E+00  0.00000000E+00  0.00000000E+00  0.00000000E+00
  0.00000000E+00  0.00000000E+00  0.00000000E+00  0.00000000E+00  0.00000000E+00
  0.00000000E+00  0.00000000E+00  0.00000000E+00  0.00000000E+00  0.00000000E+00
  0.00000000E+00  0.00000000E+00  0.00000000E+00  0.00000000E+00  0.00000000E+00
  0.00000000E+00  0.00000000E+00  0.00000000E+00  0.00000000E+00  0.00000000E+00
  0.00000000E+00  0.00000000E+00  0.00000000E+00  0.00000000E+00  0.00000000E+00
  0.00000000E+00  0.00000000E+00  0.00000000E+00  0.00000000E+00  0.00000000E+00
  0.00000000E+00  0.00000000E+00  0.00000000E+00  0.00000000E+00  0.00000000E+00
  0.00000000E+00  0.00000000E+00  0.00000000E+00  0.00000000E+00  0.00000000E+00
  0.00000000E+00  0.00000000E+00  0.00000000E+00  0.00000000E+00  0.00000000E+00
  0.00000000E+00  0.00000000E+00  0.00000000E+00  0.00000000E+00  0.00000000E+00
  0.00000000E+00  0.00000000E+00  0.00000000E+00  0.00000000E+00  0.00000000E+00
  0.00000000E+00  0.00000000E+00  0.00000000E+00  0.00000000E+00  0.00000000E+00
  0.00000000E+00  0.00000000E+00  0.00000000E+00  0.00000000E+00  0.00000000E+00
  0.00000000E+00  0.00000000E+00  0.00000000E+00  0.00000000E+00  0.00000000E+00
  0.00000000E+00  0.00000000E+00  0.00000000E+00  0.00000000E+00  0.00000000E+00
  0.00000000E+00  0.00000000E+00  0.00000000E+00  0.00000000E+00  0.00000000E+00
  0.00000000E+00  0.00000000E+00  0.00000000E+00  0.00000000E+00  0.00000000E+00
  0.00000000E+00  0.00000000E+00  0.00000000E+00  0.00000000E+00  0.00000000E+00
  0.00000000E+00  0.00000000E+00  0.00000000E+00  0.00000000E+00  0.00000000E+00
  0.00000000E+00  0.00000000E+00  0.00000000E+00  0.00000000E+00  0.00000000E+00
  0.00000000E+00  0.00000000E+00  0.00000000E+00  0.00000000E+00  0.00000000E+00
  0.00000000E+00  0.00000000E+00  0.00000000E+00  0.00000000E+00  0.00000000E+00
  0.00000000E+00  0.00000000E+00  0.00000000E+00  0.00000000E+00  0.00000000E+00
  0.00000000E+00  0.00000000E+00  0.00000000E+00  0.00000000E+00  0.00000000E+00
  0.00000000E+00  0.00000000E+00  0.00000000E+00  0.00000000E+00  0.00000000E+00
  0.00000000E+00  0.00000000E+00  0.00000000E+00  0.00000000E+00  0.00000000E+00
  0.00000000E+00  0.00000000E+00  0.00000000E+00  0.00000000E+00  0.00000000E+00
  0.00000000E+00  0.00000000E+00  0.00000000E+00  0.00000000E+00  0.00000000E+00
  0.00000000E+00  0.00000000E+00  0.00000000E+00  0.00000000E+00  0.00000000E+00
  0.00000000E+00  0.00000000E+00  0.00000000E+00  0.00000000E+00  0.00000000E+00
  0.00000000E+00  0.00000000E+00  0.00000000E+00  0.00000000E+00  0.00000000E+00
  0.00000000E+00  0.00000000E+00  0.00000000E+00  0.00000000E+00  0.00000000E+00
  0.00000000E+00  0.00000000E+00  0.00000000E+00  0.00000000E+00  0.00000000E+00
  0.00000000E+00  0.00000000E+00  0.00000000E+00  0.00000000E+00  0.00000000E+00
  0.00000000E+00  0.00000000E+00  0.00000000E+00  0.00000000E+00  0.00000000E+00
  0.00000000E+00  0.00000000E+00  0.00000000E+00  0.00000000E+00  0.00000000E+00
  0.00000000E+00  0.00000000E+00  0.00000000E+00  0.00000000E+00  0.00000000E+00
  0.00000000E+00  0.00000000E+00  0.00000000E+00  0.00000000E+00  0.00000000E+00
  0.00000000E+00  0.00000000E+00  0.00000000E+00  0.00000000E+00  0.00000000E+00
  0.00000000E+00  0.00000000E+00  0.00000000E+00  0.00000000E+00  0.00000000E+00
  0.00000000E+00  0.00000000E+00  0.00000000E+00  0.00000000E+00  0.00000000E+00
  0.00000000E+00  0.00000000E+00  0.00000000E+00  0.00000000E+00  0.00000000E+00
  0.00000000E+00  0.00000000E+00  0.00000000E+00  0.00000000E+00  0.00000000E+00
  0.00000000E+00  0.00000000E+00  0.00000000E+00  0.00000000E+00  0.00000000E+00
  0.00000000E+00  0.00000000E+00  0.00000000E+00  0.00000000E+00  0.00000000E+00
  0.00000000E+00  0.00000000E+00  0.00000000E+00  0.00000000E+00  0.00000000E+00
  0.00000000E+00  0.00000000E+00  0.00000000E+00  0.00000000E+00  0.00000000E+00
  0.00000000E+00  0.00000000E+00  0.00000000E+00  0.00000000E+00  0.00000000E+00
  0.00000000E+00  0.00000000E+00  0.00000000E+00  0.00000000E+00  0.00000000E+00
  0.00000000E+00  0.00000000E+00  0.00000000E+00  0.00000000E+00  0.00000000E+00
  0.00000000E+00  0.00000000E+00  0.00000000E+00  0.00000000E+00  0.00000000E+00
  0.00000000E+00  0.00000000E+00  0.00000000E+00  0.00000000E+00  0.00000000E+00
  0.00000000E+00  0.00000000E+00  0.00000000E+00  0.00000000E+00  0.00000000E+00
  0.00000000E+00  0.00000000E+00  0.00000000E+00  0.00000000E+00  0.00000000E+00
  0.00000000E+00  0.00000000E+00  0.00000000E+00  0.00000000E+00  0.00000000E+00
  0.00000000E+00  0.00000000E+00  0.00000000E+00  0.00000000E+00  0.00000000E+00
  0.00000000E+00  0.00000000E+00  0.00000000E+00  0.00000000E+00  0.00000000E+00
  0.00000000E+00  0.00000000E+00  0.00000000E+00  0.00000000E+00  0.00000000E+00
  0.00000000E+00  0.00000000E+00  0.00000000E+00  0.00000000E+00  0.00000000E+00
  0.00000000E+00  0.00000000E+00  0.00000000E+00  0.00000000E+00  0.00000000E+00
  0.00000000E+00  0.00000000E+00  0.00000000E+00  0.00000000E+00  0.00000000E+00
  0.00000000E+00  0.00000000E+00  0.00000000E+00  0.00000000E+00  0.00000000E+00
  0.00000000E+00  0.00000000E+00  0.00000000E+00  0.00000000E+00  0.00000000E+00
  0.00000000E+00  0.00000000E+00  0.00000000E+00  0.00000000E+00  0.00000000E+00
  0.00000000E+00  0.00000000E+00  0.00000000E+00  0.00000000E+00  0.00000000E+00
  0.00000000E+00  0.00000000E+00  0.00000000E+00  0.00000000E+00  0.00000000E+00
  0.00000000E+00  0.00000000E+00  0.00000000E+00  0.00000000E+00  0.00000000E+00
  0.00000000E+00  0.00000000E+00  0.00000000E+00  0.00000000E+00  0.00000000E+00
  0.00000000E+00  0.00000000E+00  0.00000000E+00  0.00000000E+00  0.00000000E+00
  0.00000000E+00  0.00000000E+00  0.00000000E+00  0.00000000E+00  0.00000000E+00
  0.00000000E+00  0.00000000E+00  0.00000000E+00  0.00000000E+00  0.00000000E+00
  0.00000000E+00  0.00000000E+00  0.00000000E+00  0.00000000E+00  0.00000000E+00
  0.00000000E+00  0.00000000E+00  0.00000000E+00  0.00000000E+00  0.00000000E+00
  0.00000000E+00  0.00000000E+00  0.00000000E+00  0.00000000E+00  0.00000000E+00
  0.00000000E+00  0.00000000E+00  0.00000000E+00  0.00000000E+00  0.00000000E+00
  0.00000000E+00  0.00000000E+00  0.00000000E+00  0.00000000E+00  0.00000000E+00
  0.00000000E+00  0.00000000E+00  0.00000000E+00  0.00000000E+00  0.00000000E+00
  0.00000000E+00  0.00000000E+00  0.00000000E+00  0.00000000E+00  0.00000000E+00
  0.00000000E+00  0.00000000E+00  0.00000000E+00  0.00000000E+00  0.00000000E+00
  0.00000000E+00  0.00000000E+00  0.00000000E+00  0.00000000E+00  0.00000000E+00
  0.00000000E+00  0.00000000E+00  0.00000000E+00  0.00000000E+00  0.00000000E+00
  0.00000000E+00  0.00000000E+00  0.00000000E+00  0.00000000E+00  0.00000000E+00
  0.00000000E+00  0.00000000E+00  0.00000000E+00  0.00000000E+00  0.00000000E+00
  0.00000000E+00  0.00000000E+00  0.00000000E+00  0.00000000E+00  0.00000000E+00
  0.00000000E+00  0.00000000E+00  0.00000000E+00  0.00000000E+00  0.00000000E+00
  0.00000000E+00  0.00000000E+00  0.00000000E+00  0.00000000E+00  0.00000000E+00
  0.00000000E+00  0.00000000E+00  0.00000000E+00  0.00000000E+00  0.00000000E+00
  0.00000000E+00  0.00000000E+00  0.00000000E+00  0.00000000E+00  0.00000000E+00
  0.00000000E+00  0.00000000E+00  0.00000000E+00  0.00000000E+00  0.00000000E+00
  0.00000000E+00  0.00000000E+00  0.00000000E+00  0.00000000E+00  0.00000000E+00
  0.00000000E+00  0.00000000E+00  0.00000000E+00  0.00000000E+00  0.00000000E+00
  0.00000000E+00  0.00000000E+00  0.00000000E+00  0.00000000E+00  0.00000000E+00
  0.00000000E+00  0.00000000E+00  0.00000000E+00  0.00000000E+00  0.00000000E+00
  0.00000000E+00  0.00000000E+00  0.00000000E+00  0.00000000E+00  0.00000000E+00
  0.00000000E+00  0.00000000E+00  0.00000000E+00  0.00000000E+00  0.00000000E+00
  0.00000000E+00  0.00000000E+00  0.00000000E+00  0.00000000E+00  0.00000000E+00
  0.00000000E+00  0.00000000E+00  0.00000000E+00  0.00000000E+00  0.00000000E+00
  0.00000000E+00  0.00000000E+00  0.00000000E+00  0.00000000E+00  0.00000000E+00
  0.00000000E+00  0.00000000E+00  0.00000000E+00  0.00000000E+00  0.00000000E+00
  0.00000000E+00  0.00000000E+00  0.00000000E+00  0.00000000E+00  0.00000000E+00
  0.00000000E+00  0.00000000E+00  0.00000000E+00  0.00000000E+00  0.00000000E+00
  0.00000000E+00  0.00000000E+00  0.00000000E+00  0.00000000E+00  0.00000000E+00
  0.00000000E+00  0.00000000E+00  0.00000000E+00  0.00000000E+00  0.00000000E+00
  0.00000000E+00  0.00000000E+00  0.00000000E+00  0.00000000E+00  0.00000000E+00
  0.00000000E+00  0.00000000E+00  0.00000000E+00  0.00000000E+00  0.00000000E+00
  0.00000000E+00  0.00000000E+00  0.00000000E+00  0.00000000E+00  0.00000000E+00
  0.00000000E+00  0.00000000E+00  0.00000000E+00  0.00000000E+00  0.00000000E+00
  0.00000000E+00  0.00000000E+00  0.00000000E+00  0.00000000E+00  0.00000000E+00
  0.00000000E+00  0.00000000E+00  0.00000000E+00  0.00000000E+00  0.00000000E+00
  0.00000000E+00  0.00000000E+00  0.00000000E+00  0.00000000E+00  0.00000000E+00
  0.00000000E+00  0.00000000E+00  0.00000000E+00  0.00000000E+00  0.00000000E+00
  0.00000000E+00  0.00000000E+00  0.00000000E+00  0.00000000E+00  0.00000000E+00
  0.00000000E+00  0.00000000E+00  0.00000000E+00  0.00000000E+00  0.00000000E+00
  0.00000000E+00  0.00000000E+00  0.00000000E+00  0.00000000E+00  0.00000000E+00
  0.00000000E+00  0.00000000E+00  0.00000000E+00  0.00000000E+00  0.00000000E+00
  0.00000000E+00  0.00000000E+00  0.00000000E+00  0.00000000E+00  0.00000000E+00
  0.00000000E+00  0.00000000E+00  0.00000000E+00  0.00000000E+00  0.00000000E+00
  0.00000000E+00  0.00000000E+00  0.00000000E+00  0.00000000E+00  0.00000000E+00
  0.00000000E+00  0.00000000E+00  0.00000000E+00  0.00000000E+00  0.00000000E+00
  0.00000000E+00  0.00000000E+00  0.00000000E+00  0.00000000E+00  0.00000000E+00
  0.00000000E+00  0.00000000E+00  0.00000000E+00  0.00000000E+00  0.00000000E+00
  0.00000000E+00  0.00000000E+00  0.00000000E+00  0.00000000E+00  0.00000000E+00
  0.00000000E+00  0.00000000E+00  0.00000000E+00  0.00000000E+00  0.00000000E+00
  0.00000000E+00  0.00000000E+00  0.00000000E+00  0.00000000E+00  0.00000000E+00
  0.00000000E+00  0.00000000E+00  0.00000000E+00  0.00000000E+00  0.00000000E+00
  0.00000000E+00  0.00000000E+00  0.00000000E+00  0.00000000E+00  0.00000000E+00
  0.00000000E+00  0.00000000E+00  0.00000000E+00  0.00000000E+00  0.00000000E+00
  0.00000000E+00  0.00000000E+00  0.00000000E+00  0.00000000E+00  0.00000000E+00
  0.00000000E+00  0.00000000E+00  0.00000000E+00  0.00000000E+00  0.00000000E+00
  0.00000000E+00  0.00000000E+00  0.00000000E+00  0.00000000E+00  0.00000000E+00
  0.00000000E+00  0.00000000E+00  0.00000000E+00  0.00000000E+00  0.00000000E+00
  0.00000000E+00  0.00000000E+00  0.00000000E+00  0.00000000E+00  0.00000000E+00
  0.00000000E+00  0.00000000E+00  0.00000000E+00  0.00000000E+00  0.00000000E+00
  0.00000000E+00  0.00000000E+00  0.00000000E+00  0.00000000E+00  0.00000000E+00
  0.00000000E+00  0.00000000E+00  0.00000000E+00  0.00000000E+00  0.00000000E+00
  0.00000000E+00  0.00000000E+00  0.00000000E+00  0.00000000E+00  0.00000000E+00
  0.00000000E+00  0.00000000E+00  0.00000000E+00  0.00000000E+00  0.00000000E+00
  0.00000000E+00  0.00000000E+00  0.00000000E+00  0.00000000E+00  0.00000000E+00
  0.00000000E+00  0.00000000E+00  0.00000000E+00  0.00000000E+00  0.00000000E+00
  0.00000000E+00  0.00000000E+00  0.00000000E+00  0.00000000E+00  0.00000000E+00
  0.00000000E+00  0.00000000E+00  0.00000000E+00  0.00000000E+00  0.00000000E+00
  0.00000000E+00  0.00000000E+00  0.00000000E+00  0.00000000E+00  0.00000000E+00
  0.00000000E+00  0.00000000E+00  0.00000000E+00  0.00000000E+00  0.00000000E+00
  0.00000000E+00  0.00000000E+00  0.00000000E+00  0.00000000E+00  0.00000000E+00
  0.00000000E+00  0.00000000E+00  0.00000000E+00  0.00000000E+00  0.00000000E+00
  0.00000000E+00  0.00000000E+00  0.00000000E+00  0.00000000E+00  0.00000000E+00
  0.00000000E+00  0.00000000E+00  0.00000000E+00  0.00000000E+00  0.00000000E+00
  0.00000000E+00  0.00000000E+00  0.00000000E+00  0.00000000E+00  0.00000000E+00
  0.00000000E+00  0.00000000E+00  0.00000000E+00  0.00000000E+00  0.00000000E+00
  0.00000000E+00  0.00000000E+00  0.00000000E+00  0.00000000E+00  0.00000000E+00
  0.00000000E+00  0.00000000E+00  0.00000000E+00  0.00000000E+00  0.00000000E+00
  0.00000000E+00  0.00000000E+00  0.00000000E+00  0.00000000E+00  0.00000000E+00
  0.00000000E+00  0.00000000E+00  0.00000000E+00  0.00000000E+00  0.00000000E+00
  0.00000000E+00  0.00000000E+00  0.00000000E+00  0.00000000E+00  0.00000000E+00
  0.00000000E+00  0.00000000E+00  0.00000000E+00  0.00000000E+00  0.00000000E+00
  0.00000000E+00  0.00000000E+00  0.00000000E+00  0.00000000E+00  0.00000000E+00
  0.00000000E+00  0.00000000E+00  0.00000000E+00  0.00000000E+00  0.00000000E+00
  0.00000000E+00  0.00000000E+00  0.00000000E+00  0.00000000E+00  0.00000000E+00
  0.00000000E+00  0.00000000E+00  0.00000000E+00  0.00000000E+00  0.00000000E+00
  0.00000000E+00  0.00000000E+00  0.00000000E+00  0.00000000E+00  0.00000000E+00
  0.00000000E+00  0.00000000E+00  0.00000000E+00  0.00000000E+00  0.00000000E+00
  0.00000000E+00  0.00000000E+00  0.00000000E+00  0.00000000E+00  0.00000000E+00
  0.00000000E+00  0.00000000E+00  0.00000000E+00  0.00000000E+00  0.00000000E+00
  0.00000000E+00  0.00000000E+00  0.00000000E+00  0.00000000E+00  0.00000000E+00
  0.00000000E+00  0.00000000E+00  0.00000000E+00  0.00000000E+00  0.00000000E+00
  0.00000000E+00  0.00000000E+00  0.00000000E+00  0.00000000E+00  0.00000000E+00
  0.00000000E+00  0.00000000E+00  0.00000000E+00  0.00000000E+00  0.00000000E+00
  0.00000000E+00  0.00000000E+00  0.00000000E+00  0.00000000E+00  0.00000000E+00
  0.00000000E+00  0.00000000E+00  0.00000000E+00  0.00000000E+00  0.00000000E+00
  0.00000000E+00  0.00000000E+00  0.00000000E+00  0.00000000E+00  0.00000000E+00
  0.00000000E+00  0.00000000E+00  0.00000000E+00  0.00000000E+00  0.00000000E+00
  0.00000000E+00  0.00000000E+00  0.00000000E+00  0.00000000E+00  0.00000000E+00
  0.00000000E+00  0.00000000E+00  0.00000000E+00  0.00000000E+00  0.00000000E+00
  0.00000000E+00  0.00000000E+00  0.00000000E+00  0.00000000E+00  0.00000000E+00
  0.00000000E+00  0.00000000E+00  0.00000000E+00  0.00000000E+00  0.00000000E+00
  0.00000000E+00  0.00000000E+00  0.00000000E+00  0.00000000E+00  0.00000000E+00
  0.00000000E+00  0.00000000E+00  0.00000000E+00  0.00000000E+00  0.00000000E+00
  0.00000000E+00  0.00000000E+00  0.00000000E+00  0.00000000E+00  0.00000000E+00
  0.00000000E+00  0.00000000E+00  0.00000000E+00  0.00000000E+00  0.00000000E+00
  0.00000000E+00  0.00000000E+00  0.00000000E+00  0.00000000E+00  0.00000000E+00
  0.00000000E+00  0.00000000E+00  0.00000000E+00  0.00000000E+00  0.00000000E+00
  0.00000000E+00  0.00000000E+00  0.00000000E+00  0.00000000E+00  0.00000000E+00
  0.00000000E+00  0.00000000E+00  0.00000000E+00  0.00000000E+00  0.00000000E+00
  0.00000000E+00  0.00000000E+00  0.00000000E+00  0.00000000E+00  0.00000000E+00
  0.00000000E+00  0.00000000E+00  0.00000000E+00  0.00000000E+00  0.00000000E+00
  0.00000000E+00  0.00000000E+00  0.00000000E+00  0.00000000E+00  0.00000000E+00
  0.00000000E+00  0.00000000E+00  0.00000000E+00  0.00000000E+00  0.00000000E+00
  0.00000000E+00  0.00000000E+00  0.00000000E+00  0.00000000E+00  0.00000000E+00
  0.00000000E+00  0.00000000E+00  0.00000000E+00  0.00000000E+00  0.00000000E+00
  0.00000000E+00  0.00000000E+00  0.00000000E+00  0.00000000E+00  0.00000000E+00
  0.00000000E+00  0.00000000E+00  0.00000000E+00  0.00000000E+00  0.00000000E+00
  0.00000000E+00  0.00000000E+00  0.00000000E+00  0.00000000E+00  0.00000000E+00
  0.00000000E+00  0.00000000E+00  0.00000000E+00  0.00000000E+00  0.00000000E+00
  0.00000000E+00  0.00000000E+00  0.00000000E+00  0.00000000E+00  0.00000000E+00
  0.00000000E+00  0.00000000E+00  0.00000000E+00  0.00000000E+00  0.00000000E+00
  0.00000000E+00  0.00000000E+00  0.00000000E+00  0.00000000E+00  0.00000000E+00
  0.00000000E+00  0.00000000E+00  0.00000000E+00  0.00000000E+00  0.00000000E+00
  0.00000000E+00  0.00000000E+00  0.00000000E+00  0.00000000E+00  0.00000000E+00
  0.00000000E+00  0.00000000E+00  0.00000000E+00  0.00000000E+00  0.00000000E+00
Gaussian Version                           C   N=           2
AppleM1-GDVRevJ.32+     
