NH3                                                                     
Freq      RB3LYP                                                      6-31G(d)            
Number of atoms                            I                4
Info1-9                                    I   N=           9
          13          13           0           0           0         101
           6          18        -502
Full Title                                 C   N=           1
NH3         
Route                                      C   N=           6
#B3LYP 6-31G* freq=anharm output=pickett iop(7/8=10) symm=(l
oose,com)   
Point Group                                C   N=           2
C03V                    
Point Group NOp                            I                6
Point Group Abelian NOp                    I                2
Point Group NClass                         I                3
Point Group NIrrep                         I                3
Point Group NGen                           I                2
Point Group NOp symm assign                I                2
Point Group Irrep Names                    H   N=           3
A1      A2      E       
Point Group Class Names                    H   N=           3
E       2C3     3Sgm    
Point Group Generators                     I   N=           2
           3           2
Point Group Class of Operators             I   N=           6
           1           3           2           2           3           3
Point Group Rotations                      R   N=          72
  1.00000000E+00 -8.37206396E-17  0.00000000E+00 -8.37206396E-17  1.00000000E+00
  0.00000000E+00  0.00000000E+00  0.00000000E+00  1.00000000E+00  0.00000000E+00
  0.00000000E+00  0.00000000E+00 -1.00000000E+00  8.94334223E-24  0.00000000E+00
 -8.94334027E-24  1.00000000E+00  0.00000000E+00  0.00000000E+00  0.00000000E+00
  1.00000000E+00  0.00000000E+00  0.00000000E+00  0.00000000E+00 -5.00000000E-01
 -8.66025404E-01  0.00000000E+00  8.66025404E-01 -5.00000000E-01  0.00000000E+00
  0.00000000E+00  0.00000000E+00  1.00000000E+00  0.00000000E+00  0.00000000E+00
  0.00000000E+00 -5.00000000E-01  8.66025404E-01  0.00000000E+00 -8.66025404E-01
 -5.00000000E-01  0.00000000E+00  0.00000000E+00  0.00000000E+00  1.00000000E+00
  0.00000000E+00  0.00000000E+00  0.00000000E+00  5.00000000E-01  8.66025404E-01
  0.00000000E+00  8.66025404E-01 -5.00000000E-01  0.00000000E+00  0.00000000E+00
  0.00000000E+00  1.00000000E+00  0.00000000E+00  0.00000000E+00  0.00000000E+00
  5.00000000E-01 -8.66025404E-01  0.00000000E+00 -8.66025404E-01 -5.00000000E-01
  0.00000000E+00  0.00000000E+00  0.00000000E+00  1.00000000E+00  0.00000000E+00
  0.00000000E+00  0.00000000E+00
Point Group Cell Trans                     I   N=          18
           0           0           0           0           0           0
           0           0           0           0           0           0
           0           0           0           0           0           0
Point Group Char Table                     R   N=           9
  1.00000000E+00  1.00000000E+00  1.00000000E+00  1.00000000E+00  1.00000000E+00
 -1.00000000E+00  2.00000000E+00 -1.00000000E+00  0.00000000E+00
Point Group Atom Permutations              I   N=          24
           1           2           3           4           1           2
           4           3           1           3           4           2
           1           4           2           3           1           3
           2           4           1           4           3           2
Charge                                     I                0
Multiplicity                               I                1
Number of electrons                        I               10
Number of alpha electrons                  I                5
Number of beta electrons                   I                5
Number of basis functions                  I               21
Number of independent functions            I               21
Number of point charges in /Mol/           I                0
Number of translation vectors              I                0
Atomic numbers                             I   N=           4
           7           1           1           1
Nuclear charges                            R   N=           4
  7.00000000E+00  1.00000000E+00  1.00000000E+00  1.00000000E+00
Current cartesian coordinates              R   N=          12
  0.00000000E+00  0.00000000E+00  1.33493732E-01 -1.48499717E-16  1.77375363E+00
 -6.18269556E-01  1.53611571E+00 -8.86876816E-01 -6.18269556E-01 -1.53611571E+00
 -8.86876816E-01 -6.18269556E-01
Number of symbols in /Mol/                 I                0
Int Atom Types                             I   N=           4
           0           0           0           0
Force Field                                I                0
Atom Types                                 C   N=           4
                                                
MM charges                                 R   N=           4
  0.00000000E+00  0.00000000E+00  0.00000000E+00  0.00000000E+00
Integer atomic weights                     I   N=           4
          14           1           1           1
Real atomic weights                        R   N=           4
  1.40030740E+01  1.00782504E+00  1.00782504E+00  1.00782504E+00
Atom fragment info                         I   N=           4
           0           0           0           0
Atom residue num                           I   N=           4
           0           0           0           0
Nuclear spins                              I   N=           4
           2           1           1           1
Nuclear ZEff                               R   N=           4
 -4.55000000E+00 -1.00000000E+00 -1.00000000E+00 -1.00000000E+00
Nuclear ZNuc                               R   N=           4
  7.00000000E+00  1.00000000E+00  1.00000000E+00  1.00000000E+00
Nuclear QMom                               R   N=           4
  2.04400000E+00  0.00000000E+00  0.00000000E+00  0.00000000E+00
Nuclear GFac                               R   N=           4
  4.03761000E-01  2.79284600E+00  2.79284600E+00  2.79284600E+00
MicOpt                                     I   N=           4
          -1          -1          -1          -1
Number of residues                         I                0
Number of secondary structures             I                0
SymInf integers                            I   N=          26
           2           2           1           1           1          -1
           1           1           0           0           0           0
           0           0           0           0           0           0
           0           0           0           0           0           0
           0           0
RotTr to input orientation                 R   N=          12
 -3.06428257E-07 -1.00000000E+00  0.00000000E+00  1.00000000E+00 -3.06428257E-07
  0.00000000E+00  0.00000000E+00  0.00000000E+00  1.00000000E+00 -3.91232428E-17
  2.60821618E-17  3.00564734E-07
Number of contracted shells                I               10
Number of primitive shells                 I               23
Pure/Cartesian d shells                    I                1
Pure/Cartesian f shells                    I                0
Highest angular momentum                   I                2
Largest degree of contraction              I                6
Shell types                                I   N=          10
           0          -1          -1           2           0           0
           0           0           0           0
Number of primitives per shell             I   N=          10
           6           3           1           1           3           1
           3           1           3           1
Shell to atom map                          I   N=          10
           1           1           1           1           2           2
           3           3           4           4
Primitive exponents                        R   N=          23
  4.17351146E+03  6.27457911E+02  1.42902093E+02  4.02343293E+01  1.28202129E+01
  4.39043701E+00  1.16263619E+01  2.71627981E+00  7.72218397E-01  2.12031498E-01
  8.00000000E-01  1.87311370E+01  2.82539436E+00  6.40121692E-01  1.61277759E-01
  1.87311370E+01  2.82539436E+00  6.40121692E-01  1.61277759E-01  1.87311370E+01
  2.82539436E+00  6.40121692E-01  1.61277759E-01
Contraction coefficients                   R   N=          23
  1.83477216E-03  1.39946270E-02  6.85865518E-02  2.32240873E-01  4.69069948E-01
  3.60455199E-01 -1.14961182E-01 -1.69117479E-01  1.14585195E+00  1.00000000E+00
  1.00000000E+00  3.34946043E-02  2.34726953E-01  8.13757326E-01  1.00000000E+00
  3.34946043E-02  2.34726953E-01  8.13757326E-01  1.00000000E+00  3.34946043E-02
  2.34726953E-01  8.13757326E-01  1.00000000E+00
P(S=P) Contraction coefficients            R   N=          23
  0.00000000E+00  0.00000000E+00  0.00000000E+00  0.00000000E+00  0.00000000E+00
  0.00000000E+00  6.75797439E-02  3.23907296E-01  7.40895140E-01  1.00000000E+00
  0.00000000E+00  0.00000000E+00  0.00000000E+00  0.00000000E+00  0.00000000E+00
  0.00000000E+00  0.00000000E+00  0.00000000E+00  0.00000000E+00  0.00000000E+00
  0.00000000E+00  0.00000000E+00  0.00000000E+00
Coordinates of each shell                  R   N=          30
  0.00000000E+00  0.00000000E+00  1.33493732E-01  0.00000000E+00  0.00000000E+00
  1.33493732E-01  0.00000000E+00  0.00000000E+00  1.33493732E-01  0.00000000E+00
  0.00000000E+00  1.33493732E-01 -7.42498863E-17  1.77375363E+00 -6.18269556E-01
 -7.42498863E-17  1.77375363E+00 -6.18269556E-01  1.53611571E+00 -8.86876816E-01
 -6.18269556E-01  1.53611571E+00 -8.86876816E-01 -6.18269556E-01 -1.53611571E+00
 -8.86876816E-01 -6.18269556E-01 -1.53611571E+00 -8.86876816E-01 -6.18269556E-01
Constraint Structure                       R   N=          12
  2.60821499E-17  3.91232508E-17  1.33493732E-01 -5.43528233E-07  1.77375363E+00
 -6.18269556E-01  1.53611706E+00 -8.86876345E-01 -6.18269556E-01 -1.53611652E+00
 -8.86877287E-01 -6.18269556E-01
Constraint Force Constants                 R   N=          12
  0.00000000E+00  0.00000000E+00  0.00000000E+00  0.00000000E+00  0.00000000E+00
  0.00000000E+00  0.00000000E+00  0.00000000E+00  0.00000000E+00  0.00000000E+00
  0.00000000E+00  0.00000000E+00
Num ILSW                                   I              100
ILSW                                       I   N=         100
           0           1           0           1           2           0
           0           0           0           0        4002          -1
           5           0           0           0           2          -1
           0           0           0           0           1           0
           1           0           0           0           0           0
           0           0      100000           0          -1           0
           0           0           0           0           0           0
           0           0           0           1           0           0
           0 -2000000000           1           0           0           0
           0           0        2004          68           0           0
           0           0           5           0           0           0
           0           0           0           0           0           1
           0           0           0           0           0           0
           0           0           0           0           0           0
           0           0           0           0           0           0
           0           0           1           0           0           0
           0           0           0           0
Num RLSW                                   I               68
RLSW                                       R   N=          68
  8.00000000E-01  7.20000000E-01  1.00000000E+00  8.10000000E-01  2.00000000E-01
  0.00000000E+00  0.00000000E+00  1.00000000E+00  0.00000000E+00  0.00000000E+00
  0.00000000E+00  0.00000000E+00  1.00000000E+00  0.00000000E+00  0.00000000E+00
  0.00000000E+00  0.00000000E+00  1.00000000E+00  0.00000000E+00  0.00000000E+00
  0.00000000E+00  0.00000000E+00  1.00000000E+00  0.00000000E+00  0.00000000E+00
  0.00000000E+00  0.00000000E+00  1.00000000E+00  0.00000000E+00  0.00000000E+00
  0.00000000E+00  0.00000000E+00  1.00000000E+00  0.00000000E+00  0.00000000E+00
  0.00000000E+00  0.00000000E+00  0.00000000E+00  1.00000000E+00  1.00000000E+00
  0.00000000E+00  1.00000000E+00  0.00000000E+00  0.00000000E+00  0.00000000E+00
  0.00000000E+00  0.00000000E+00  0.00000000E+00  0.00000000E+00  0.00000000E+00
  0.00000000E+00  0.00000000E+00  1.00000000E+00  1.00000000E+00  1.00000000E+00
  1.00000000E+00  1.00000000E+00  1.00000000E+00  0.00000000E+00  0.00000000E+00
  0.00000000E+00  0.00000000E+00  0.00000000E+00  0.00000000E+00  0.00000000E+00
  0.00000000E+00  2.00000000E-10  1.00000000E-02
MxBond                                     I                3
NBond                                      I   N=           4
           3           1           1           1
IBond                                      I   N=          12
           2           3           4           1           0           0
           1           0           0           1           0           0
RBond                                      R   N=          12
  1.00000000E+00  1.00000000E+00  1.00000000E+00  1.00000000E+00  0.00000000E+00
  0.00000000E+00  1.00000000E+00  0.00000000E+00  0.00000000E+00  1.00000000E+00
  0.00000000E+00  0.00000000E+00
Virial Ratio                               R      2.009176487988854E+00
SCF Energy                                 R     -5.654794779761251E+01
Total Energy                               R     -5.654794779761251E+01
RMS Force                                  R      6.872227476941009E-06
RMS Density                                R      9.682658794015405E-09
NImag                                      I                0
Zero-point Energy                          R      3.453190544147365E-02
Job Status                                 I                1
Nuclear derivative order                   I                3
Energy with zero-point                     R     -5.651341589217103E+01
Thermal Energy                             R     -5.651055755916876E+01
Thermal Enthalpy                           R     -5.650961337435511E+01
Thermal Free Energy                        R     -5.653145794224282E+01
External E-field                           R   N=         105
  0.00000000E+00  0.00000000E+00  0.00000000E+00  0.00000000E+00  0.00000000E+00
  0.00000000E+00  0.00000000E+00  0.00000000E+00  0.00000000E+00  0.00000000E+00
  0.00000000E+00  0.00000000E+00  0.00000000E+00  0.00000000E+00  0.00000000E+00
  0.00000000E+00  0.00000000E+00  0.00000000E+00  0.00000000E+00  0.00000000E+00
  0.00000000E+00  0.00000000E+00  0.00000000E+00  0.00000000E+00  0.00000000E+00
  0.00000000E+00  0.00000000E+00  0.00000000E+00  0.00000000E+00  0.00000000E+00
  0.00000000E+00  0.00000000E+00  0.00000000E+00  0.00000000E+00  0.00000000E+00
  0.00000000E+00  0.00000000E+00  0.00000000E+00  0.00000000E+00  0.00000000E+00
  0.00000000E+00  0.00000000E+00  0.00000000E+00  0.00000000E+00  0.00000000E+00
  0.00000000E+00  0.00000000E+00  0.00000000E+00  0.00000000E+00  0.00000000E+00
  0.00000000E+00  0.00000000E+00  0.00000000E+00  0.00000000E+00  0.00000000E+00
  0.00000000E+00  0.00000000E+00  0.00000000E+00  0.00000000E+00  0.00000000E+00
  0.00000000E+00  0.00000000E+00  0.00000000E+00  0.00000000E+00  0.00000000E+00
  0.00000000E+00  0.00000000E+00  0.00000000E+00  0.00000000E+00  0.00000000E+00
  0.00000000E+00  0.00000000E+00  0.00000000E+00  0.00000000E+00  0.00000000E+00
  0.00000000E+00  0.00000000E+00  0.00000000E+00  0.00000000E+00  0.00000000E+00
  0.00000000E+00  0.00000000E+00  0.00000000E+00  0.00000000E+00  0.00000000E+00
  0.00000000E+00  0.00000000E+00  0.00000000E+00  0.00000000E+00  0.00000000E+00
  0.00000000E+00  0.00000000E+00  0.00000000E+00  0.00000000E+00  0.00000000E+00
  0.00000000E+00  0.00000000E+00  0.00000000E+00  0.00000000E+00  0.00000000E+00
  0.00000000E+00  0.00000000E+00  0.00000000E+00  0.00000000E+00  0.00000000E+00
IOpCl                                      I                0
IROHF                                      I                0
Alpha Orbital Energies                     R   N=          21
 -1.43060342E+01 -8.45351858E-01 -4.53458977E-01 -4.51022987E-01 -2.52401362E-01
  7.85519023E-02  1.66299899E-01  1.69262423E-01  6.82587247E-01  6.83807418E-01
  7.21927255E-01  9.10589176E-01  9.16554757E-01  9.25485098E-01  1.15609963E+00
  1.67538001E+00  1.67550079E+00  1.94048442E+00  2.39658911E+00  2.40946408E+00
  3.66834633E+00
Alpha MO coefficients                      R   N=         441
  9.92708149E-01  3.46392619E-02  0.00000000E+00 -1.90606670E-16 -1.33641057E-03
  3.75492349E-03  0.00000000E+00 -2.54881055E-17  3.83333635E-04 -8.17480143E-03
 -8.17480143E-03 -8.20538678E-03  0.00000000E+00  0.00000000E+00 -1.20297313E-15
  2.39542964E-04 -3.42478888E-04  2.39542964E-04 -3.42478888E-04  2.39542964E-04
 -3.42478888E-04 -1.98731194E-01  4.15181547E-01  0.00000000E+00  4.94644675E-16
 -1.16828322E-01  4.26351707E-01  0.00000000E+00 -9.11580197E-16 -5.88251256E-02
  6.85162885E-03  6.85162885E-03 -5.40793607E-03  0.00000000E+00  0.00000000E+00
  2.72651772E-16  1.40039849E-01  1.21510342E-02  1.40039849E-01  1.21510342E-02
  1.40039849E-01  1.21510342E-02 -1.78767825E-16  1.20088083E-15  0.00000000E+00
  4.81947961E-01  5.68465077E-17  4.77537979E-16  0.00000000E+00  2.47449681E-01
 -2.47108712E-16 -1.36448580E-02  1.36448580E-02 -1.77407548E-16  0.00000000E+00
  0.00000000E+00 -3.54932327E-02  2.79693272E-01  1.95423550E-01 -1.39846636E-01
 -9.77117748E-02 -1.39846636E-01 -9.77117748E-02  0.00000000E+00  0.00000000E+00
  4.81947961E-01  0.00000000E+00  0.00000000E+00  0.00000000E+00  2.47449681E-01
  0.00000000E+00  0.00000000E+00  0.00000000E+00  0.00000000E+00  0.00000000E+00
 -1.57557249E-02 -3.54932327E-02  0.00000000E+00  0.00000000E+00  0.00000000E+00
  2.42221479E-01  1.69241758E-01 -2.42221479E-01 -1.69241758E-01 -7.63537902E-02
  1.65313977E-01  0.00000000E+00 -7.16582282E-17  5.52749049E-01  3.42406020E-01
  0.00000000E+00 -3.56196944E-15  4.64957979E-01  8.27054133E-03  8.27054133E-03
 -4.21489391E-02  0.00000000E+00  0.00000000E+00  6.21517905E-17 -6.58176008E-02
 -6.68954861E-02 -6.58176008E-02 -6.68954861E-02 -6.58176008E-02 -6.68954861E-02
 -1.27263884E-01  1.68327531E-01  0.00000000E+00 -3.12963062E-14 -1.99851672E-01
  1.81203868E+00  0.00000000E+00 -9.94449176E-14 -4.77514185E-01 -3.39336393E-02
 -3.39336393E-02 -2.89955611E-02  0.00000000E+00  0.00000000E+00  2.34414671E-15
 -5.66353705E-02 -9.19858857E-01 -5.66353705E-02 -9.19858857E-01 -5.66353705E-02
 -9.19858857E-01  0.00000000E+00  0.00000000E+00 -4.18582276E-01  0.00000000E+00
  0.00000000E+00  0.00000000E+00 -1.00861496E+00  0.00000000E+00  0.00000000E+00
  0.00000000E+00  0.00000000E+00  0.00000000E+00 -7.16308216E-03  1.59691897E-02
  0.00000000E+00  0.00000000E+00  0.00000000E+00  9.14229823E-02  1.41357842E+00
 -9.14229823E-02 -1.41357842E+00  1.11153298E-14 -1.75261245E-14  0.00000000E+00
 -4.18582276E-01  2.04045432E-14 -1.50228813E-13  0.00000000E+00 -1.00861496E+00
  3.44434830E-14 -6.20341112E-03  6.20341112E-03  1.00095853E-15  0.00000000E+00
  0.00000000E+00  1.59691897E-02  1.05566167E-01  1.63225976E+00 -5.27830835E-02
 -8.16129880E-01 -5.27830835E-02 -8.16129880E-01  0.00000000E+00  0.00000000E+00
 -3.55344124E-01  0.00000000E+00  0.00000000E+00  0.00000000E+00  1.14785175E+00
  0.00000000E+00  0.00000000E+00  0.00000000E+00  0.00000000E+00  0.00000000E+00
  1.42219886E-01  8.87624403E-02  0.00000000E+00  0.00000000E+00  0.00000000E+00
 -6.72066591E-01  1.02514491E-01  6.72066591E-01 -1.02514491E-01 -7.70428449E-16
 -2.63797010E-15  0.00000000E+00 -3.55344124E-01  6.70378667E-15  1.32006530E-14
  0.00000000E+00  1.14785175E+00 -1.34692567E-14  1.23166034E-01 -1.23166034E-01
  1.74493874E-15  0.00000000E+00  0.00000000E+00  8.87624403E-02 -7.76035655E-01
  1.18373538E-01  3.88017827E-01 -5.91867692E-02  3.88017827E-01 -5.91867692E-02
  1.88514915E-02 -1.73561365E-01  0.00000000E+00 -1.47687633E-14 -9.82174614E-01
 -5.08651515E-02  0.00000000E+00  2.06751835E-14  1.11852103E+00 -4.59186717E-02
 -4.59186717E-02 -4.77100538E-02  0.00000000E+00  0.00000000E+00  6.63354897E-16
  3.97875999E-02  1.39468936E-01  3.97875999E-02  1.39468936E-01  3.97875999E-02
  1.39468936E-01  0.00000000E+00  0.00000000E+00 -9.89845092E-01  0.00000000E+00
  0.00000000E+00  0.00000000E+00  1.41414122E+00  0.00000000E+00  0.00000000E+00
  0.00000000E+00  0.00000000E+00  0.00000000E+00 -9.99048432E-02 -6.99695918E-02
  0.00000000E+00  0.00000000E+00  0.00000000E+00  4.76333642E-01 -1.27618554E+00
 -4.76333642E-01  1.27618554E+00  1.64246142E-14 -1.96211100E-13  0.00000000E+00
  9.89845092E-01  4.98386822E-14  2.88501568E-13  0.00000000E+00 -1.41414122E+00
  1.00304201E-14  8.65201322E-02 -8.65201322E-02 -6.20693998E-14  0.00000000E+00
  0.00000000E+00  6.99695918E-02 -5.50022713E-01  1.47361213E+00  2.75011356E-01
 -7.36806065E-01  2.75011356E-01 -7.36806065E-01  6.28545222E-02 -7.39226590E-01
  0.00000000E+00 -2.47405890E-13  2.40606268E-01  1.12109024E+00  0.00000000E+00
  3.55575119E-13  2.17039717E-03 -1.26235188E-02 -1.26235188E-02 -2.49114552E-01
  0.00000000E+00  0.00000000E+00 -1.68921303E-14  6.97748814E-01 -5.92639493E-01
  6.97748814E-01 -5.92639493E-01  6.97748814E-01 -5.92639493E-01 -8.91759375E-02
 -1.52768280E+00  0.00000000E+00 -3.92844554E-15  1.45121856E-01  4.08038495E+00
  0.00000000E+00  5.66503618E-15 -8.48554841E-01 -4.02186628E-01 -4.02186628E-01
 -3.86832250E-02  0.00000000E+00  0.00000000E+00 -1.85025492E-15 -3.69063400E-01
 -7.81698813E-01 -3.69063400E-01 -7.81698813E-01 -3.69063400E-01 -7.81698813E-01
 -4.68128427E-16  1.20643285E-15  0.00000000E+00  1.86081155E-02  1.76196177E-15
 -4.33820394E-16  0.00000000E+00  4.25190136E-02  6.40192095E-16 -5.67856031E-01
  5.67856031E-01 -9.14190016E-16  0.00000000E+00  0.00000000E+00  7.54137060E-01
 -3.51524314E-02 -4.26398171E-03  1.75762157E-02  2.13199085E-03  1.75762157E-02
  2.13199085E-03  0.00000000E+00  0.00000000E+00  1.86081155E-02  0.00000000E+00
  0.00000000E+00  0.00000000E+00  4.25190136E-02  0.00000000E+00  0.00000000E+00
  0.00000000E+00  0.00000000E+00  0.00000000E+00 -6.55703664E-01  7.54137060E-01
  0.00000000E+00  0.00000000E+00  0.00000000E+00 -3.04428986E-02 -3.69271648E-03
  3.04428986E-02  3.69271648E-03 -5.34633637E-02 -4.72648351E-01  0.00000000E+00
  6.56556111E-16 -2.00280349E-02  1.54347362E+00  0.00000000E+00  8.91233884E-16
 -4.66840607E-01  4.41608802E-01  4.41608802E-01 -1.05937600E+00  0.00000000E+00
  0.00000000E+00  3.74275939E-16 -4.63369764E-01 -2.10884173E-01 -4.63369764E-01
 -2.10884173E-01 -4.63369764E-01 -2.10884173E-01  5.27626675E-16 -9.36945135E-16
  0.00000000E+00 -6.44387243E-02  5.21812016E-16 -6.80068973E-15  0.00000000E+00
 -6.54649587E-01 -4.19278046E-16  7.87023676E-01 -7.87023676E-01  2.34243820E-15
  0.00000000E+00  0.00000000E+00  7.89125986E-01  9.12196223E-01 -3.28433153E-02
 -4.56098111E-01  1.64216577E-02 -4.56098111E-01  1.64216577E-02  0.00000000E+00
  0.00000000E+00 -6.44387243E-02  0.00000000E+00  0.00000000E+00  0.00000000E+00
 -6.54649587E-01  0.00000000E+00  0.00000000E+00  0.00000000E+00  0.00000000E+00
  0.00000000E+00  9.08776663E-01  7.89125986E-01  0.00000000E+00  0.00000000E+00
  0.00000000E+00  7.89985102E-01 -2.84431454E-02 -7.89985102E-01  2.84431454E-02
 -4.66759734E-01  1.16061350E+00  0.00000000E+00 -4.41325235E-16  1.00041880E-01
  3.20185412E+00  0.00000000E+00 -1.67262893E-15 -3.34828087E-01 -1.50158809E+00
 -1.50158809E+00 -1.52705007E+00  0.00000000E+00  0.00000000E+00  5.94216076E-16
  1.35465859E-01 -5.65352436E-01  1.35465859E-01 -5.65352436E-01  1.35465859E-01
 -5.65352436E-01
Orthonormal basis                          R   N=         441
  3.00148905E-02  1.51605060E-01 -3.40480156E-04 -6.12078029E-07 -1.99932915E-02
  1.85066437E-01 -3.01934895E-04  1.26606742E-06 -3.67595928E-02  1.31818062E-01
  1.31818471E-01  1.24061595E-01  1.77532935E-04  1.43714885E-04 -1.68411556E-08
  8.95532199E-02  1.38127143E-01  8.86538814E-02  1.37448252E-01  9.04538233E-02
  1.38801477E-01 -2.21153779E-04 -4.52368043E-04  2.73266676E-01  8.81320960E-03
 -1.35618037E-04  6.01535985E-04  3.72588648E-01  1.10635512E-02 -1.03313917E-03
 -1.54219237E-03  1.36464824E-03 -1.09651161E-04 -9.73327350E-02 -8.25082798E-02
 -2.76196495E-03  9.32175714E-03  7.13890858E-03  2.47790066E-01  1.76156264E-01
 -2.55244437E-01 -1.78082228E-01  3.03406453E-06  6.56728323E-06 -7.54136802E-03
  2.78494818E-01  2.07672377E-06 -1.94273937E-05 -1.12173356E-02  3.78929396E-01
  2.56240546E-05 -4.55406863E-02  4.55423594E-02 -5.76771049E-07  2.66945352E-03
  2.14769678E-03 -8.31319600E-02  2.89024672E-01  2.06658883E-01 -1.51882079E-01
 -1.09284385E-01 -1.37192922E-01 -9.75242267E-02  6.07072559E-02  1.67868757E-01
  2.15503821E-03  6.95914292E-06  4.54858458E-01  1.00011422E-01  1.37201662E-03
  3.77590630E-06  5.02423602E-01  9.32845293E-02  9.32831085E-02  1.29873923E-01
 -6.76533270E-04 -5.29793568E-04  1.09046415E-07 -1.12023083E-01 -6.95609293E-02
 -1.11790589E-01 -6.98911475E-02 -1.12266429E-01 -6.92310934E-02  2.42003376E-03
  2.13843370E-03  3.27373029E-01 -5.89502717E-04 -2.68288950E-03 -5.30904470E-04
  2.52221775E-01  9.90876723E-04 -5.50500252E-04  1.05766385E-03  3.27230125E-04
  7.23724525E-04  6.07875560E-01  5.15271462E-01  2.54016604E-03 -5.96119455E-04
 -9.22468466E-04 -1.87601391E-01  3.25909100E-02  1.86731409E-01 -3.74411804E-02
  9.08549764E-06 -4.99600882E-06 -2.27043291E-03  2.94006078E-01  1.08788863E-05
  5.63512796E-07 -1.37244398E-04  2.06598897E-01  3.08137852E-06  1.11459947E-01
 -1.11474684E-01 -3.03304160E-06 -1.80745587E-03 -3.66287628E-04  8.42196306E-01
 -2.02286913E-01  2.48862698E-02  1.01969607E-01 -1.16866830E-02  1.00321319E-01
 -1.31669474E-02  9.49364491E-01  1.68848917E-01  1.35584938E-03 -2.80741516E-06
 -1.54657861E-01 -1.84383134E-03 -2.50657658E-04 -2.06653360E-06 -7.42862243E-02
 -6.17490661E-02 -6.17499432E-02  4.46583110E-04 -4.63439659E-03 -2.14702017E-03
 -8.57037646E-06 -5.72776652E-02 -6.74761803E-02 -5.74775416E-02 -6.79587560E-02
 -5.70888770E-02 -6.69984551E-02 -1.35311135E-03 -1.67043863E-04 -6.00087797E-08
 -4.54348039E-09  9.63630503E-05  2.04557665E-05  1.11052862E-07 -1.00060836E-09
  3.44348255E-05  1.00583865E-04  1.00584079E-04  8.70646616E-05 -6.46603781E-01
  7.62824043E-01 -1.05591030E-03 -1.68772025E-06  8.11914200E-05 -1.79484079E-06
  8.10952895E-05 -1.57987308E-06  8.12834000E-05 -2.53743552E-01  4.55230063E-01
  1.72780829E-02 -6.97435249E-04 -5.39262449E-01 -2.10633646E-02 -1.57747332E-03
 -8.14107365E-05 -4.08379090E-02  7.40062966E-02  7.52991254E-02  5.89904995E-01
 -1.02208052E-02 -8.94090574E-03  6.25022840E-04 -1.70938131E-01 -2.81319150E-01
 -1.75908107E-01 -2.86419299E-01 -1.67063417E-01 -2.76660298E-01 -3.28842238E-04
  6.90157066E-04 -9.50985688E-03  4.93951659E-01 -7.83541346E-04 -3.98118594E-05
  1.97113757E-03  6.42571413E-02 -2.53412273E-05  6.02580776E-01 -6.02442000E-01
  9.42490650E-04  4.31330188E-03  3.04718564E-03 -4.39703045E-01 -2.66676478E-01
 -9.09195037E-02  1.35169260E-01  4.80270014E-02  1.30846219E-01  4.16245125E-02
  2.64186746E-02 -2.23706612E-01 -5.23705012E-03  3.63695639E-05  2.16031740E-01
  7.56427003E-02 -5.86328817E-04 -4.18934357E-05 -1.09170739E-01 -5.39853481E-01
 -5.39558238E-01  7.54886334E-01  4.67750200E-03  3.91876694E-03  1.57098695E-05
 -1.09143864E-01  2.35003548E-01 -1.07349528E-01  2.35765207E-01 -1.10976826E-01
  2.34314832E-01  1.41658215E-03 -1.27656731E-02  1.02017526E+00 -2.77681279E-02
  1.16239738E-02  2.62258213E-03 -3.76637932E-01  1.35504634E-02 -4.66481155E-03
  2.21827740E-02 -2.80487730E-02 -1.22658120E-02 -2.48538199E-01 -2.10672012E-01
  1.97332003E-03 -3.05436070E-03  2.29043503E-02 -1.21563978E-01 -3.35822937E-01
  1.16045976E-01  3.43078267E-01  2.42615330E-05 -3.57493582E-04  3.97274497E-02
  9.02925127E-01  3.03215840E-04  9.06049091E-05 -1.85524488E-02 -4.54321510E-01
 -1.67261039E-04 -4.19003360E-01  4.18969335E-01 -4.64909540E-04 -5.75595355E-03
 -4.98501972E-03 -7.65194973E-02 -3.66047504E-03 -3.94378130E-01 -4.89791741E-04
  1.83626437E-01  3.78527902E-03  2.11621843E-01  2.69932957E-02 -4.00466190E-01
 -2.34757904E-04 -1.26140669E-05 -8.96160287E-01  2.62910073E-01 -7.63470161E-04
  9.25255795E-06  1.01280982E+00 -1.06957985E-01 -1.06945715E-01 -1.29813413E-01
  9.00716124E-04  7.56062823E-04 -2.45227490E-06 -6.26374127E-02  2.21268915E-01
 -6.22904499E-02  2.20841348E-01 -6.29671989E-02  2.21686712E-01  1.33227083E-01
 -3.13449167E-01  1.42685427E-02 -2.26160538E-04  2.71407530E-02 -1.07549320E-01
 -2.50433816E-02  3.45420538E-04  3.82189644E-01 -1.34157729E-01 -1.33905367E-01
  5.07891117E-01  1.10405700E-02  9.62206094E-03 -8.48955903E-05  8.19776903E-01
 -4.10031268E-01  8.46635423E-01 -4.24184809E-01  7.94133689E-01 -3.96441695E-01
 -6.15205291E-03  3.20521772E-02 -4.40733190E-02 -1.70913864E-03 -8.44731885E-03
  2.62954387E-03 -7.85505465E-01  1.08831837E-01 -1.06269352E-02 -8.29643801E-02
  8.81744551E-02 -1.80104104E-02  6.27838526E-01  5.32083490E-01 -6.98418079E-02
 -2.01687840E-01  7.75548542E-02  1.16840700E+00 -4.39570603E-01 -1.04503406E+00
  3.89748229E-01 -8.51893792E-04  4.75714212E-03 -1.70793381E-02 -6.50851943E-02
 -1.24909100E-03  3.42800825E-04 -1.10785472E-01 -7.40750800E-01 -1.32232242E-03
  6.18862684E-01 -6.18449628E-01 -2.44845124E-03  9.45402404E-02  8.08518349E-02
  5.17032193E-01  1.25956820E+00 -4.81080436E-01 -4.70582089E-01  1.81820755E-01
 -7.99225919E-01  3.02756459E-01 -3.68100999E-01  1.95793220E+00  1.27450054E-02
 -6.55392571E-05 -4.83054764E-02 -2.02625522E-01 -1.61770690E-02  5.76472535E-04
  4.05703852E-01 -1.08941296E+00 -1.08918122E+00 -8.78067839E-01 -6.85386668E-03
 -5.70433937E-03 -1.14603708E-04  3.44441196E-01  1.66547457E-01  3.29534572E-01
  1.91321628E-01  3.59639171E-01  1.43261161E-01  5.95893925E-03 -1.75209277E-02
  3.93469977E-01 -3.69675132E-01 -1.29533596E-03 -1.53571486E-02 -1.42223328E+00
  1.34107575E+00 -4.13398940E-04 -7.90521024E-02  1.16754608E-01  1.73482163E-02
  1.11383498E-01  9.42881636E-02 -9.07951271E-02  5.23025230E-02 -1.43416623E+00
 -9.20131795E-02  2.04443588E+00  2.43749748E-02 -6.03831207E-01 -5.50631248E-03
  1.55451112E-02 -3.68863142E-01 -3.91255898E-01  1.30476889E-03  1.51275926E-02
  1.35206256E+00  1.43887919E+00  8.53191262E-05 -1.24351041E-01  8.94323769E-02
 -1.61364445E-02 -1.08072834E-01 -9.17453994E-02 -9.95208027E-02  5.77415676E-02
 -1.54555049E+00  2.62341658E-02 -4.90974671E-01 -6.99406365E-02  2.02988968E+00
 -3.93603753E-01 -5.28322109E-01  4.26867205E-03  4.76596444E-05  1.95195392E-01
  5.82738527E+00 -3.27375418E-02 -3.59681168E-04 -1.06746274E+00 -1.03528819E+00
 -1.03533742E+00 -1.23522752E+00  3.58615665E-03  2.93324958E-03  2.95793098E-05
 -1.54284380E-01 -1.33690268E+00 -1.54247540E-01 -1.29922182E+00 -1.54409584E-01
 -1.37608336E+00
Total SCF Density                          R   N=         231
  2.06158931E+00 -1.21493728E-01  4.01813264E-01  3.60873570E-04 -1.08418435E-03
  4.64560798E-01  4.34880106E-06 -7.53646793E-06  1.47221905E-03  4.64559579E-01
 -4.06244176E-02  8.56450768E-02  1.72076231E-03  3.14958729E-06  6.38380414E-01
 -2.14284563E-01  4.67476659E-01  2.42775161E-03  1.17751694E-05  2.78903601E-01
  5.98041816E-01 -2.33221435E-04  3.35255640E-04  2.38506981E-01 -4.58410967E-04
  4.44159888E-04  2.10766492E-03  1.22456043E-01 -1.66371301E-06  5.19887366E-06
 -4.58375179E-04  2.38511127E-01 -2.34249122E-06  6.76180937E-06 -8.58740328E-04
  1.22457990E-01 -4.68618835E-02  1.04910851E-01  2.47208813E-04 -5.14410493E-06
  5.27751131E-01  2.68249837E-01 -1.52901650E-04 -2.30228195E-06  4.39281288E-01
 -2.02155865E-02  7.85539793E-03 -2.95642923E-04 -1.31507682E-02  7.56475151E-03
  1.14401122E-02 -1.04526638E-04 -6.75099333E-03  6.87975296E-03  7.36681764E-04
 -2.02158233E-02  7.85493548E-03  2.03492278E-04  1.31529389E-02  7.56641989E-03
  1.14439850E-02  8.29848682E-05  6.75259641E-03  6.87972467E-03 -8.13123010E-06
  7.36763250E-04 -7.70464250E-03 -1.89965865E-02  2.35059801E-05  1.95271667E-06
 -4.53114008E-02 -3.35387034E-02  1.29450226E-05  7.06748375E-07 -3.85657412E-02
 -6.37279994E-04 -6.37172226E-04  3.74650160E-03 -4.14236139E-05  1.19408102E-04
 -1.51870898E-02 -2.88173718E-04  1.43679105E-05  3.36580881E-05 -7.79633936E-03
 -1.08258196E-04  5.68173285E-05  1.86280376E-05 -1.12800028E-05 -8.22584417E-06
  4.96631563E-04  7.55482561E-06  2.10612658E-05 -3.42129063E-02 -5.03463862E-05
 -5.23962850E-04 -3.58629716E-04 -1.75649065E-02  6.35745290E-05 -3.47096104E-04
  1.52617285E-05 -1.82092641E-05  2.65948803E-05  1.11838889E-03  2.51988806E-03
  5.76246561E-08  9.89357661E-08 -5.03551150E-05 -3.42129801E-02 -1.44899174E-06
 -1.33782357E-06  6.35735958E-05 -1.75655553E-02 -7.85744454E-07  9.68449442E-04
 -9.68662831E-04 -3.64206044E-08  1.93244513E-05 -5.67775972E-07  2.51965826E-03
 -4.51339137E-02  9.45391632E-02  4.94209365E-04  2.69597355E-01 -1.05484085E-01
  7.43464455E-02 -1.11993306E-04  1.38417482E-01 -7.76807283E-02 -6.80630109E-03
  8.45845377E-03  4.03042427E-03 -1.46359343E-04  6.13482545E-05 -1.98546276E-02
  2.04343346E-01  4.70598898E-03 -1.20511829E-02  5.21709896E-04  1.88369133E-01
 -7.67896592E-02 -3.54435538E-02 -1.75859560E-04  9.67113476E-02 -6.36371581E-02
 -6.26686618E-03  4.39866815E-03  5.51411760E-03 -1.23215780E-04  3.29329582E-05
 -1.38724801E-02  1.21525649E-01  8.56250063E-02 -4.45316654E-02  9.31475964E-02
  2.32819001E-01 -1.34134058E-01 -1.04956406E-01  7.45148808E-02  1.20219734E-01
 -6.94742433E-02 -7.78996352E-02  4.47527978E-03 -2.91046316E-03  4.08989167E-03
 -7.53255033E-03 -1.70987183E-02  9.90779885E-03 -3.03060273E-02 -4.21729410E-02
  2.03383378E-01  4.57272844E-03 -1.18923341E-02  1.64317087E-01 -9.45684494E-02
 -7.76054491E-02 -3.44037098E-02  8.46608708E-02 -4.89830601E-02 -6.46595770E-02
  1.64957134E-03 -3.55762855E-03  5.59912274E-03 -5.33144752E-03 -1.20644536E-02
  6.98534546E-03 -4.23591408E-02 -2.89588388E-02  1.22648163E-01  8.71692801E-02
 -4.57445514E-02  9.59419517E-02 -2.34137258E-01 -1.35465835E-01 -1.06016945E-01
  7.41572777E-02 -1.19513971E-01 -6.89374750E-02 -7.74533684E-02  4.80734613E-03
 -3.07172051E-03  3.96766644E-03  7.73315640E-03  1.72901817E-02  9.94750945E-03
 -3.03745893E-02 -4.27249110E-02 -3.03405418E-02 -4.26325561E-02  2.05307094E-01
  4.83400675E-03 -1.22033057E-02 -1.61949175E-01 -9.38037576E-02 -7.59679673E-02
 -3.64766096E-02 -8.28554821E-02 -4.77376940E-02 -6.26078725E-02  1.81223545E-03
 -3.64368082E-03  5.42686204E-03  5.33372364E-03  1.19621297E-02  6.88824052E-03
 -4.25402031E-02 -2.89318632E-02 -4.22616735E-02 -2.89456373E-02  1.20403726E-01
  8.41050071E-02
Grdnt Energy                               R     -5.654794779761251E+01
Grdnt NVar                                 I                0
Grdnt IGetFC                               I                4
Quartic Cent Dist                          R   N=          10
  0.00000000E+00  0.00000000E+00  0.00000000E+00  0.00000000E+00  0.00000000E+00
  6.69695429E-04  6.46948975E-04 -1.14918758E-03  2.52613802E-12  6.50451237E-14
Sextic Cent Dist                           R   N=          14
  0.00000000E+00  0.00000000E+00  0.00000000E+00  0.00000000E+00  0.00000000E+00
  0.00000000E+00  0.00000000E+00  1.44492672E-07 -2.12558650E-07 -4.91492593E-07
  5.72813506E-07 -1.94731630E-15 -8.03227858E-16 -4.01006067E-09
Mulliken Charges                           R   N=           4
 -8.87624948E-01  2.95885986E-01  2.94048392E-01  2.97690570E-01
APT Charges                                R   N=           4
 -4.04581398E-01  1.34864451E-01  1.33329153E-01  1.36387793E-01
Optimization MaxStp                        I                2
Optimization MaxJob                        I                1
Optimization Job offset                    I                0
Optimization Num results per geometry      I                8
Optimization Num geometry variables        I               12
Optimization Reference Energy              R     -5.600000000000000E+01
Optimization Number of geometries          I   N=           1
           1
Opt point       1 Results for each geome   R   N=           8
 -5.47947798E-01  0.00000000E+00  1.36085922E-05  6.87222748E-06  5.27327042E-05
  3.11110940E-05  0.00000000E+00  0.00000000E+00
Opt point       1 Geometries               R   N=          12
  0.00000000E+00  0.00000000E+00  1.33493732E-01 -7.42498863E-17  1.77375363E+00
 -6.18269556E-01  1.53611571E+00 -8.86876816E-01 -6.18269556E-01 -1.53611571E+00
 -8.86876816E-01 -6.18269556E-01
Opt point       1 Gradient at each geome   R   N=          12
  9.76979116E-16 -1.49782645E-15  2.89164051E-06 -4.08427250E-16  1.36085922E-05
 -9.63880170E-07  1.17853866E-05 -6.80429611E-06 -9.63880170E-07 -1.17853866E-05
 -6.80429611E-06 -9.63880170E-07
ONIOM Charges                              I   N=          16
           0           0           0           0           0           0
           0           0           0           0           0           0
           0           0           0           0
ONIOM Multiplicities                       I   N=          16
           1           0           0           0           0           0
           0           0           0           0           0           0
           0           0           0           0
Atom Layers                                I   N=           4
           1           1           1           1
Atom Modifiers                             I   N=           4
           0           0           0           0
Int Atom Modified Types                    I   N=           4
           0           0           0           0
Atom Modified Types                        C   N=           4
                                                
Link Atoms                                 I   N=           4
           0           0           0           0
Atom Modified MM Charges                   R   N=           4
  0.00000000E+00  0.00000000E+00  0.00000000E+00  0.00000000E+00
Link Distances                             R   N=          16
  0.00000000E+00  0.00000000E+00  0.00000000E+00  0.00000000E+00  0.00000000E+00
  0.00000000E+00  0.00000000E+00  0.00000000E+00  0.00000000E+00  0.00000000E+00
  0.00000000E+00  0.00000000E+00  0.00000000E+00  0.00000000E+00  0.00000000E+00
  0.00000000E+00
Cartesian Gradient                         R   N=          12
  9.76979116E-16 -1.49782645E-15  2.89164051E-06 -4.08427250E-16  1.36085922E-05
 -9.63880170E-07  1.17853866E-05 -6.80429611E-06 -9.63880170E-07 -1.17853866E-05
 -6.80429611E-06 -9.63880170E-07
Cartesian Force Constants                  R   N=          78
  6.29727881E-01 -3.81034567E-13  6.29727864E-01 -5.11234955E-13  2.66769919E-08
  2.35107118E-01 -6.38510388E-02 -1.26098660E-15  1.76675451E-16  6.21434022E-02
 -1.25307007E-15 -3.55967530E-01  1.16448762E-01  1.25050125E-15  3.91531843E-01
  4.09376953E-16  1.77926055E-01 -7.83690430E-02 -3.08883388E-16 -1.39392734E-01
  7.63998821E-02 -2.82938414E-01  1.26490153E-01  1.00847590E-01  8.53816155E-04
 -3.10342206E-03  2.12309486E-03  3.09184733E-01  1.26490155E-01 -1.36880164E-01
 -5.82243878E-02  3.53818694E-02 -1.77821541E-02 -1.92666609E-02 -1.42629379E-01
  1.44490512E-01  1.54088487E-01 -8.89630344E-02 -7.83690404E-02 -1.56238703E-02
  1.14719845E-02  9.84580458E-04 -1.20717648E-01  6.96963668E-02  7.63998821E-02
 -2.82938414E-01 -1.26490153E-01 -1.00847590E-01  8.53816155E-04  3.10342206E-03
 -2.12309486E-03 -2.71001393E-02 -1.92426458E-02 -1.77469652E-02  3.09184733E-01
 -1.26490155E-01 -1.36880164E-01 -5.82243878E-02 -3.53818694E-02 -1.77821541E-02
 -1.92666609E-02  1.92426458E-02  1.01718013E-02  7.79467636E-03  1.42629379E-01
  1.44490512E-01 -1.54088487E-01 -8.89630344E-02 -7.83690404E-02  1.56238703E-02
  1.14719845E-02  9.84580458E-04  1.77469652E-02  7.79467636E-03  9.84580458E-04
  1.20717648E-01  6.96963668E-02  7.63998821E-02
Cartesian 3rd/4th derivatives              R   N=         936
  2.84359163E-01  2.59481310E-11  2.84188544E-01  2.44272985E-11  5.02178802E-05
 -3.36077257E-01 -1.50612437E-02 -6.20052559E-14 -1.68654735E-14 -1.48176238E-04
  4.51993769E-15 -1.74458118E-01 -2.73333750E-02  1.61963584E-13  1.43071523E-01
  1.68408444E-14 -5.34515838E-02  1.12049258E-01 -2.04184815E-14  4.17034854E-02
 -9.42841416E-02 -1.34648960E-01  6.90225426E-02 -2.36540926E-02  7.60470998E-03
 -6.42439221E-03 -4.90887044E-03  1.07307389E-01  6.90196182E-02 -5.48652126E-02
  1.36415786E-02 -7.59217012E-03  1.56932978E-02  5.87404921E-03 -6.20127992E-02
  3.56144004E-02 -4.62779751E-02  2.67006830E-02  1.12013999E-01  2.63459949E-03
 -7.18505522E-03 -8.88255833E-03  3.61031693E-02 -2.08293704E-02 -9.42477106E-02
 -1.34648960E-01 -6.90225426E-02  2.36540926E-02  7.60470998E-03  6.42439221E-03
  4.90887044E-03  1.97368607E-02  5.85351161E-04  7.54020628E-03  1.07307389E-01
 -6.90196182E-02 -5.48652126E-02  1.36415785E-02  7.59217012E-03  1.56932978E-02
  5.87404921E-03 -5.85351161E-04  3.55751429E-03  1.31374268E-03  6.20127993E-02
  3.56144004E-02  4.62779751E-02  2.67006830E-02  1.12013999E-01 -2.63459949E-03
 -7.18505522E-03 -8.88255833E-03 -7.54020628E-03  1.31374268E-03 -8.88373053E-03
 -3.61031693E-02 -2.08293704E-02 -9.42477106E-02  2.68174714E-01 -2.31435550E-12
 -2.68247061E-01  6.51072181E-12 -5.28998136E-02  2.01296916E-05 -1.06773686E-02
 -1.45103398E-14  1.63612380E-15  2.30661514E-02 -1.76842657E-14  9.36951922E-02
  7.81761728E-03 -3.26422518E-15 -6.23049070E-02 -1.62651326E-14  6.54110157E-03
 -3.75413417E-02  5.67934441E-15 -1.31656674E-02  2.14068727E-02 -1.28748673E-01
 -2.91172732E-02  8.45145431E-03 -6.19439140E-03  1.00921678E-02  5.90152536E-03
  8.90271295E-02 -3.53062329E-02  8.72759345E-02  2.25410982E-02  1.21531264E-02
 -1.56951426E-02  3.31228293E-03  2.10891059E-02 -6.94599483E-02  9.55954607E-03
  2.31793560E-02  1.87606060E-02  5.53431617E-03  2.67402508E-03  8.06723449E-03
 -1.47234210E-02 -3.87354880E-02 -1.06964661E-02 -1.28748673E-01  2.91172732E-02
 -8.45145431E-03 -6.19439140E-03 -1.00921678E-02 -5.90152536E-03  4.59159346E-02
  2.06400056E-03 -3.70441285E-04  8.90271295E-02  3.53062329E-02  8.72759345E-02
  2.25410982E-02 -1.21531264E-02 -1.56951426E-02  3.31228293E-03 -2.06400056E-03
 -2.12084368E-03  1.28821069E-02 -2.10891059E-02 -6.94599483E-02 -9.55954608E-03
  2.31793560E-02  1.87606060E-02 -5.53431617E-03  2.67402508E-03  8.06723449E-03
  3.70441285E-04  1.28821069E-02 -1.61313744E-02  1.47234210E-02 -3.87354880E-02
 -1.06964661E-02 -2.36999181E-11 -2.68245065E-01  2.98454645E-12  5.28014784E-02
  1.19411010E-11 -3.73418002E-11 -5.87610777E-14  1.30252263E-01 -2.74222331E-02
 -5.87428133E-14  1.23097431E-01  5.90882770E-11 -1.64501311E-11 -9.14833147E-02
 -5.91925620E-11 -2.86911519E-02 -1.64236933E-11  6.89143041E-12  4.72385001E-02
  1.64325051E-11 -6.76805442E-12 -3.74090593E-03  6.89964011E-02 -1.26896227E-02
  7.83953430E-03 -1.58070582E-02 -9.27367410E-03 -4.09862837E-03  7.25738171E-02
 -6.81785598E-02 -8.51585268E-03 -1.93844743E-02  3.00763072E-02 -5.90472722E-03
 -5.48542789E-02  3.81022526E-02 -1.20551633E-02 -9.61983124E-03  3.24999134E-02
 -9.90813348E-03 -5.52401147E-03 -1.39692282E-02  2.16527549E-02  1.47822113E-02
 -1.85306853E-02  3.74090593E-03  6.89964011E-02 -1.26896227E-02 -7.83953430E-03
 -1.58070582E-02 -9.27367410E-03  3.01094777E-14  1.66493606E-03  3.10541859E-04
  4.09862836E-03  7.25738171E-02  6.81785598E-02  8.51585269E-03 -1.93844743E-02
 -3.00763072E-02  5.90472722E-03  1.66493606E-03 -7.16035321E-15  3.61631410E-04
 -5.48542789E-02 -3.81022526E-02 -1.20551633E-02  9.61983125E-03 -3.24999134E-02
 -9.90813348E-03  5.52401147E-03  1.39692282E-02  3.10541859E-04 -3.61631410E-04
  2.93752362E-14  2.16527549E-02 -1.47822113E-02  1.85306853E-02 -9.77163138E-01
 -1.18046765E-11 -9.77070435E-01 -1.51597289E-11  1.27830204E-05 -1.39763471E-01
 -7.31720311E-02  6.22830484E-13  3.69712842E-13  8.15383551E-02  1.08095554E-12
  7.24503880E-01 -3.41221757E-01 -1.60235465E-12 -7.45704431E-01 -4.25502838E-13
 -3.69417058E-01  4.65566357E-02  2.43508874E-13  3.50315108E-01 -2.92105901E-02
  5.25167584E-01 -3.45397086E-01 -2.95567363E-01 -4.18316201E-03  4.23810867E-03
  2.61825189E-04 -5.38975471E-01 -3.45403696E-01  1.26283277E-01  1.70604487E-01
 -2.98458756E-02  1.06002753E-02  9.55097524E-03  3.58204274E-01 -1.25310503E-01
 -3.19986364E-01  1.84702138E-01  4.66034177E-02  8.40217287E-03 -4.54667559E-03
 -8.67302279E-03  3.03444864E-01 -1.75154651E-01 -2.92568820E-02  5.25167584E-01
  3.45397086E-01  2.95567363E-01 -4.18316201E-03 -4.23810867E-03 -2.61825189E-04
  1.79910484E-02  1.70452970E-02  8.13932643E-03 -5.38975471E-01  3.45403696E-01
  1.26283277E-01  1.70604487E-01  2.98458756E-02  1.06002753E-02  9.55097524E-03
 -1.70452970E-02 -1.15730497E-02 -5.00081145E-03 -3.58204274E-01 -1.25310503E-01
  3.19986364E-01  1.84702138E-01  4.66034177E-02 -8.40217287E-03 -4.54667559E-03
 -8.67302279E-03 -8.13932643E-03 -5.00081145E-03 -8.67351300E-03 -3.03444864E-01
 -1.75154651E-01 -2.92568820E-02  9.71832578E-01 -5.98535936E-12 -9.71881911E-01
  2.32567284E-14  8.25268437E-01  9.15668817E-05 -1.59344739E-01  9.41287874E-14
  2.70138976E-14  1.40624439E-01  8.53084017E-14  1.08650771E+00 -5.38869463E-01
 -1.50099991E-13 -1.07339618E+00 -3.41854880E-14 -5.62560973E-01  5.95392433E-02
  2.54381338E-14  5.34872591E-01 -5.67265334E-02 -4.06243919E-01  2.43262218E-01
  2.28353326E-01  9.36014983E-03 -4.32067455E-03 -5.24884957E-03  4.08175282E-01
  2.74331018E-01 -5.73128987E-02 -1.43199487E-01 -1.46719684E-02 -6.55576617E-03
  1.38441914E-02 -2.49300297E-01  5.81876486E-02  2.48882948E-01 -1.31353732E-01
 -2.98154051E-02 -1.23622607E-03  1.99843602E-03 -1.40635496E-03 -2.35375599E-01
  1.27046877E-01  2.84062896E-02 -4.06243919E-01 -2.43262218E-01 -2.28353326E-01
  9.36014983E-03  4.32067455E-03  5.24884957E-03 -1.12915122E-02 -1.03587529E-02
 -1.22711228E-02  4.08175282E-01 -2.74331018E-01 -5.73128987E-02 -1.43199487E-01
  1.46719684E-02 -6.55576617E-03  1.38441914E-02  1.03587529E-02  5.68101623E-03
  2.30841836E-03  2.49300297E-01  5.81876486E-02 -2.48882948E-01 -1.31353732E-01
 -2.98154051E-02  1.23622607E-03  1.99843602E-03 -1.40635496E-03  1.22711228E-02
  2.30841836E-03  2.81547041E-03  2.35375599E-01  1.27046877E-01  2.84062896E-02
 -2.99861597E-11 -9.71841933E-01 -1.82595654E-11 -8.25428987E-01  3.21318194E-12
  1.94111561E-11  9.87005840E-13  7.09687568E-03  1.13979501E-02 -9.75255242E-13
  4.29697714E-02 -5.17004366E-12  3.67189975E-13 -3.10453250E-02  5.67089194E-12
 -1.23105938E-02  8.54819888E-13  2.05039149E-12  8.81465039E-03 -5.49317286E-13
 -2.26776823E-12 -6.60400999E-01  4.82372529E-01  4.07015518E-01  7.06713616E-03
 -5.96222317E-03  1.74797173E-03  6.53333863E-01  4.64436081E-01 -1.42645187E-01
 -2.28365817E-01  1.19742247E-02 -1.19226707E-02 -5.60801022E-03 -4.62968354E-01
  1.54567858E-01  4.18869790E-01 -2.48900643E-01 -5.16293246E-02 -1.01063003E-02
  1.20916608E-02  2.43908454E-03 -3.98971532E-01  2.35391405E-01  4.91902401E-02
  6.60400999E-01  4.82372529E-01  4.07015518E-01 -7.06713616E-03 -5.96222317E-03
  1.74797173E-03 -3.08622450E-13 -1.34419518E-02 -9.79195824E-03 -6.53333863E-01
  4.64436081E-01  1.42645187E-01  2.28365817E-01  1.19742247E-02  1.19226707E-02
  5.60801022E-03 -1.34419518E-02  2.08198112E-13  1.41757767E-03 -4.62968354E-01
 -1.54567858E-01  4.18869790E-01  2.48900643E-01  5.16293246E-02 -1.01063003E-02
 -1.20916608E-02 -2.43908454E-03 -9.79195824E-03 -1.41757767E-03  1.58075490E-13
 -3.98971532E-01 -2.35391405E-01 -4.91902401E-02 -3.61527280E-01 -4.34792465E-10
 -3.30896757E-01 -8.58888038E-10 -4.52051469E-03 -2.27342801E-01 -5.92471870E-03
  6.37603609E-12 -4.31763439E-12  1.08581520E-02  4.15880481E-12  2.75830380E-01
 -1.93900108E-01 -1.12325180E-11 -2.67443827E-01 -3.54233206E-12 -2.62501561E-01
  8.04128927E-02  3.06370032E-12  2.14272496E-01 -5.74863235E-02  1.83687757E-01
 -9.02383898E-02 -1.80702216E-01 -2.45467820E-03  1.15869695E-02  3.11209981E-03
 -1.74365337E-01 -9.11732103E-02  2.75184494E-02  9.91729950E-02 -3.07195773E-03
 -4.20437686E-03  2.41143409E-02  8.64555171E-02 -2.45092282E-02 -2.40112072E-01
  1.33473651E-01  7.34800156E-02  2.17830485E-02 -1.01800020E-02 -1.14633087E-02
  1.97947918E-01 -1.08765787E-01 -5.02180930E-02  1.83687758E-01  9.02383902E-02
  1.80702217E-01 -2.45467820E-03 -1.15869695E-02 -3.11209981E-03 -6.84153223E-03
  7.79124712E-03  2.03656315E-02 -1.74365339E-01  9.11732108E-02  2.75184496E-02
  9.91729960E-02  3.07195774E-03 -4.20437686E-03  2.41143409E-02 -7.79124712E-03
  1.22099746E-03 -1.44903542E-02 -8.64555175E-02 -2.45092283E-02  2.40112072E-01
  1.33473652E-01  7.34800165E-02 -2.17830485E-02 -1.01800020E-02 -1.14633087E-02
 -2.03656315E-02 -1.44903542E-02 -1.18136500E-02 -1.97947919E-01 -1.08765788E-01
 -5.02180939E-02 -5.98592364E-01 -1.78938768E-09 -2.62564955E-01  7.83915056E-10
 -1.64589508E-01 -1.81612009E-01  4.65328843E-02  3.94651912E-12 -9.47139740E-13
 -9.69711978E-03  9.46333097E-12  9.55004685E-02 -2.02341332E-02 -5.05939445E-12
 -1.06658447E-01 -3.08540008E-12 -4.29584453E-02  3.30492665E-02  2.40899853E-13
  1.44759103E-02 -3.45082097E-02  2.75991499E-01 -1.69350574E-01 -1.29454548E-01
 -1.84058438E-02  1.16711514E-02 -1.69861255E-03 -2.42602457E-01 -2.18512011E-01
  8.35175008E-02  9.23745041E-02 -5.05591928E-03  5.56788894E-03  1.42410761E-02
  1.90630899E-01 -7.39049289E-02 -1.77369140E-01  1.03736589E-01  7.42964333E-02
 -1.25736278E-04  2.88530358E-03  7.29447544E-04  1.54312367E-01 -9.47026567E-02
 -7.56730158E-02  2.75991497E-01  1.69350576E-01  1.29454547E-01 -1.84058438E-02
 -1.16711513E-02  1.69861255E-03 -1.49569886E-02  3.29386266E-02  2.31670360E-02
 -2.42602456E-01  2.18512012E-01  8.35175016E-02  9.23745051E-02  5.05591929E-03
  5.56788895E-03  1.42410761E-02 -3.29386266E-02 -1.51546190E-02 -1.18817290E-02
 -1.90630901E-01 -7.39049297E-02  1.77369139E-01  1.03736590E-01  7.42964342E-02
  1.25736280E-04  2.88530358E-03  7.29447542E-04 -2.31670360E-02 -1.18817290E-02
  6.32098888E-04 -1.54312366E-01 -9.47026577E-02 -7.56730167E-02 -2.90810564E-01
  5.17328855E-09 -5.69104423E-01  4.42622750E-09  1.53654807E-01 -1.81624794E-01
 -5.62764133E-02 -5.20063897E-11  9.94224150E-12  6.61238261E-02 -4.79216642E-11
  5.66208732E-01 -1.87086722E-01  4.85984771E-11 -5.26046697E-01  1.39243429E-11
 -2.42441240E-01  9.76461660E-02 -1.03525615E-11  2.20123336E-01 -9.94689270E-02
  1.73505250E-01 -5.77962202E-02 -7.65586898E-02 -4.91166795E-03  1.88649070E-02
  2.54589365E-03 -1.69932913E-01 -1.05744041E-02  1.43311044E-03  1.66786427E-02
 -3.00253936E-02 -2.00921174E-02  1.11587605E-02  3.97727783E-02  2.57458259E-02
 -9.61883461E-02  4.43558310E-02  4.20043755E-02  2.12604589E-02 -1.65121150E-02
  9.11356438E-04  7.44586901E-02 -2.68440145E-02 -4.32323319E-02  1.73505241E-01
  5.77962151E-02  7.65586854E-02 -4.91166794E-03 -1.88649070E-02 -2.54589366E-03
  1.36553995E-03  8.28615503E-04  4.53723836E-04 -1.69932904E-01  1.05743990E-02
  1.43310731E-03  1.66786404E-02  3.00253936E-02 -2.00921174E-02  1.11587605E-02
 -8.28615511E-04 -7.06097704E-03 -9.62194177E-04 -3.97727732E-02  2.57458291E-02
  9.61883416E-02  4.43558287E-02  4.20043736E-02 -2.12604589E-02 -1.65121150E-02
  9.11356433E-04 -4.53723836E-04 -9.62194173E-04  3.01563878E-04 -7.44586857E-02
 -2.68440121E-02 -4.32323299E-02  1.47167132E+00 -5.55627140E-09  1.50011307E+00
 -2.53883054E-09 -5.43975170E-03  3.34410741E-02  2.79063699E-01 -3.39704523E-12
 -2.42850524E-12 -3.03108800E-01  1.39403218E-12 -1.23354755E+00  6.83629948E-01
  6.22405521E-12  1.20714153E+00 -3.80179746E-12  7.26987784E-01 -6.44116962E-03
 -1.14433458E-12 -6.98560741E-01 -3.16941707E-02 -8.75405759E-01  6.84927667E-01
  5.78841280E-01  1.20345887E-02 -1.96221872E-02  1.37403669E-03  8.51311614E-01
  6.84006319E-01 -1.33297504E-01 -3.39132416E-01  2.30339958E-02  1.31919095E-02
 -1.42137129E-02 -6.86165674E-01  1.05914142E-01  6.16449463E-01 -3.60811404E-01
 -1.34848955E-02 -1.22861531E-02  7.47158856E-03  1.90676461E-02 -5.92200965E-01
  3.47191404E-01 -2.43067832E-02 -8.75405753E-01 -6.84927661E-01 -5.78841278E-01
  1.20345887E-02  1.96221872E-02 -1.37403669E-03  1.20857649E-02 -2.08730444E-02
 -1.19778181E-02  8.51311609E-01 -6.84006313E-01 -1.33297501E-01 -3.39132413E-01
 -2.30339958E-02  1.31919095E-02 -1.42137129E-02  2.08730444E-02  1.42172945E-02
  6.18591887E-03  6.86165669E-01  1.05914139E-01 -6.16449460E-01 -3.60811402E-01
 -1.34848935E-02  1.22861531E-02  7.47158855E-03  1.90676461E-02  1.19778181E-02
  6.18591887E-03  1.87089965E-02  5.92200962E-01  3.47191402E-01 -2.43067851E-02
  2.45732731E-01 -7.48609165E-09  2.76026660E+00 -2.37836651E-09 -1.22927822E+00
 -3.43883446E-02  7.23537988E-01  4.79056388E-12 -5.75508363E-12 -7.01301209E-01
  4.63251131E-12 -2.70462868E+00  1.56626595E+00 -2.99990820E-12  2.67453068E+00
 -1.34381724E-12  1.58535322E+00  3.75111816E-02  9.25347953E-13 -1.56119086E+00
 -3.46875757E-02 -4.84673604E-01  3.54958421E-01  3.22303543E-01 -1.11063514E-02
 -5.95697538E-03  7.23492858E-03  4.91601087E-01  3.57739640E-01 -2.78337010E-02
 -1.68531182E-01  1.61637697E-03  1.50378991E-02 -1.20813701E-02 -3.54171509E-01
  5.42329977E-03  3.43279819E-01 -1.78074887E-01 -1.54636005E-03  2.18585455E-03
 -2.53135197E-03 -1.41182704E-03 -3.37513724E-01  1.81276282E-01 -5.63934528E-03
 -4.84673599E-01 -3.54958414E-01 -3.22303541E-01 -1.11063514E-02  5.95697538E-03
 -7.23492858E-03  4.20507712E-03 -5.18291246E-03 -7.96742230E-03  4.91601083E-01
 -3.57739633E-01 -2.78336969E-02 -1.68531178E-01 -1.61637697E-03  1.50378991E-02
 -1.20813701E-02  5.18291246E-03  7.39834406E-03 -6.32535855E-04  3.54171501E-01
  5.42329566E-03 -3.43279816E-01 -1.78074883E-01 -1.54635704E-03 -2.18585454E-03
 -2.53135197E-03 -1.41182703E-03  7.96742229E-03 -6.32535851E-04  8.58249628E-03
  3.37513722E-01  1.81276279E-01 -5.63934829E-03  2.72719227E+00  4.79348266E-09
  2.69291980E-01  5.02536898E-09  1.21797864E+00 -3.46423631E-02 -1.15342908E-02
  8.05418197E-12 -1.83652321E-12 -8.21005140E-03  7.69196789E-12  6.38822302E-02
 -2.05761020E-02 -8.73782133E-12 -6.09824368E-02 -2.90842792E-12  3.76374170E-03
 -4.95218857E-03  1.60062828E-12 -6.41733419E-03 -5.99651665E-03 -1.35786723E+00
  1.15613840E+00  9.90086757E-01  9.88420955E-03 -1.03258553E-02  1.12288464E-03
  1.33458768E+00  1.15151693E+00 -1.66601838E-01 -5.98738583E-01 -1.87351349E-04
 -1.46099691E-03  1.32660489E-03 -1.14856384E+00  1.78626109E-01  1.00682489E+00
 -6.10908575E-01  1.98123378E-02 -8.62621865E-03  1.35029102E-02  5.47432855E-03
 -9.94715810E-01  5.98134167E-01 -2.00633011E-02 -1.35786724E+00 -1.15613841E+00
 -9.90086762E-01  9.88420955E-03  1.03258553E-02 -1.12288463E-03  1.34215458E-02
 -2.76414170E-03 -3.49833871E-03  1.33458769E+00 -1.15151693E+00 -1.66601841E-01
 -5.98738585E-01  1.87351350E-04 -1.46099691E-03  1.32660489E-03  2.76414170E-03
 -1.05374323E-02 -6.90994223E-04  1.14856385E+00  1.78626112E-01 -1.00682490E+00
 -6.10908578E-01  1.98123361E-02  8.62621865E-03  1.35029102E-02  5.47432855E-03
  3.49833871E-03 -6.90994220E-04 -5.23840135E-03  9.94715815E-01  5.98134169E-01
 -2.00632994E-02
Dipole Moment                              R   N=           3
 -1.17226099E-17 -1.67560884E-16 -7.52256015E-01
Dipole Derivatives                         R   N=          36
 -3.17642765E-01  6.67961203E-15  5.13376100E-15  4.65056958E-15 -3.17642587E-01
 -1.24151209E-07  7.15881781E-15 -3.45958484E-09 -5.78421866E-01  1.69483196E-01
 -3.30034989E-16  1.33211205E-15 -9.32817109E-15  4.22783405E-02  9.43141611E-02
  1.12782464E-14  1.92986061E-01  1.92807256E-01  7.40796684E-02  5.50813123E-02
  8.16784820E-02  5.50812541E-02  1.37682052E-01 -4.71570497E-02  1.67130845E-01
 -9.64930294E-02  1.92807281E-01  7.40796684E-02 -5.50813123E-02 -8.16784820E-02
 -5.50812541E-02  1.37682052E-01 -4.71570497E-02 -1.67130845E-01 -9.64930294E-02
  1.92807281E-01
Polarizability                             R   N=           6
  9.58181044E+00  4.13465291E-14  9.58181634E+00 -1.38887897E-14 -8.61848288E-07
  5.75423070E+00
Quadrupole Moment                          R   N=           6
  6.05201226E-01  6.05201226E-01 -1.21040245E+00 -3.07811137E-16 -3.83298853E-17
  1.40978056E-16
NDeriv for static properties               I                6
ND12 for static properties                 I               -2
Dipole Moment num derivs                   R   N=          36
  1.18717746E-14 -1.61873302E-08  4.00286422E-01  2.61087732E-15  1.25473009E-01
  6.88699677E-08 -1.25472916E-01 -1.47455550E-15  5.20052525E-14  3.90779782E-13
 -4.41594736E-08  2.82815243E-02 -2.94248990E-14 -2.15324468E-02  1.28162217E-08
  2.15323038E-02 -4.02962795E-14 -4.35079812E-13  2.45456852E-13  1.72213265E-06
  3.88442643E-01  3.76227301E-14  5.47544536E-02  3.95628877E-02  1.34382564E-13
 -5.47413949E-02  3.95630983E-02  1.16191630E-11  1.00756164E-05  1.26380564E-01
 -4.13839036E-14 -1.57185066E-01  4.78381540E-02 -8.26367776E-12  1.57198532E-01
  4.78408162E-02
Dipole Derivatives num derivs              R   N=         432
 -1.23129412E-01  1.95129263E-12  5.78125348E-13  8.18790215E-13 -1.23123047E-01
  1.93918729E-06  1.23058809E-13 -2.28792922E-06 -7.14797620E-01 -9.51627531E-03
 -1.32697591E-12  1.22990960E-13 -1.28259484E-13  9.16016354E-02 -6.44866667E-02
  1.03070160E-13 -1.35320248E-01  2.38267404E-01  6.63228434E-02 -4.37857228E-02
 -5.58488575E-02 -4.37856079E-02  1.57607059E-02  3.22423637E-02 -1.17190958E-01
  6.76612681E-02  2.38265108E-01  6.63228434E-02  4.37857228E-02  5.58488575E-02
  4.37856079E-02  1.57607059E-02  3.22423637E-02  1.17190958E-01  6.76612681E-02
  2.38265108E-01 -2.72464647E-02  6.88640216E-14  1.22670028E-13  2.62448017E-13
  2.72274274E-02 -6.40816054E-02  2.62104770E-13 -9.44371142E-02 -1.06383469E-06
 -4.04323783E-02 -2.96238123E-14 -1.64376017E-13 -1.00491010E-13 -1.23793110E-01
  2.66490556E-02  1.19677629E-13  9.59547338E-02 -6.24593071E-02  3.38394215E-02
  1.73579550E-02 -4.58280271E-03 -7.38210351E-02  4.82828414E-02  1.87162749E-02
 -5.58417753E-02 -7.58809787E-04  3.12301854E-02  3.38394215E-02 -1.73579550E-02
  4.58280271E-03  7.38210351E-02  4.82828414E-02  1.87162749E-02  5.58417753E-02
 -7.58809787E-04  3.12301854E-02  1.12800679E-12  2.72474169E-02  6.40795046E-02
  2.72327076E-02  1.09863155E-12 -9.14358840E-14  9.44389816E-02  2.83564264E-13
  5.64004535E-13 -1.46878150E-13  7.61611119E-02 -1.60684678E-02 -2.91187613E-02
 -1.26315485E-13  1.42470568E-13  3.29946629E-02 -2.37940794E-13 -6.38911387E-14
  9.93439453E-02 -5.17042644E-02 -2.40055184E-02  9.43026863E-04  4.28788361E-02
  4.57944958E-03 -6.37168222E-02  5.58439129E-02  5.40923227E-02 -9.93439453E-02
 -5.17042644E-02 -2.40055184E-02  9.43026863E-04 -4.28788361E-02 -4.57944958E-03
 -6.37168222E-02 -5.58439129E-02 -5.40923227E-02  4.27431649E-01 -5.88852980E-12
 -2.20093517E-13  4.73691372E-12  4.27414997E-01  2.84773085E-06  8.38668985E-12
  5.17737184E-06  4.51538882E-01 -9.22625736E-02  9.16202406E-12 -6.55585069E-13
  2.77730921E-12 -1.92675624E-01  1.78738046E-02 -1.11132566E-12  2.55437088E-02
 -1.50512291E-01 -1.67584538E-01  4.34874720E-02  1.54807297E-02  4.34880897E-02
 -1.17369686E-01 -8.93832617E-03  2.21265024E-02 -1.27744431E-02 -1.50513295E-01
 -1.67584538E-01 -4.34874720E-02 -1.54807297E-02 -4.34880897E-02 -1.17369686E-01
 -8.93832617E-03 -2.21265024E-02 -1.27744431E-02 -1.50513295E-01 -2.93493773E-01
 -1.20736984E-12 -8.43914494E-15 -3.00876512E-13  2.93461154E-01 -1.11930113E-02
 -1.20681031E-12 -3.84115980E-01 -4.69264491E-06  4.73210126E-02  1.02888423E-12
 -1.90060366E-13 -1.22535172E-14 -2.08097162E-01 -5.35809832E-03  4.04090381E-13
  1.81211958E-01 -1.19537659E-01  1.23086380E-01 -8.20702869E-02  7.87072654E-03
  3.03068276E-02 -4.26819960E-02  8.27555480E-03 -4.60492795E-02  1.01452011E-01
  5.97711756E-02  1.23086380E-01  8.20702869E-02 -7.87072654E-03 -3.03068276E-02
 -4.26819960E-02  8.27555480E-03  4.60492795E-02  1.01452011E-01  5.97711756E-02
 -6.62707785E-12  2.93486564E-01  1.11942909E-02  2.93489968E-01 -6.68582833E-12
 -2.74751890E-13  3.84126728E-01  5.49195727E-13 -7.56706084E-12  1.28003160E-12
 -1.32824105E-01 -1.28172033E-02 -3.06334678E-03  2.15614802E-12  2.35736807E-13
 -7.48648258E-02 -6.32298825E-13  2.49248879E-12  9.55160925E-02 -8.03312294E-02
  8.11456226E-04 -1.45213311E-01  4.37432499E-02 -7.87114478E-03 -1.54630951E-01
  4.60492354E-02  1.03525041E-01 -9.55160925E-02 -8.03312294E-02  8.11456226E-04
 -1.45213311E-01 -4.37432499E-02  7.87114478E-03 -1.54630951E-01 -4.60492354E-02
 -1.03525041E-01  6.93625561E-02 -7.89599440E-11 -8.18024478E-11 -5.13207791E-11
  6.91124997E-02 -1.39387335E-03  9.57599902E-12  1.61286026E-03 -5.92452335E-02
 -4.33981755E-02  1.04467804E-11  6.60977033E-12  5.18120384E-11 -2.93247027E-03
 -5.42393188E-02 -9.44552818E-11 -4.19534680E-02  2.12966831E-02 -1.23314644E-02
 -1.79467895E-02 -4.86034383E-02 -1.85279568E-02 -3.26901381E-02  2.79911533E-02
 -3.65844123E-02  2.01752827E-02  1.91103188E-02 -1.23314643E-02  1.79467895E-02
  4.86034384E-02  1.85279568E-02 -3.26901381E-02  2.79911533E-02  3.65844123E-02
  2.01752826E-02  1.91103188E-02 -5.18307868E-02 -1.27229930E-10 -1.12934404E-10
 -5.56726846E-11 -1.55689884E-01 -5.45725113E-02  1.11460134E-11  2.30336650E-02
 -1.79073983E-02  7.72630135E-03 -2.77037298E-12  9.46726729E-12  6.79990423E-11
  3.23830069E-02  2.67891872E-02 -9.89659827E-11 -2.76635746E-02 -1.93473362E-02
  2.27029685E-02  3.79432963E-02 -6.44359356E-03  3.70734234E-02  6.20533152E-02
  1.40662193E-02  1.34576268E-02  2.31993356E-03  1.87634108E-02  2.27029688E-02
 -3.79432962E-02  6.44359366E-03 -3.70734234E-02  6.20533151E-02  1.40662192E-02
 -1.34576268E-02  2.31993357E-03  1.87634109E-02 -1.55380103E-01 -7.18913809E-11
 -5.29325102E-11 -7.12801501E-11 -5.21318397E-02  5.16887299E-02 -3.35598283E-11
 -1.98212639E-02 -1.79062950E-02  1.10343418E-01  2.08750027E-11  3.53854713E-11
  7.92791678E-11 -1.24569144E-02 -2.32861119E-02 -7.10899915E-11  2.29738803E-02
  3.43859368E-02  2.31690684E-02  3.72586490E-03  6.24433406E-03  3.37345303E-03
  3.26942537E-02 -1.40267517E-02 -1.80294593E-02 -1.57132941E-03 -8.10377733E-03
  2.31690685E-02 -3.72586494E-03 -6.24433405E-03 -3.37345297E-03  3.26942537E-02
 -1.40267518E-02  1.80294594E-02 -1.57132944E-03 -8.10377727E-03 -6.50347242E-02
 -6.85226702E-11 -8.12168912E-11 -7.15095876E-11 -6.49359898E-02 -1.52101362E-03
 -1.14949194E-10  1.52530863E-03  3.13835595E-02  3.09432676E-02  1.77130344E-11
  7.31546298E-12  1.55947416E-11  1.21021826E-02  6.02851837E-02 -6.26433079E-11
 -1.26897765E-02 -8.92358250E-03  1.76964542E-02  7.66371590E-03  5.04393597E-02
  7.14709240E-03  2.68167802E-02 -2.92075279E-02 -1.13622410E-02  5.58721272E-03
 -1.10939449E-02  1.76964543E-02 -7.66371597E-03 -5.04393597E-02 -7.14709227E-03
  2.68167802E-02 -2.92075279E-02  1.13622411E-02  5.58721266E-03 -1.10939448E-02
  3.64542818E-02 -6.69772899E-11 -9.57128393E-11 -3.75430107E-11 -2.07623761E-01
 -8.66046042E-02 -3.17781289E-11  4.17605601E-02 -3.53717558E-02 -1.84715776E-01
  2.71063529E-11  2.97821211E-11  3.99077899E-11  2.04327056E-01 -1.15931049E-02
 -1.06983278E-10 -1.98861858E-01 -1.66921377E-02  7.47814732E-02 -8.97728139E-02
  1.56090043E-02 -2.35204241E-02  2.04822918E-03  4.92734117E-02 -1.20881305E-02
  7.85556279E-02  2.61679904E-02  7.47814731E-02  8.97728138E-02 -1.56090042E-02
  2.35204241E-02  2.04822908E-03  4.92734117E-02  1.20881306E-02  7.85556279E-02
  2.61679904E-02 -2.07900876E-01 -6.50177079E-11 -7.53593926E-11  2.76643281E-11
  3.62987436E-02  8.36105086E-02 -1.24870361E-11 -3.86628572E-02 -3.54794625E-02
  2.31381398E-02  9.61602122E-12  2.32569571E-11  2.04361575E-11  7.10005836E-02
 -8.40523058E-03 -6.94672083E-11 -2.39472212E-04  4.34204946E-02  9.30320941E-02
 -1.00374153E-01 -3.64295104E-02 -1.67662918E-01 -5.32497869E-02 -3.74280818E-02
 -1.61070120E-01  1.94561435E-02 -3.83447247E-03  9.30320942E-02  1.00374153E-01
  3.64295105E-02  1.67662918E-01 -5.32497870E-02 -3.74280818E-02  1.61070120E-01
  1.94561434E-02 -3.83447242E-03
Polarizability num derivs                  R   N=          72
 -6.86371431E-01 -6.88475968E-12 -6.86356870E-01 -5.97877300E-12 -1.16370786E-06
 -3.45500829E+00  1.94855918E+00  2.82083972E-12 -1.94853318E+00  8.14098711E-13
 -2.07684790E+00  3.66664936E-06  6.62721642E-12 -1.94854163E+00  9.02423569E-12
  2.07683723E+00  8.82176695E-13 -3.29002645E-13  7.15512166E+00  8.98592849E-11
  7.15513939E+00  7.41063803E-11  7.09161799E-07  1.56880158E+00 -4.65924996E+00
 -9.72922475E-13  4.65924530E+00 -3.19560772E-12 -3.37520102E+00  2.85998729E-05
 -1.21872370E-10  4.65923224E+00 -1.21543367E-10  3.37520949E+00  2.11980912E-12
 -2.22781791E-11  8.39393045E-01 -5.85440960E-11  8.42090829E-01  2.29951152E-10
 -1.64132361E-03  3.80517693E+00  1.77696050E+00 -1.70012232E-10  2.26313637E+00
  1.79935218E-10  3.87838015E-01  5.61899167E-01  2.26048007E+00 -2.78124927E-10
  1.77972943E+00  6.93715894E-11 -3.91094059E-01  5.61917935E-01  4.96887666E+00
  1.99268474E-10  4.97175136E+00 -3.35881056E-11 -1.64169258E-03  5.32164983E-01
  1.15502698E+00  1.94150412E-10  3.17983571E+00  1.86582266E-10 -1.26150033E+00
  3.32402242E-01  3.17728611E+00 -1.71080211E-10  1.15749949E+00  1.47775129E-10
  1.25838646E+00  3.32351194E-01
Quadrupole Moment num derivs               R   N=          72
  5.03257031E-01  5.03257025E-01 -1.00651406E+00 -2.09350391E-13 -3.13367287E-13
  4.19530212E-07  1.13005451E+00 -1.13004841E+00 -6.10021214E-06 -3.28742641E-13
 -2.09031380E-13 -4.98336308E-01 -3.99408604E-13  3.05597065E-13  1.41001134E-13
 -1.13005153E+00  4.98335943E-01  7.71393363E-14  1.50821538E-01  1.50821664E-01
 -3.01643202E-01  8.77971715E-12  6.87314369E-12  5.51205343E-08 -3.23760423E-01
  3.23755440E-01  4.98351714E-06 -3.78733712E-13 -1.24895103E-13 -2.79429509E-01
 -1.38653825E-12 -2.96105091E-12  4.30053458E-12  3.23758093E-01  2.79429616E-01
  6.20834386E-13 -2.29815115E-01 -2.30606706E-01  4.60421821E-01 -8.83932641E-13
 -8.53927268E-12  4.22360755E-04 -1.71445229E-01  2.62039252E-01 -9.05940226E-02
 -2.24462277E-12 -2.21095371E-11  1.07397649E-01  2.62817107E-01 -1.72228647E-01
 -9.05884602E-02 -3.38074744E-11 -4.00946909E-11 -1.06565646E-01 -1.00775959E-01
 -1.01556346E-01  2.02332305E-01  5.04317248E-11  3.69663733E-11  4.23837777E-04
 -5.25531626E-02 -1.48597190E-02  6.74128816E-02  9.19217806E-12 -2.55334631E-11
 -6.24452954E-03 -1.41217480E-02 -5.33028283E-02  6.74245762E-02 -2.20226379E-11
 -1.79143439E-11  7.06958012E-03
QEq coupling tensors                       R   N=          24
 -4.55847900E-01 -8.71844916E-15 -4.55847900E-01 -6.21505026E-15 -2.24208138E-14
  9.11695800E-01  1.62942417E-01  1.00089081E-18 -2.91865630E-01 -3.02090195E-17
  2.08752858E-01  1.28923213E-01 -1.78163618E-01  1.96937661E-01  4.92404055E-02
  1.80785278E-01 -1.04376429E-01  1.28923213E-01 -1.78163618E-01 -1.96937661E-01
  4.92404055E-02 -1.80785278E-01 -1.04376429E-01  1.28923213E-01
NDeriv for magnetic props                  I                6
ND12 for magnetic props                    I               -2
QEq coupling tensors num derivs            R   N=         288
 -3.12881644E-01 -6.49248779E-13 -3.12881654E-01 -3.60916645E-13  2.12997992E-06
  6.25763299E-01  1.06952358E-02 -9.98573024E-14 -1.73581345E-01  6.18682241E-14
 -7.10912932E-02  1.62886109E-01 -1.27512198E-01  7.97941179E-02 -3.53738980E-02
 -6.15668107E-02  3.55456331E-02  1.62886096E-01 -1.27512198E-01 -7.97941179E-02
 -3.53738980E-02  6.15668107E-02  3.55456331E-02  1.62886096E-01 -2.06320894E-01
 -7.94984652E-13  2.06313097E-01 -4.29258433E-13  3.32304337E-01  7.79741433E-06
 -3.00629394E-02  2.78422929E-14  6.85436494E-02 -3.57990932E-14  2.52396510E-02
 -3.84807100E-02 -1.30379837E-01 -4.12649899E-02  1.11144800E-01  2.35692821E-02
  6.60597184E-02  1.92350370E-02 -1.30379837E-01  4.12649899E-02  1.11144800E-01
 -2.35692821E-02  6.60597184E-02  1.92350370E-02 -3.00804146E-12  2.06316253E-01
 -1.72729297E-17 -3.32306211E-01 -4.63690212E-13 -6.01604837E-12  4.91914166E-14
  1.44576815E-01 -6.31688619E-14 -7.96634236E-02  5.80194262E-14  8.07818995E-15
  2.46084244E-02  7.31256108E-02 -5.79306163E-02 -3.88478125E-02 -2.35719133E-02
  3.33221919E-02 -2.46084244E-02  7.31256108E-02  5.79306163E-02 -3.88478125E-02
  2.35719133E-02 -3.33221919E-02 -6.88587727E-02 -6.77903002E-12 -6.88581636E-02
 -7.67059572E-12  4.33970970E-07  1.37716936E-01 -3.56537018E-01  6.91475163E-13
  5.91284459E-01 -2.59978917E-13 -4.21084036E-01 -2.34747441E-01  3.54329071E-01
 -4.10418702E-01 -1.19581646E-01 -3.64669453E-01  2.10542010E-01 -2.34747425E-01
  3.54329071E-01  4.10418702E-01 -1.19581646E-01  3.64669453E-01  2.10542010E-01
 -2.34747425E-01  4.83126324E-01 -1.44323255E-12 -4.83100533E-01 -4.04762597E-13
  5.83913576E-01 -2.57917148E-05 -5.28286064E-01  4.50395823E-14  8.52786127E-01
 -1.11554111E-14 -6.27277888E-01 -3.24500063E-01 -2.70382776E-01  2.89268099E-01
  1.08178948E-01  2.76663358E-01 -1.47870800E-01  1.62203828E-01 -2.70382776E-01
 -2.89268099E-01  1.08178948E-01 -2.76663358E-01 -1.47870800E-01  1.62203828E-01
  1.00320476E-12 -4.83113519E-01  1.00320476E-12 -5.83913764E-01 -1.00795474E-14
 -5.01435282E-12  6.07626574E-12  2.22652062E-02 -1.00727704E-11 -1.18559564E-02
  7.14772984E-12  4.00825098E-12 -4.29827546E-01  5.23416325E-01  1.48828912E-01
  4.67437731E-01 -2.76728836E-01  2.80998634E-01  4.29827546E-01  5.23416325E-01
 -1.48828912E-01  4.67437731E-01  2.76728836E-01 -2.80998634E-01  8.32763410E-02
 -1.10450002E-10  8.18406036E-02 -2.07555520E-10  1.06704035E-03 -1.65116944E-01
 -1.14640012E-01  1.18902676E-13  1.66672217E-01 -1.79014643E-12 -3.03436889E-01
 -5.20322051E-02  9.64144083E-02 -1.21892781E-01 -4.43219436E-02 -2.62802500E-01
  1.51730377E-01 -5.20924648E-02  9.64144083E-02  1.21892781E-01 -4.43219436E-02
  2.62802500E-01  1.51730377E-01 -5.20924648E-02  6.98449754E-02  1.39774802E-10
 -1.84309294E-03  1.21012261E-10 -4.88886131E-02 -6.80018822E-02 -2.84426088E-02
 -1.39911272E-12  2.96791463E-02  1.45293692E-12 -3.43964323E-02 -1.23653748E-03
  1.21943920E-01 -2.42513669E-01 -4.66472546E-02 -1.97892602E-01  1.23102238E-01
 -7.52966651E-02  1.21943920E-01  2.42513669E-01 -4.66472546E-02  1.97892602E-01
  1.23102238E-01 -7.52966652E-02 -4.18227639E-04  6.15555131E-11  6.84077847E-02
  3.92915005E-11  5.10015973E-02 -6.79895561E-02 -2.76453001E-01 -6.88959381E-14
  3.76357435E-01  3.27413495E-12 -2.99071084E-01 -9.99044338E-02  1.06516433E-01
 -6.55074804E-02 -8.05535212E-02 -9.09482492E-02  4.36597337E-02 -2.59629114E-02
  1.06516433E-01  6.55074804E-02 -8.05535212E-02  9.09482492E-02  4.36597337E-02
 -2.59629114E-02  1.23007070E-01  1.45362098E-11  1.21571648E-01 -5.40592974E-11
  1.08211006E-03 -2.44578718E-01  7.01997204E-01  3.26382697E-13 -1.10387412E+00
 -2.56030773E-14  7.97063283E-01  4.01876917E-01 -6.52337702E-01  7.81886096E-01
  2.50520331E-01  6.90261341E-01 -3.98521047E-01  4.01817371E-01 -6.52337702E-01
 -7.81886096E-01  2.50520331E-01 -6.90261341E-01 -3.98521047E-01  4.01817371E-01
  4.43801314E-02  2.44939111E-10 -2.34006759E-01  8.23956938E-11  2.14531754E-02
  1.89626628E-01  1.52496738E+00 -2.33188402E-13 -2.37228421E+00 -9.70962989E-13
  1.76268749E+00  8.47316832E-01 -3.82212534E-01  3.94635339E-01  1.74606944E-01
  3.91373494E-01 -1.90445762E-01  2.07605589E-01 -3.82212534E-01 -3.94635339E-01
  1.74606944E-01 -3.91373494E-01 -1.90445762E-01  2.07605589E-01 -2.32620777E-01
  9.16976795E-11  4.29636414E-02  8.54981407E-11 -1.93478130E-02  1.89657136E-01
 -5.27415503E-03  3.53917990E-12  1.07941005E-02 -1.33964904E-12 -8.55207411E-03
 -5.51994544E-03 -1.00872600E+00  1.28569611E+00  3.74700787E-01  1.12758212E+00
 -6.86539260E-01  6.34025210E-01 -1.00872600E+00 -1.28569611E+00  3.74700787E-01
 -1.12758212E+00 -6.86539260E-01  6.34025210E-01
Number of Normal Modes                     I                6
Vib-LE2Fix                                 I               14
Vib-NDFDPol                                I                0
Vib-NumROA                                 I                0
Vib-NDim                                   I                4
Vib-NDim0                                  I                4
Vib-LFlags                                 I                8
Vib-IFlags                                 I   N=          48
           0           0           1           0           0           0
           0           0           0           0           2           0
           0           0           0           0           0           0
           3           0           0           0           0           0
           0           0           4           0           0           0
           0           0           0           0           5           0
           0           0           0           0           0           0
           6           0           0           0           0           0
Vib-AtMass                                 R   N=           4
  1.40030740E+01  1.00782504E+00  1.00782504E+00  1.00782504E+00
Vib-E2                                     R   N=          84
  1.13179547E+03  1.72676835E+03  1.72676836E+03  3.43635547E+03  3.56803339E+03
  3.56803339E+03  1.17975799E+00  1.06422565E+00  1.06422565E+00  1.02740539E+00
  1.08861279E+00  1.08861279E+00  8.90387452E-01  1.86961458E+00  1.86961458E+00
  7.14806031E+00  8.16547497E+00  8.16547499E+00  1.56204293E+02  1.53479802E+01
  1.53480031E+01  7.79752677E-01  4.51999562E-01  4.51993560E-01  0.00000000E+00
  0.00000000E+00  0.00000000E+00  0.00000000E+00  0.00000000E+00  0.00000000E+00
  0.00000000E+00  0.00000000E+00  0.00000000E+00  0.00000000E+00  0.00000000E+00
  0.00000000E+00  0.00000000E+00  0.00000000E+00  0.00000000E+00  0.00000000E+00
  0.00000000E+00  0.00000000E+00  0.00000000E+00  0.00000000E+00  0.00000000E+00
  0.00000000E+00  0.00000000E+00  0.00000000E+00  0.00000000E+00  0.00000000E+00
  0.00000000E+00  0.00000000E+00  0.00000000E+00  0.00000000E+00  0.00000000E+00
  0.00000000E+00  0.00000000E+00  0.00000000E+00  0.00000000E+00  0.00000000E+00
  0.00000000E+00  0.00000000E+00  0.00000000E+00  0.00000000E+00  0.00000000E+00
  0.00000000E+00  0.00000000E+00  0.00000000E+00  0.00000000E+00  0.00000000E+00
  0.00000000E+00  0.00000000E+00  0.00000000E+00  0.00000000E+00  0.00000000E+00
  0.00000000E+00  0.00000000E+00  0.00000000E+00  0.00000000E+00  0.00000000E+00
  0.00000000E+00  0.00000000E+00  0.00000000E+00  0.00000000E+00
Vib-Modes                                  R   N=          72
 -1.70851879E-14  1.19526819E-09 -1.15023681E-01  9.19070931E-14  2.12428173E-01
  5.32726441E-01  1.83968189E-01 -1.06214095E-01  5.32726434E-01 -1.83968189E-01
 -1.06214095E-01  5.32726434E-01 -6.58793943E-02  7.38120211E-06  1.76238410E-13
  7.58266754E-01  1.65857292E-05  2.89775646E-05  7.84983412E-02  3.92379519E-01
 -2.23997473E-01  7.85862798E-02 -3.92498662E-01  2.23968495E-01 -7.38120209E-06
 -6.58793943E-02 -1.51912427E-09  8.49570678E-05 -1.48032500E-01 -2.58633266E-01
  3.92447893E-01  5.31735907E-01  1.29291548E-01 -3.92430293E-01  5.31647968E-01
  1.29341739E-01  1.29149424E-12 -1.17128413E-09  3.88166415E-02  4.95397653E-13
  5.48189030E-01 -1.79777342E-01  4.74745609E-01 -2.74094507E-01 -1.79777335E-01
 -4.74745609E-01 -2.74094507E-01 -1.79777335E-01 -2.92710956E-05 -7.88461370E-02
 -9.21592317E-10 -8.21587147E-06  7.52474581E-01 -3.09538884E-01 -3.35206476E-01
  1.71396109E-01  1.54669930E-01  3.35621395E-01  1.71645150E-01  1.54868967E-01
 -7.88461371E-02  2.92710956E-05  1.03363628E-12 -2.21306961E-02 -2.79351094E-04
  1.14914216E-04  5.58947789E-01 -3.35477604E-01 -2.68125998E-01  5.58698748E-01
  3.35350252E-01  2.68011083E-01
Anharmonic Number of Normal Modes          I               27
Anharmonic Vib-LE2Fix                      I               14
Anharmonic Vib-NDFDPol                     I                0
Anharmonic Vib-NumROA                      I                0
Anharmonic Vib-NDim                        I                4
Anharmonic Vib-NDim0                       I                4
Anharmonic Vib-LFlags                      I                8
Anharmonic Vib-IFlags                      I   N=         216
           1           0           1           0           0           0
           0           0           1           0           2           0
           0           0           0           0           1           0
           3           0           0           0           0           0
           1           0           4           0           0           0
           0           0           1           0           5           0
           0           0           0           0           1           0
           6           0           0           0           0           0
           1           0           7           0           0           0
           0           0           1           0           8           0
           0           0           0           0           1           0
           9           0           0           0           0           0
           1           0          10           0           0           0
           0           0           1           0          11           0
           0           0           0           0           1           0
          12           0           0           0           0           0
           1           0          13           0           0           0
           0           0           1           0          14           0
           0           0           0           0           1           0
          15           0           0           0           0           0
           1           0          16           0           0           0
           0           0           1           0          17           0
           0           0           0           0           1           0
          18           0           0           0           0           0
           1           0          19           0           0           0
           0           0           1           0          20           0
           0           0           0           0           1           0
          21           0           0           0           0           0
           1           0          22           0           0           0
           0           0           1           0          23           0
           0           0           0           0           1           0
          24           0           0           0           0           0
           1           0          25           0           0           0
           0           0           1           0          26           0
           0           0           0           0           1           0
          27           0           0           0           0           0
Anharmonic Vib-AtMass                      R   N=           4
  1.40030740E+01  1.00782504E+00  1.00782504E+00  1.00782504E+00
Anharmonic Vib-E2                          R   N=         378
  1.04858399E+03  1.67812838E+03  1.67906229E+03  1.99986264E+03  2.71384896E+03
  2.71535297E+03  3.23841322E+03  3.29518636E+03  3.32133107E+03  3.39733706E+03
  3.40050520E+03  3.41046252E+03  4.32195433E+03  4.43925579E+03  4.44467508E+03
  4.91145078E+03  4.91238470E+03  5.00279760E+03  5.02605060E+03  5.04445975E+03
  5.05072166E+03  6.45680307E+03  6.52392396E+03  6.52682272E+03  6.62400377E+03
  6.68594038E+03  6.68599796E+03  0.00000000E+00  0.00000000E+00  0.00000000E+00
  0.00000000E+00  0.00000000E+00  0.00000000E+00  0.00000000E+00  0.00000000E+00
  0.00000000E+00  0.00000000E+00  0.00000000E+00  0.00000000E+00  0.00000000E+00
  0.00000000E+00  0.00000000E+00  0.00000000E+00  0.00000000E+00  0.00000000E+00
  0.00000000E+00  0.00000000E+00  0.00000000E+00  0.00000000E+00  0.00000000E+00
  0.00000000E+00  0.00000000E+00  0.00000000E+00  0.00000000E+00  0.00000000E+00
  0.00000000E+00  0.00000000E+00  0.00000000E+00  0.00000000E+00  0.00000000E+00
  0.00000000E+00  0.00000000E+00  0.00000000E+00  0.00000000E+00  0.00000000E+00
  0.00000000E+00  0.00000000E+00  0.00000000E+00  0.00000000E+00  0.00000000E+00
  0.00000000E+00  0.00000000E+00  0.00000000E+00  0.00000000E+00  0.00000000E+00
  0.00000000E+00  0.00000000E+00  0.00000000E+00  0.00000000E+00  0.00000000E+00
  0.00000000E+00  0.00000000E+00  0.00000000E+00  0.00000000E+00  0.00000000E+00
  0.00000000E+00  0.00000000E+00  0.00000000E+00  0.00000000E+00  0.00000000E+00
  0.00000000E+00  0.00000000E+00  0.00000000E+00  0.00000000E+00  0.00000000E+00
  0.00000000E+00  0.00000000E+00  0.00000000E+00  0.00000000E+00  0.00000000E+00
  0.00000000E+00  0.00000000E+00  0.00000000E+00  0.00000000E+00  0.00000000E+00
  0.00000000E+00  0.00000000E+00  0.00000000E+00  1.58701642E+02  1.46639455E+01
  1.46114410E+01  8.63100944E-01  2.55704085E-02  2.55917063E-02  1.65049187E+00
  8.51092118E-02  2.50307026E-01  1.52680834E+00  5.12878212E-01  1.43907602E+00
  2.54509317E+00  1.62422873E+00  1.62624838E+00  3.90530146E-01  3.90596512E-01
  1.34476094E+00  2.83672562E-01  1.33059955E+00  1.68508703E-03  2.42074504E-01
  1.72081042E+00  1.72179886E+00  8.35866976E-02  7.00041630E-01  6.98578465E-01
  0.00000000E+00  0.00000000E+00  0.00000000E+00  0.00000000E+00  0.00000000E+00
  0.00000000E+00  0.00000000E+00  0.00000000E+00  0.00000000E+00  0.00000000E+00
  0.00000000E+00  0.00000000E+00  0.00000000E+00  0.00000000E+00  0.00000000E+00
  0.00000000E+00  0.00000000E+00  0.00000000E+00  0.00000000E+00  0.00000000E+00
  0.00000000E+00  0.00000000E+00  0.00000000E+00  0.00000000E+00  0.00000000E+00
  0.00000000E+00  0.00000000E+00  0.00000000E+00  0.00000000E+00  0.00000000E+00
  0.00000000E+00  0.00000000E+00  0.00000000E+00  0.00000000E+00  0.00000000E+00
  0.00000000E+00  0.00000000E+00  0.00000000E+00  0.00000000E+00  0.00000000E+00
  0.00000000E+00  0.00000000E+00  0.00000000E+00  0.00000000E+00  0.00000000E+00
  0.00000000E+00  0.00000000E+00  0.00000000E+00  0.00000000E+00  0.00000000E+00
  0.00000000E+00  0.00000000E+00  0.00000000E+00  0.00000000E+00  0.00000000E+00
  0.00000000E+00  0.00000000E+00  0.00000000E+00  0.00000000E+00  0.00000000E+00
  0.00000000E+00  0.00000000E+00  0.00000000E+00  0.00000000E+00  0.00000000E+00
  0.00000000E+00  0.00000000E+00  0.00000000E+00  0.00000000E+00  0.00000000E+00
  0.00000000E+00  0.00000000E+00  0.00000000E+00  0.00000000E+00  0.00000000E+00
  0.00000000E+00  0.00000000E+00  0.00000000E+00  0.00000000E+00  0.00000000E+00
  0.00000000E+00  6.03789563E+02  3.48604557E+01  3.47163167E+01  1.72174499E+00
  3.75888810E-02  3.75993516E-02  2.03323946E+00  1.03039559E-01  3.00654893E-01
  1.79288853E+00  6.01697503E-01  1.68336331E+00  2.34925909E+00  1.45963551E+00
  1.45966859E+00  3.17213872E-01  3.17207462E-01  1.07235741E+00  2.25163441E-01
  1.05230132E+00  1.33099463E-03  1.49568078E-01  1.05228054E+00  1.05241736E+00
  5.03412505E-02  4.17704132E-01  4.16827494E-01  0.00000000E+00  0.00000000E+00
  0.00000000E+00  0.00000000E+00  0.00000000E+00  0.00000000E+00  0.00000000E+00
  0.00000000E+00  0.00000000E+00  0.00000000E+00  0.00000000E+00  0.00000000E+00
  0.00000000E+00  0.00000000E+00  0.00000000E+00  0.00000000E+00  0.00000000E+00
  0.00000000E+00  0.00000000E+00  0.00000000E+00  0.00000000E+00  0.00000000E+00
  0.00000000E+00  0.00000000E+00  0.00000000E+00  0.00000000E+00  0.00000000E+00
  0.00000000E+00  0.00000000E+00  0.00000000E+00  0.00000000E+00  0.00000000E+00
  0.00000000E+00  0.00000000E+00  0.00000000E+00  0.00000000E+00  0.00000000E+00
  0.00000000E+00  0.00000000E+00  0.00000000E+00  0.00000000E+00  0.00000000E+00
  0.00000000E+00  0.00000000E+00  0.00000000E+00  0.00000000E+00  0.00000000E+00
  0.00000000E+00  0.00000000E+00  0.00000000E+00  0.00000000E+00  0.00000000E+00
  0.00000000E+00  0.00000000E+00  0.00000000E+00  0.00000000E+00  0.00000000E+00
  0.00000000E+00  0.00000000E+00  0.00000000E+00  0.00000000E+00  0.00000000E+00
  0.00000000E+00  0.00000000E+00  0.00000000E+00  0.00000000E+00  0.00000000E+00
  0.00000000E+00  0.00000000E+00  0.00000000E+00  0.00000000E+00  0.00000000E+00
  0.00000000E+00  0.00000000E+00  0.00000000E+00  0.00000000E+00  0.00000000E+00
  0.00000000E+00  0.00000000E+00  0.00000000E+00  0.00000000E+00  0.00000000E+00
  0.00000000E+00  0.00000000E+00  0.00000000E+00  0.00000000E+00  0.00000000E+00
  0.00000000E+00  0.00000000E+00  0.00000000E+00  0.00000000E+00  0.00000000E+00
  0.00000000E+00  0.00000000E+00  0.00000000E+00  0.00000000E+00  0.00000000E+00
  0.00000000E+00  0.00000000E+00  0.00000000E+00  0.00000000E+00  0.00000000E+00
  0.00000000E+00  0.00000000E+00  0.00000000E+00  0.00000000E+00  0.00000000E+00
  0.00000000E+00  0.00000000E+00  0.00000000E+00  0.00000000E+00  0.00000000E+00
  0.00000000E+00  0.00000000E+00  0.00000000E+00  0.00000000E+00  0.00000000E+00
  0.00000000E+00  0.00000000E+00  0.00000000E+00  0.00000000E+00  0.00000000E+00
  0.00000000E+00  0.00000000E+00  0.00000000E+00  0.00000000E+00  0.00000000E+00
  0.00000000E+00  0.00000000E+00  0.00000000E+00  0.00000000E+00  0.00000000E+00
  0.00000000E+00  0.00000000E+00  0.00000000E+00
Anharmonic Vib-Modes                       R   N=         324
 -4.68844269E-14 -1.34774521E-04 -1.06834754E-01  7.25031913E-14  1.84733094E-01
  4.94270723E-01  1.56408915E-01 -9.14302449E-02  4.95064382E-01 -1.56408915E-01
 -9.14302449E-02  4.95064382E-01  2.22360948E-14 -6.37646397E-02 -1.10022747E-05
  5.70862072E-15 -1.42119537E-01 -2.50280086E-01  3.82806081E-01  5.14043886E-01
  1.25216478E-01 -3.82806081E-01  5.14043886E-01  1.25216478E-01  6.43923704E-02
  9.24247097E-15 -1.05216974E-14 -7.34880887E-01 -1.88636527E-14  8.51030440E-14
 -7.99046288E-02 -3.78150719E-01  2.18927260E-01 -7.99046288E-02  3.78150719E-01
 -2.18927260E-01 -1.51590835E-13  2.15074171E-09 -1.99967132E-01  1.10008023E-13
  3.10551319E-01  9.26137794E-01  2.68945324E-01 -1.55275675E-01  9.26137782E-01
 -2.68945324E-01 -1.55275675E-01  9.26137782E-01  1.80104686E-15 -6.55074154E-02
 -1.05898743E-01  8.53819613E-14  8.26048856E-02  2.33291804E-01  5.29956906E-01
  4.13789043E-01  6.19051208E-01 -5.29956906E-01  4.13789043E-01  6.19051208E-01
  6.55074165E-02  1.10045589E-09 -1.05898741E-01 -7.19759816E-01  1.95576041E-01
  4.90464737E-01  7.41622296E-02 -4.58371117E-01  7.13183030E-01 -2.64585399E-01
  2.62795061E-01  2.67746432E-01  3.00930852E-02 -2.77053283E-02 -3.22887739E-02
 -3.46369093E-01 -6.21035017E-01  4.07766066E-02 -2.80237857E-01  3.23728805E-01
  3.06240775E-01  2.08483086E-01  6.82253746E-01  1.01614151E-01 -7.84266854E-02
 -1.15160912E-01 -5.28256153E-04  9.02685108E-01  1.63720393E-01 -4.49659016E-01
  3.97117165E-01  1.18536528E+00 -3.81430529E-02 -2.10114441E-01  2.51000373E-01
  4.95141845E-01  4.49936361E-03 -5.01639295E-02 -1.15633322E-09 -6.03169945E-01
 -1.12719492E-01 -1.96936554E-01  5.69150239E-01 -9.94564096E-02  1.13765646E-01
 -2.84960273E-02  9.09171106E-01  8.31709239E-02  2.88905387E-02 -9.54061127E-03
 -3.64413116E-03 -3.32527875E-01  6.88399484E-01 -2.05774917E-02 -6.90449938E-01
 -4.50018428E-01  1.33829944E-01  6.21562551E-01 -1.05820463E-01 -6.26196177E-02
  9.17697324E-02 -8.80465315E-02  1.22830323E-02 -1.05626255E+00  1.21140230E-01
 -4.02546599E-01  4.45351307E-01  4.43847475E-03  4.27948323E-01 -6.64169555E-01
  1.09777064E+00 -1.96066477E-01 -1.00305401E-01  3.95190033E-02  9.11799858E-10
  4.54603186E-01  8.88001007E-02  1.55146066E-01  2.34125566E-01 -3.27567871E-01
 -4.18600813E-01  7.04949622E-01 -3.10323102E-01  2.63454734E-01  1.25768418E-12
 -4.08507263E-12 -7.25136103E-02  5.77329928E-13  7.45472813E-01  3.35843166E-01
  6.45598372E-01 -3.72736407E-01  3.35843166E-01 -6.45598372E-01 -3.72736407E-01
  3.35843166E-01 -6.00391281E-15 -8.09837406E-02 -1.05898742E-01  3.11665790E-15
  9.75352930E-01  1.72533917E-01 -1.81110782E-01  7.49317610E-02  6.49430147E-01
  1.81110782E-01  7.49317610E-02  6.49430147E-01  8.09837417E-02  1.10046128E-09
 -1.05898741E-01  2.96325866E-02  1.95576041E-01  4.90464737E-01 -4.08050713E-01
  2.52696560E-01  7.65800901E-01 -7.46798342E-01 -4.48272616E-01  2.15128560E-01
  1.29192399E-12 -6.45317958E-02  3.82954361E-02  4.92741213E-13  3.92418582E-01
 -4.30706190E-01  8.55731669E-01  2.52104394E-01 -5.06920056E-02 -8.55731669E-01
  2.52104394E-01 -5.06920056E-02  6.45317946E-02 -1.15554767E-09  3.82954376E-02
 -7.46161304E-01  5.40828314E-01 -1.77363412E-01  3.93138018E-01 -6.57774772E-01
  4.20378825E-02 -5.43604067E-01  1.16946474E-01 -3.96764692E-01  1.01899373E-01
 -9.88219364E-02 -1.65062200E-09 -5.35153209E-01  4.29768530E-01 -3.87961070E-01
 -4.16156467E-01  4.16906393E-01  5.40427653E-01 -4.64515891E-01  5.26391669E-01
 -1.52466560E-01  8.19102628E-02 -1.12258747E-01  7.92809587E-04 -4.19345225E-01
  4.59785099E-01 -4.44383972E-01 -3.14682402E-01  5.15363255E-01  4.95170443E-01
 -4.04062249E-01  5.84613994E-01 -6.18020451E-02  1.12833127E-01  7.82929794E-02
  1.25890081E-04 -5.77656958E-01 -3.18307504E-01  3.06784215E-01 -5.34583417E-01
 -4.32458467E-01  2.29354031E-01 -4.55502613E-01 -3.37064102E-01 -5.37887407E-01
 -1.18736187E-02 -4.80329779E-03  4.75552225E-10 -5.16224259E-01  5.96672630E-01
 -1.88570764E-02 -1.56867629E-01 -7.59654818E-01 -3.09405148E-02  8.38068104E-01
  2.29720889E-01  4.97975846E-02  2.54820024E-12 -2.30302559E-09  7.58125268E-02
  9.78067501E-13  1.08309410E+00 -3.51121941E-01  9.37986971E-01 -5.41547033E-01
 -3.51121928E-01 -9.37986971E-01 -5.41547033E-01 -3.51121928E-01  1.28205292E-12
 -6.51377861E-02  3.82954369E-02  4.23537581E-13  1.16334586E+00 -4.33085226E-01
  1.90519641E-01 -1.29149325E-01 -4.95024924E-02 -1.90519641E-01 -1.29149325E-01
 -4.95024924E-02  6.51377850E-02 -1.15554494E-09  3.82954376E-02  1.91527568E-02
  5.40828314E-01 -1.77363412E-01  6.27106587E-03  7.43724621E-03  4.40981860E-02
 -9.30471019E-01 -5.48265544E-01 -3.98824996E-01  1.01750953E-01 -1.11392591E-01
 -6.45299882E-03  2.85596670E-02  9.97504598E-01 -4.07424963E-01 -1.25229070E+00
  7.07963262E-01  5.94485090E-01 -1.90032345E-01 -1.57740197E-01 -9.73999017E-02
  8.33364638E-02 -7.55690104E-02 -8.84014531E-10  1.76201200E-02  7.21199054E-01
 -2.96673344E-01 -9.09236003E-01  5.13909766E-01  4.31671855E-01 -2.66290130E-01
 -1.85126525E-01 -1.34998499E-01  1.11756185E-01  9.39920141E-02 -3.02395066E-04
  3.13679562E-02 -9.05870920E-01  3.70400007E-01 -3.89908893E-01  2.75370779E-01
  1.96860017E-01 -1.19423864E+00 -6.75457819E-01 -5.63058441E-01
Anharmonic number of displacements         I                6
Anharmonic displacement N1                 I                0
Anharmonic displacement flags              I   N=           6
           1           2           3           4           5           6
Anharmonic displacements                   R   N=          72
 -1.57298034E-14  1.10044641E-09 -1.05898741E-01  8.46049186E-14  1.95576041E-01
  4.90464737E-01  1.69373815E-01 -9.77880280E-02  4.90464731E-01 -1.69373815E-01
 -9.77880280E-02  4.90464731E-01  1.75516985E-14 -6.38605625E-02 -1.47257169E-09
  3.59361770E-15 -1.43496139E-01 -2.50707615E-01  3.80413049E-01  5.15398579E-01
  1.25353818E-01 -3.80413049E-01  5.15398579E-01  1.25353818E-01  6.38605625E-02
  9.14388891E-15 -5.84909398E-15 -7.35030156E-01  4.55135936E-14  6.30416523E-14
 -7.61354318E-02 -3.80413046E-01  2.17119169E-01 -7.61354318E-02  3.80413046E-01
 -2.17119169E-01  1.27415292E-12 -1.15555691E-09  3.82954376E-02  4.88715102E-13
  5.40828314E-01 -1.77363412E-01  4.68371043E-01 -2.70414149E-01 -1.77363405E-01
 -4.68371043E-01 -2.70414149E-01 -1.77363405E-01  9.17039322E-15 -7.55690104E-02
 -8.83287900E-10 -7.55370386E-14  7.21199054E-01 -2.96673344E-01 -3.21472936E-01
  1.64391620E-01  1.48336678E-01  3.21472936E-01  1.64391620E-01  1.48336678E-01
  7.55690104E-02  1.38710391E-14 -6.62760011E-13  2.12108655E-02 -9.13600425E-12
  3.12407750E-12 -5.35596580E-01  3.21472929E-01  2.56926656E-01 -5.35596580E-01
 -3.21472929E-01 -2.56926656E-01
ClPar MaxAn                                I              200
ClPar NIntPar                              I               12
ClPar NRealPar                             I               16
ClPar NBits                                I               30
ClPar LenBitVec                            I                1
ClPar Read BitMap                          I   N=         200
           0           0           0           0           0           0
           0           0           0           0           0           0
           0           0           0           0           0           0
           0           0           0           0           0           0
           0           0           0           0           0           0
           0           0           0           0           0           0
           0           0           0           0           0           0
           0           0           0           0           0           0
           0           0           0           0           0           0
           0           0           0           0           0           0
           0           0           0           0           0           0
           0           0           0           0           0           0
           0           0           0           0           0           0
           0           0           0           0           0           0
           0           0           0           0           0           0
           0           0           0           0           0           0
           0           0           0           0           0           0
           0           0           0           0           0           0
           0           0           0           0           0           0
           0           0           0           0           0           0
           0           0           0           0           0           0
           0           0           0           0           0           0
           0           0           0           0           0           0
           0           0           0           0           0           0
           0           0           0           0           0           0
           0           0           0           0           0           0
           0           0           0           0           0           0
           0           0           0           0           0           0
           0           0           0           0           0           0
           0           0           0           0           0           0
           0           0           0           0           0           0
           0           0           0           0           0           0
           0           0           0           0           0           0
           0           0
ClPar Default BitMap                       I   N=         200
      516096      516096      516096      516096      516096      516096
      516096      516096      516096      516096      516096      516096
      516096      516096      516096      516096      516096      516096
      516096      516096      516096      516096      516096      516096
      516096      516096      516096      516096      516096      516096
      516096      516096      516096      516096      516096      516096
      516096      516096      516096      516096      516096      516096
      516096      516096      516096      516096      516096      516096
      516096      516096      516096      516096      516096      516096
      516096      516096      516096      516096      516096      516096
      516096      516096      516096      516096      516096      516096
      516096      516096      516096      516096      516096      516096
      516096      516096      516096      516096      516096      516096
      516096      516096      516096      516096      516096      516096
      516096      516096      122880      122880      122880      122880
      122880      122880      122880      122880      122880      122880
      122880      122880      122880      122880      122880      122880
      122880      122880      122880      122880      122880      122880
      122880      122880      122880      122880      122880      122880
      122880      122880      122880      122880      122880      122880
      122880      122880      122880      122880      122880      122880
      122880      122880      122880      122880      122880      122880
      122880      122880      122880      122880      122880      122880
      122880      122880      122880      122880      122880      122880
      122880      122880      122880      122880      122880      122880
      122880      122880      122880      122880      122880      122880
      122880      122880      122880      122880      122880      122880
      122880      122880      122880      122880      122880      122880
      122880      122880      122880      122880      122880      122880
      122880      122880      122880      122880      122880      122880
      122880      122880      122880      122880      122880      122880
      122880      122880      122880      122880      122880      122880
      122880      122880      122880      122880      122880      122880
      122880      122880
ClPar Int Params                           I   N=        2400
           0           0           0           0           0           0
           0           0           0           0           0           0
           0           0           0           0           0           0
           0           0           0           0           0           0
           0           0           0           0           0           0
           0           0           0           0           0           0
           0           0           0           0           0           0
           0           0           0           0           0           0
           0           0           0           0           0           0
           0           0           0           0           0           0
           0           0           0           0           0           0
           0           0           0           0           0           0
           0           0           0           0           0           0
           0           0           0           0           0           0
           0           0           0           0           0           0
           0           0           0           0           0           0
           0           0           0           0           0           0
           0           0           0           0           0           0
           0           0           0           0           0           0
           0           0           0           0           0           0
           0           0           0           0           0           0
           0           0           0           0           0           0
           0           0           0           0           0           0
           0           0           0           0           0           0
           0           0           0           0           0           0
           0           0           0           0           0           0
           0           0           0           0           0           0
           0           0           0           0           0           0
           0           0           0           0           0           0
           0           0           0           0           0           0
           0           0           0           0           0           0
           0           0           0           0           0           0
           0           0           0           0           0           0
           0           0           0           0           0           0
           0           0           0           0           0           0
           0           0           0           0           0           0
           0           0           0           0           0           0
           0           0           0           0           0           0
           0           0           0           0           0           0
           0           0           0           0           0           0
           0           0           0           0           0           0
           0           0           0           0           0           0
           0           0           0           0           0           0
           0           0           0           0           0           0
           0           0           0           0           0           0
           0           0           0           0           0           0
           0           0           0           0           0           0
           0           0           0           0           0           0
           0           0           0           0           0           0
           0           0           0           0           0           0
           0           0           0           0           0           0
           0           0           0           0           0           0
           0           0           0           0           0           0
           0           0           0           0           0           0
           0           0           0           0           0           0
           0           0           0           0           0           0
           0           0           0           0           0           0
           0           0           0           0           0           0
           0           0           0           0           0           0
           0           0           0           0           0           0
           0           0           0           0           0           0
           0           0           0           0           0           0
           0           0           0           0           0           0
           0           0           0           0           0           0
           0           0           0           0           0           0
           0           0           0           0           0           0
           0           0           0           0           0           0
           0           0           0           0           0           0
           0           0           0           0           0           0
           0           0           0           0           0           0
           0           0           0           0           0           0
           0           0           0           0           0           0
           0           0           0           0           0           0
           0           0           0           0           0           0
           0           0           0           0           0           0
           0           0           0           0           0           0
           0           0           0           0           0           0
           0           0           0           0           0           0
           0           0           0           0           0           0
           0           0           0           0           0           0
           0           0           0           0           0           0
           0           0           0           0           0           0
           0           0           0           0           0           0
           0           0           0           0           0           0
           0           0           0           0           0           0
           0           0           0           0           0           0
           0           0           0           0           0           0
           0           0           0           0           0           0
           0           0           0           0           0           0
           0           0           0           0           0           0
           0           0           0           0           0           0
           0           0           0           0           0           0
           0           0           0           0           0           0
           0           0           0           0           0           0
           0           0           0           0           0           0
           0           0           0           0           0           0
           0           0           0           0           0           0
           0           0           0           0           0           0
           0           0           0           0           0           0
           0           0           0           0           0           0
           0           0           0           0           0           0
           0           0           0           0           0           0
           0           0           0           0           0           0
           0           0           0           0           0           0
           0           0           0           0           0           0
           0           0           0           0           0           0
           0           0           0           0           0           0
           0           0           0           0           0           0
           0           0           0           0           0           0
           0           0           0           0           0           0
           0           0           0           0           0           0
           0           0           0           0           0           0
           0           0           0           0           0           0
           0           0           0           0           0           0
           0           0           0           0           0           0
           0           0           0           0           0           0
           0           0           0           0           0           0
           0           0           0           0           0           0
           0           0           0           0           0           0
           0           0           0           0           0           0
           0           0           0           0           0           0
           0           0           0           0           0           0
           0           0           0           0           0           0
           0           0           0           0           0           0
           0           0           0           0           0           0
           0           0           0           0           0           0
           0           0           0           0           0           0
           0           0           0           0           0           0
           0           0           0           0           0           0
           0           0           0           0           0           0
           0           0           0           0           0           0
           0           0           0           0           0           0
           0           0           0           0           0           0
           0           0           0           0           0           0
           0           0           0           0           0           0
           0           0           0           0           0           0
           0           0           0           0           0           0
           0           0           0           0           0           0
           0           0           0           0           0           0
           0           0           0           0           0           0
           0           0           0           0           0           0
           0           0           0           0           0           0
           0           0           0           0           0           0
           0           0           0           0           0           0
           0           0           0           0           0           0
           0           0           0           0           0           0
           0           0           0           0           0           0
           0           0           0           0           0           0
           0           0           0           0           0           0
           0           0           0           0           0           0
           0           0           0           0           0           0
           0           0           0           0           0           0
           0           0           0           0           0           0
           0           0           0           0           0           0
           0           0           0           0           0           0
           0           0           0           0           0           0
           0           0           0           0           0           0
           0           0           0           0           0           0
           0           0           0           0           0           0
           0           0           0           0           0           0
           0           0           0           0           0           0
           0           0           0           0           0           0
           0           0           0           0           0           0
           0           0           0           0           0           0
           0           0           0           0           0           0
           0           0           0           0           0           0
           0           0           0           0           0           0
           0           0           0           0           0           0
           0           0           0           0           0           0
           0           0           0           0           0           0
           0           0           0           0           0           0
           0           0           0           0           0           0
           0           0           0           0           0           0
           0           0           0           0           0           0
           0           0           0           0           0           0
           0           0           0           0           0           0
           0           0           0           0           0           0
           0           0           0           0           0           0
           0           0           0           0           0           0
           0           0           0           0           0           0
           0           0           0           0           0           0
           0           0           0           0           0           0
           0           0           0           0           0           0
           0           0           0           0           0           0
           0           0           0           0           0           0
           0           0           0           0           0           0
           0           0           0           0           0           0
           0           0           0           0           0           0
           0           0           0           0           0           0
           0           0           0           0           0           0
           0           0           0           0           0           0
           0           0           0           0           0           0
           0           0           0           0           0           0
           0           0           0           0           0           0
           0           0           0           0           0           0
           0           0           0           0           0           0
           0           0           0           0           0           0
           0           0           0           0           0           0
           0           0           0           0           0           0
           0           0           0           0           0           0
           0           0           0           0           0           0
           0           0           0           0           0           0
           0           0           0           0           0           0
           0           0           0           0           0           0
           0           0           0           0           0           0
           0           0           0           0           0           0
           0           0           0           0           0           0
           0           0           0           0           0           0
           0           0           0           0           0           0
           0           0           0           0           0           0
           0           0           0           0           0           0
           0           0           0           0           0           0
           0           0           0           0           0           0
           0           0           0           0           0           0
           0           0           0           0           0           0
           0           0           0           0           0           0
           0           0           0           0           0           0
           0           0           0           0           0           0
           0           0           0           0           0           0
           0           0           0           0           0           0
           0           0           0           0           0           0
           0           0           0           0           0           0
           0           0           0           0           0           0
           0           0           0           0           0           0
           0           0           0           0           0           0
           0           0           0           0           0           0
           0           0           0           0           0           0
           0           0           0           0           0           0
           0           0           0           0           0           0
           0           0           0           0           0           0
           0           0           0           0           0           0
           0           0           0           0           0           0
           0           0           0           0           0           0
           0           0           0           0           0           0
           0           0           0           0           0           0
           0           0           0           0           0           0
           0           0           0           0           0           0
           0           0           0           0           0           0
           0           0           0           0           0           0
           0           0           0           0           0           0
           0           0           0           0           0           0
           0           0           0           0           0           0
           0           0           0           0           0           0
           0           0           0           0           0           0
           0           0           0           0           0           0
           0           0           0           0           0           0
           0           0           0           0           0           0
           0           0           0           0           0           0
           0           0           0           0           0           0
           0           0           0           0           0           0
           0           0           0           0           0           0
           0           0           0           0           0           0
           0           0           0           0           0           0
           0           0           0           0           0           0
           0           0           0           0           0           0
           0           0           0           0           0           0
           0           0           0           0           0           0
           0           0           0           0           0           0
           0           0           0           0           0           0
           0           0           0           0           0           0
           0           0           0           0           0           0
           0           0           0           0           0           0
           0           0           0           0           0           0
           0           0           0           0           0           0
           0           0           0           0           0           0
           0           0           0           0           0           0
           0           0           0           0           0           0
           0           0           0           0           0           0
           0           0           0           0           0           0
           0           0           0           0           0           0
           0           0           0           0           0           0
           0           0           0           0           0           0
           0           0           0           0           0           0
           0           0           0           0           0           0
           0           0           0           0           0           0
           0           0           0           0           0           0
           0           0           0           0           0           0
           0           0           0           0           0           0
           0           0           0           0           0           0
           0           0           0           0           0           0
           0           0           0           0           0           0
           0           0           0           0           0           0
           0           0           0           0           0           0
           0           0           0           0           0           0
           0           0           0           0           0           0
           0           0           0           0           0           0
           0           0           0           0           0           0
           0           0           0           0           0           0
           0           0           0           0           0           0
           0           0           0           0           0           0
           0           0           0           0           0           0
           0           0           0           0           0           0
           0           0           0           0           0           0
           0           0           0           0           0           0
           0           0           0           0           0           0
           0           0           0           0           0           0
           0           0           0           0           0           0
           0           0           0           0           0           0
           0           0           0           0           0           0
           0           0           0           0           0           0
           0           0           0           0           0           0
           0           0           0           0           0           0
           0           0           0           0           0           0
           0           0           0           0           0           0
           0           0           0           0           0           0
           0           0           0           0           0           0
           0           0           0           0           0           0
           0           0           0           0           0           0
           0           0           0           0           0           0
           0           0           0           0           0           0
           0           0           0           0           0           0
           0           0           0           0           0           0
           0           0           0           0           0           0
           0           0           0           0           0           0
           0           0           0           0           0           0
           0           0           0           0           0           0
           0           0           0           0           0           0
           0           0           0           0           0           0
           0           0           0           0           0           0
           0           0           0           0           0           0
           0           0           0           0           0           0
           0           0           0           0           0           0
           0           0           0           0           0           0
           0           0           0           0           0           0
           0           0           0           0           0           0
           0           0           0           0           0           0
           0           0           0           0           0           0
           0           0           0           0           0           0
           0           0           0           0           0           0
           0           0           0           0           0           0
           0           0           0           0           0           0
           0           0           0           0           0           0
           0           0           0           0           0           0
           0           0           0           0           0           0
           0           0           0           0           0           0
           0           0           0           0           0           0
           0           0           0           0           0           0
           0           0           0           0           0           0
           0           0           0           0           0           0
           0           0           0           0           0           0
           0           0           0           0           0           0
           0           0           0           0           0           0
           0           0           0           0           0           0
           0           0           0           0           0           0
           0           0           0           0           0           0
           0           0           0           0           0           0
           0           0           0           0           0           0
           0           0           0           0           0           0
           0           0           0           0           0           0
           0           0           0           0           0           0
           0           0           0           0           0           0
           0           0           0           0           0           0
           0           0           0           0           0           0
           0           0           0           0           0           0
           0           0           0           0           0           0
           0           0           0           0           0           0
           0           0           0           0           0           0
           0           0           0           0           0           0
           0           0           0           0           0           0
           0           0           0           0           0           0
           0           0           0           0           0           0
           0           0           0           0           0           0
           0           0           0           0           0           0
           0           0           0           0           0           0
           0           0           0           0           0           0
           0           0           0           0           0           0
           0           0           0           0           0           0
           0           0           0           0           0           0
           0           0           0           0           0           0
           0           0           0           0           0           0
           0           0           0           0           0           0
           0           0           0           0           0           0
           0           0           0           0           0           0
           0           0           0           0           0           0
           0           0           0           0           0           0
           0           0           0           0           0           0
           0           0           0           0           0           0
           0           0           0           0           0           0
           0           0           0           0           0           0
           0           0           0           0           0           0
           0           0           0           0           0           0
           0           0           0           0           0           0
           0           0           0           0           0           0
           0           0           0           0           0           0
           0           0           0           0           0           0
           0           0           0           0           0           0
           0           0           0           0           0           0
           0           0           0           0           0           0
           0           0           0           0           0           0
           0           0           0           0           0           0
           0           0           0           0           0           0
           0           0           0           0           0           0
           0           0           0           0           0           0
           0           0           0           0           0           0
           0           0           0           0           0           0
           0           0           0           0           0           0
           0           0           0           0           0           0
           0           0           0           0           0           0
           0           0           0           0           0           0
           0           0           0           0           0           0
ClPar Real Params                          R   N=        3200
  0.00000000E+00  0.00000000E+00  0.00000000E+00  0.00000000E+00  0.00000000E+00
  0.00000000E+00  0.00000000E+00  0.00000000E+00  0.00000000E+00  0.00000000E+00
  0.00000000E+00  0.00000000E+00  0.00000000E+00  0.00000000E+00  0.00000000E+00
  0.00000000E+00  0.00000000E+00  0.00000000E+00  0.00000000E+00  0.00000000E+00
  0.00000000E+00  0.00000000E+00  0.00000000E+00  0.00000000E+00  0.00000000E+00
  0.00000000E+00  0.00000000E+00  0.00000000E+00  0.00000000E+00  0.00000000E+00
  0.00000000E+00  0.00000000E+00  0.00000000E+00  0.00000000E+00  0.00000000E+00
  0.00000000E+00  0.00000000E+00  0.00000000E+00  0.00000000E+00  0.00000000E+00
  0.00000000E+00  0.00000000E+00  0.00000000E+00  0.00000000E+00  0.00000000E+00
  0.00000000E+00  0.00000000E+00  0.00000000E+00  0.00000000E+00  0.00000000E+00
  0.00000000E+00  0.00000000E+00  0.00000000E+00  0.00000000E+00  0.00000000E+00
  0.00000000E+00  0.00000000E+00  0.00000000E+00  0.00000000E+00  0.00000000E+00
  0.00000000E+00  0.00000000E+00  0.00000000E+00  0.00000000E+00  0.00000000E+00
  0.00000000E+00  0.00000000E+00  0.00000000E+00  0.00000000E+00  0.00000000E+00
  0.00000000E+00  0.00000000E+00  0.00000000E+00  0.00000000E+00  0.00000000E+00
  0.00000000E+00  0.00000000E+00  0.00000000E+00  0.00000000E+00  0.00000000E+00
  0.00000000E+00  0.00000000E+00  0.00000000E+00  0.00000000E+00  0.00000000E+00
  0.00000000E+00  0.00000000E+00  0.00000000E+00  0.00000000E+00  0.00000000E+00
  0.00000000E+00  0.00000000E+00  0.00000000E+00  0.00000000E+00  0.00000000E+00
  0.00000000E+00  0.00000000E+00  0.00000000E+00  0.00000000E+00  0.00000000E+00
  0.00000000E+00  0.00000000E+00  0.00000000E+00  0.00000000E+00  0.00000000E+00
  0.00000000E+00  0.00000000E+00  0.00000000E+00  0.00000000E+00  0.00000000E+00
  0.00000000E+00  0.00000000E+00  0.00000000E+00  0.00000000E+00  0.00000000E+00
  0.00000000E+00  0.00000000E+00  0.00000000E+00  0.00000000E+00  0.00000000E+00
  0.00000000E+00  0.00000000E+00  0.00000000E+00  0.00000000E+00  0.00000000E+00
  0.00000000E+00  0.00000000E+00  0.00000000E+00  0.00000000E+00  0.00000000E+00
  0.00000000E+00  0.00000000E+00  0.00000000E+00  0.00000000E+00  0.00000000E+00
  0.00000000E+00  0.00000000E+00  0.00000000E+00  0.00000000E+00  0.00000000E+00
  0.00000000E+00  0.00000000E+00  0.00000000E+00  0.00000000E+00  0.00000000E+00
  0.00000000E+00  0.00000000E+00  0.00000000E+00  0.00000000E+00  0.00000000E+00
  0.00000000E+00  0.00000000E+00  0.00000000E+00  0.00000000E+00  0.00000000E+00
  0.00000000E+00  0.00000000E+00  0.00000000E+00  0.00000000E+00  0.00000000E+00
  0.00000000E+00  0.00000000E+00  0.00000000E+00  0.00000000E+00  0.00000000E+00
  0.00000000E+00  0.00000000E+00  0.00000000E+00  0.00000000E+00  0.00000000E+00
  0.00000000E+00  0.00000000E+00  0.00000000E+00  0.00000000E+00  0.00000000E+00
  0.00000000E+00  0.00000000E+00  0.00000000E+00  0.00000000E+00  0.00000000E+00
  0.00000000E+00  0.00000000E+00  0.00000000E+00  0.00000000E+00  0.00000000E+00
  0.00000000E+00  0.00000000E+00  0.00000000E+00  0.00000000E+00  0.00000000E+00
  0.00000000E+00  0.00000000E+00  0.00000000E+00  0.00000000E+00  0.00000000E+00
  0.00000000E+00  0.00000000E+00  0.00000000E+00  0.00000000E+00  0.00000000E+00
  2.26000000E-01  4.43000000E-01  1.01000000E-01  1.47000000E-01  1.92000000E-01
  2.40000000E-01  2.75000000E-01  3.03000000E-01  3.25000000E-01  4.13000000E-01
  9.60000000E-02  1.35000000E-01  1.73000000E-01  2.11000000E-01  2.48000000E-01
  2.86000000E-01  3.23000000E-01  3.60000000E-01  8.20000000E-02  1.04000000E-01
  1.17000000E-01  1.23000000E-01  1.29000000E-01  1.34000000E-01  1.40000000E-01
  1.44000000E-01  1.48000000E-01  1.52000000E-01  1.55000000E-01  1.76000000E-01
  1.98000000E-01  2.19000000E-01  2.39000000E-01  2.60000000E-01  2.80000000E-01
  3.00000000E-01  7.90000000E-02  9.90000000E-02  1.19000000E-01  1.26000000E-01
  1.33000000E-01  1.40000000E-01  1.47000000E-01  1.53000000E-01  1.58000000E-01
  1.63000000E-01  1.57000000E-01  1.70000000E-01  1.87000000E-01  2.03000000E-01
  2.19000000E-01  2.34000000E-01  2.50000000E-01  2.65000000E-01  7.40000000E-02
  9.20000000E-02  1.05000000E-01  1.06000000E-01  1.07000000E-01  1.08000000E-01
  1.09000000E-01  1.10000000E-01  1.11000000E-01  1.12000000E-01  1.13000000E-01
  1.14000000E-01  1.15000000E-01  1.16000000E-01  1.17000000E-01  1.17000000E-01
  1.26000000E-01  1.36000000E-01  1.46000000E-01  1.55000000E-01  1.65000000E-01
  1.73000000E-01  1.82000000E-01  1.90000000E-01  1.62000000E-01  1.78000000E-01
  1.10000000E-01  1.35000000E-01  1.59000000E-01  1.83000000E-01  2.07000000E-01
  2.31000000E-01  6.90000000E-02  9.40000000E-02  1.02000000E-01  1.03000000E-01
  1.05000000E-01  1.07000000E-01  1.09000000E-01  1.11000000E-01  1.13000000E-01
  1.15000000E-01  1.17000000E-01  1.19000000E-01  1.20000000E-01  1.22000000E-01
  1.24000000E-01  1.26000000E-01  1.28000000E-01  1.28000000E-01  1.28000000E-01
  1.28000000E-01  1.28000000E-01  1.28000000E-01  1.28000000E-01  1.28000000E-01
  1.28000000E-01  1.28000000E-01  1.28000000E-01  1.28000000E-01  1.28000000E-01
  1.28000000E-01  1.28000000E-01  1.28000000E-01  1.28000000E-01  1.28000000E-01
  1.28000000E-01  1.28000000E-01  1.28000000E-01  1.28000000E-01  1.28000000E-01
  1.28000000E-01  1.28000000E-01  1.28000000E-01  1.28000000E-01  1.28000000E-01
  1.28000000E-01  1.28000000E-01  1.28000000E-01  1.28000000E-01  1.28000000E-01
  1.28000000E-01  1.28000000E-01  1.28000000E-01  1.28000000E-01  1.28000000E-01
  1.28000000E-01  1.28000000E-01  1.28000000E-01  1.28000000E-01  1.28000000E-01
  1.28000000E-01  1.28000000E-01  1.28000000E-01  1.28000000E-01  1.28000000E-01
  1.28000000E-01  1.28000000E-01  1.28000000E-01  1.28000000E-01  1.28000000E-01
  1.28000000E-01  1.28000000E-01  1.28000000E-01  1.28000000E-01  1.28000000E-01
  1.28000000E-01  1.28000000E-01  1.28000000E-01  1.28000000E-01  1.28000000E-01
  1.28000000E-01  1.28000000E-01  1.28000000E-01  1.28000000E-01  1.28000000E-01
  1.28000000E-01  1.28000000E-01  1.28000000E-01  1.28000000E-01  1.28000000E-01
  1.28000000E-01  1.28000000E-01  1.28000000E-01  1.28000000E-01  1.28000000E-01
  1.28000000E-01  1.28000000E-01  1.28000000E-01  1.28000000E-01  1.28000000E-01
  1.28000000E-01  1.28000000E-01  1.28000000E-01  1.28000000E-01  1.28000000E-01
  1.28000000E-01  1.28000000E-01  1.28000000E-01  1.28000000E-01  1.28000000E-01
  1.28000000E-01  1.28000000E-01  1.28000000E-01  1.28000000E-01  1.28000000E-01
  5.47000000E-01  5.92000000E-01  5.99000000E-01  6.68000000E-01  6.98000000E-01
  7.18000000E-01  7.26000000E-01  7.36000000E-01  7.43000000E-01  7.45000000E-01
  6.07000000E-01  6.66000000E-01  6.93000000E-01  7.09000000E-01  7.20000000E-01
  7.29000000E-01  7.35000000E-01  7.40000000E-01  6.08000000E-01  7.34000000E-01
  7.46000000E-01  7.55000000E-01  7.61000000E-01  7.65000000E-01  7.67000000E-01
  7.60000000E-01  7.49000000E-01  7.33000000E-01  7.08000000E-01  6.48000000E-01
  6.88000000E-01  7.09000000E-01  7.22000000E-01  7.31000000E-01  7.38000000E-01
  7.44000000E-01  6.09000000E-01  7.30000000E-01  7.41000000E-01  7.52000000E-01
  7.58000000E-01  7.63000000E-01  7.66000000E-01  7.58000000E-01  7.48000000E-01
  7.33000000E-01  7.01000000E-01  6.45000000E-01  6.86000000E-01  7.08000000E-01
  7.22000000E-01  7.31000000E-01  7.38000000E-01  7.44000000E-01  6.08000000E-01
  7.28000000E-01  7.32000000E-01  7.32000000E-01  7.32000000E-01  7.32000000E-01
  7.32000000E-01  7.32000000E-01  7.32000000E-01  7.32000000E-01  7.32000000E-01
  7.31000000E-01  7.31000000E-01  7.31000000E-01  7.31000000E-01  7.46000000E-01
  7.37000000E-01  7.46000000E-01  7.51000000E-01  7.55000000E-01  7.58000000E-01
  7.47000000E-01  7.32000000E-01  7.11000000E-01  7.41000000E-01  7.07000000E-01
  7.47000000E-01  7.43000000E-01  7.42000000E-01  7.42000000E-01  7.43000000E-01
  7.44000000E-01  6.05000000E-01  7.24000000E-01  7.26000000E-01  7.26000000E-01
  7.27000000E-01  7.27000000E-01  7.27000000E-01  7.28000000E-01  7.28000000E-01
  7.28000000E-01  7.28000000E-01  7.28000000E-01  7.29000000E-01  7.29000000E-01
  7.29000000E-01  7.29000000E-01  7.29000000E-01  7.29000000E-01  7.29000000E-01
  7.29000000E-01  7.29000000E-01  7.29000000E-01  7.29000000E-01  7.29000000E-01
  7.29000000E-01  7.29000000E-01  7.29000000E-01  7.29000000E-01  7.29000000E-01
  7.29000000E-01  7.29000000E-01  7.29000000E-01  7.29000000E-01  7.29000000E-01
  7.29000000E-01  7.29000000E-01  7.29000000E-01  7.29000000E-01  7.29000000E-01
  7.29000000E-01  7.29000000E-01  7.29000000E-01  7.29000000E-01  7.29000000E-01
  7.29000000E-01  7.29000000E-01  7.29000000E-01  7.29000000E-01  7.29000000E-01
  7.29000000E-01  7.29000000E-01  7.29000000E-01  7.29000000E-01  7.29000000E-01
  7.29000000E-01  7.29000000E-01  7.29000000E-01  7.29000000E-01  7.29000000E-01
  7.29000000E-01  7.29000000E-01  7.29000000E-01  7.29000000E-01  7.29000000E-01
  7.29000000E-01  7.29000000E-01  7.29000000E-01  7.29000000E-01  7.29000000E-01
  7.29000000E-01  7.29000000E-01  7.29000000E-01  7.29000000E-01  7.29000000E-01
  7.29000000E-01  7.29000000E-01  7.29000000E-01  7.29000000E-01  7.29000000E-01
  7.29000000E-01  7.29000000E-01  7.29000000E-01  7.29000000E-01  7.29000000E-01
  7.29000000E-01  7.29000000E-01  7.29000000E-01  7.29000000E-01  7.29000000E-01
  7.29000000E-01  7.29000000E-01  7.29000000E-01  7.29000000E-01  7.29000000E-01
  7.29000000E-01  7.29000000E-01  7.29000000E-01  7.29000000E-01  7.29000000E-01
  7.29000000E-01  7.29000000E-01  7.29000000E-01  7.29000000E-01  7.29000000E-01
  7.29000000E-01  7.29000000E-01  7.29000000E-01  7.29000000E-01  7.29000000E-01
  7.29000000E-01  7.29000000E-01  7.29000000E-01  7.29000000E-01  7.29000000E-01
  1.00000000E+00  1.70400000E+00  3.23000000E-01  3.89000000E-01  4.67000000E-01
  5.67000000E-01  6.36000000E-01  6.64000000E-01  6.96000000E-01  8.79000000E-01
  3.07000000E-01  3.48000000E-01  4.00000000E-01  4.54000000E-01  5.09000000E-01
  5.65000000E-01  6.21000000E-01  6.77000000E-01  2.56000000E-01  3.50000000E-01
  3.64000000E-01  3.62000000E-01  3.62000000E-01  3.62000000E-01  3.62000000E-01
  3.65000000E-01  3.69000000E-01  3.75000000E-01  3.86000000E-01  4.46000000E-01
  4.55000000E-01  4.74000000E-01  4.96000000E-01  5.20000000E-01  5.45000000E-01
  5.70000000E-01  2.45000000E-01  3.22000000E-01  3.55000000E-01  3.59000000E-01
  3.64000000E-01  3.70000000E-01  3.76000000E-01  3.85000000E-01  3.95000000E-01
  4.08000000E-01  3.76000000E-01  4.23000000E-01  4.22000000E-01  4.32000000E-01
  4.45000000E-01  4.59000000E-01  4.75000000E-01  4.91000000E-01  2.28000000E-01
  2.92000000E-01  2.89000000E-01  2.92000000E-01  2.95000000E-01  2.98000000E-01
  3.00000000E-01  3.03000000E-01  3.06000000E-01  3.09000000E-01  3.12000000E-01
  3.15000000E-01  3.18000000E-01  3.21000000E-01  3.24000000E-01  3.61000000E-01
  3.69000000E-01  3.70000000E-01  3.72000000E-01  3.75000000E-01  3.78000000E-01
  3.85000000E-01  3.94000000E-01  4.07000000E-01  5.26000000E-01  6.21000000E-01
  3.36000000E-01  3.54000000E-01  3.71000000E-01  3.86000000E-01  4.02000000E-01
  4.17000000E-01  2.09000000E-01  2.94000000E-01  2.65000000E-01  2.72000000E-01
  2.78000000E-01  2.84000000E-01  2.91000000E-01  2.97000000E-01  3.03000000E-01
  3.10000000E-01  3.16000000E-01  3.22000000E-01  3.29000000E-01  3.35000000E-01
  3.41000000E-01  3.48000000E-01  3.54000000E-01  3.54000000E-01  3.54000000E-01
  3.54000000E-01  3.54000000E-01  3.54000000E-01  3.54000000E-01  3.54000000E-01
  3.54000000E-01  3.54000000E-01  3.54000000E-01  3.54000000E-01  3.54000000E-01
  3.54000000E-01  3.54000000E-01  3.54000000E-01  3.54000000E-01  3.54000000E-01
  3.54000000E-01  3.54000000E-01  3.54000000E-01  3.54000000E-01  3.54000000E-01
  3.54000000E-01  3.54000000E-01  3.54000000E-01  3.54000000E-01  3.54000000E-01
  3.54000000E-01  3.54000000E-01  3.54000000E-01  3.54000000E-01  3.54000000E-01
  3.54000000E-01  3.54000000E-01  3.54000000E-01  3.54000000E-01  3.54000000E-01
  3.54000000E-01  3.54000000E-01  3.54000000E-01  3.54000000E-01  3.54000000E-01
  3.54000000E-01  3.54000000E-01  3.54000000E-01  3.54000000E-01  3.54000000E-01
  3.54000000E-01  3.54000000E-01  3.54000000E-01  3.54000000E-01  3.54000000E-01
  3.54000000E-01  3.54000000E-01  3.54000000E-01  3.54000000E-01  3.54000000E-01
  3.54000000E-01  3.54000000E-01  3.54000000E-01  3.54000000E-01  3.54000000E-01
  3.54000000E-01  3.54000000E-01  3.54000000E-01  3.54000000E-01  3.54000000E-01
  3.54000000E-01  3.54000000E-01  3.54000000E-01  3.54000000E-01  3.54000000E-01
  3.54000000E-01  3.54000000E-01  3.54000000E-01  3.54000000E-01  3.54000000E-01
  3.54000000E-01  3.54000000E-01  3.54000000E-01  3.54000000E-01  3.54000000E-01
  3.54000000E-01  3.54000000E-01  3.54000000E-01  3.54000000E-01  3.54000000E-01
  3.54000000E-01  3.54000000E-01  3.54000000E-01  3.54000000E-01  3.54000000E-01
  3.54000000E-01  3.54000000E-01  3.54000000E-01  3.54000000E-01  3.54000000E-01
  2.74000000E-01  2.96000000E-01  5.80000000E-02  4.40000000E-02  3.90000000E-02
  3.90000000E-02  3.60000000E-02  3.20000000E-02  2.90000000E-02  3.30000000E-02
  5.50000000E-02  3.90000000E-02  3.30000000E-02  3.00000000E-02  2.80000000E-02
  2.60000000E-02  2.50000000E-02  2.50000000E-02  4.50000000E-02  4.40000000E-02
  3.30000000E-02  2.50000000E-02  2.10000000E-02  1.80000000E-02  1.50000000E-02
  1.80000000E-02  2.10000000E-02  2.50000000E-02  3.30000000E-02  5.00000000E-02
  3.80000000E-02  3.10000000E-02  2.70000000E-02  2.40000000E-02  2.20000000E-02
  2.10000000E-02  4.30000000E-02  4.00000000E-02  3.20000000E-02  2.50000000E-02
  2.10000000E-02  1.80000000E-02  1.60000000E-02  1.90000000E-02  2.20000000E-02
  2.80000000E-02  3.10000000E-02  4.70000000E-02  3.40000000E-02  2.80000000E-02
  2.40000000E-02  2.10000000E-02  1.90000000E-02  1.80000000E-02  3.90000000E-02
  3.60000000E-02  2.50000000E-02  2.50000000E-02  2.50000000E-02  2.60000000E-02
  2.60000000E-02  2.60000000E-02  2.70000000E-02  2.70000000E-02  2.70000000E-02
  2.70000000E-02  2.80000000E-02  2.80000000E-02  2.80000000E-02  3.30000000E-02
  3.30000000E-02  2.60000000E-02  2.10000000E-02  1.80000000E-02  1.60000000E-02
  1.80000000E-02  2.20000000E-02  2.60000000E-02  4.90000000E-02  8.20000000E-02
  3.00000000E-02  2.40000000E-02  2.10000000E-02  1.80000000E-02  1.60000000E-02
  1.50000000E-02  3.50000000E-02  3.60000000E-02  2.20000000E-02  2.30000000E-02
  2.40000000E-02  2.40000000E-02  2.50000000E-02  2.50000000E-02  2.60000000E-02
  2.70000000E-02  2.70000000E-02  2.80000000E-02  2.80000000E-02  2.90000000E-02
  3.00000000E-02  3.00000000E-02  3.10000000E-02  3.10000000E-02  3.10000000E-02
  3.10000000E-02  3.10000000E-02  3.10000000E-02  3.10000000E-02  3.10000000E-02
  3.10000000E-02  3.10000000E-02  3.10000000E-02  3.10000000E-02  3.10000000E-02
  3.10000000E-02  3.10000000E-02  3.10000000E-02  3.10000000E-02  3.10000000E-02
  3.10000000E-02  3.10000000E-02  3.10000000E-02  3.10000000E-02  3.10000000E-02
  3.10000000E-02  3.10000000E-02  3.10000000E-02  3.10000000E-02  3.10000000E-02
  3.10000000E-02  3.10000000E-02  3.10000000E-02  3.10000000E-02  3.10000000E-02
  3.10000000E-02  3.10000000E-02  3.10000000E-02  3.10000000E-02  3.10000000E-02
  3.10000000E-02  3.10000000E-02  3.10000000E-02  3.10000000E-02  3.10000000E-02
  3.10000000E-02  3.10000000E-02  3.10000000E-02  3.10000000E-02  3.10000000E-02
  3.10000000E-02  3.10000000E-02  3.10000000E-02  3.10000000E-02  3.10000000E-02
  3.10000000E-02  3.10000000E-02  3.10000000E-02  3.10000000E-02  3.10000000E-02
  3.10000000E-02  3.10000000E-02  3.10000000E-02  3.10000000E-02  3.10000000E-02
  3.10000000E-02  3.10000000E-02  3.10000000E-02  3.10000000E-02  3.10000000E-02
  3.10000000E-02  3.10000000E-02  3.10000000E-02  3.10000000E-02  3.10000000E-02
  3.10000000E-02  3.10000000E-02  3.10000000E-02  3.10000000E-02  3.10000000E-02
  3.10000000E-02  3.10000000E-02  3.10000000E-02  3.10000000E-02  3.10000000E-02
  3.10000000E-02  3.10000000E-02  3.10000000E-02  3.10000000E-02  3.10000000E-02
  3.10000000E-02  3.10000000E-02  3.10000000E-02  3.10000000E-02  3.10000000E-02
  3.10000000E-02  3.10000000E-02  3.10000000E-02  3.10000000E-02  3.10000000E-02
 -5.92770000E-01 -9.17860000E-01 -2.48668000E+00 -8.36430000E-01 -3.18470000E-01
 -4.55790000E-01 -5.70730000E-01 -6.77940000E-01 -7.69860000E-01 -8.51140000E-01
 -1.51908000E+00 -3.18830000E-01 -2.17900000E-01 -3.01260000E-01 -3.72750000E-01
 -4.15890000E-01 -4.45930000E-01 -5.91320000E-01 -9.56370000E-01 -2.88450000E-01
 -4.87320000E-01 -6.34280000E-01 -7.17490000E-01 -7.91980000E-01 -8.68490000E-01
 -9.17520000E-01 -9.54890000E-01 -9.88460000E-01 -1.50055000E+00 -2.92560000E-01
 -2.14960000E-01 -2.91180000E-01 -3.42080000E-01 -3.84480000E-01 -4.34940000E-01
 -5.24310000E-01 -8.10070000E-01 -2.58460000E-01 -4.35550000E-01 -5.32740000E-01
 -6.08450000E-01 -6.10260000E-01 -7.58920000E-01 -8.90130000E-01 -8.45780000E-01
 -8.69340000E-01 -1.38234000E+00 -2.64850000E-01 -1.97280000E-01 -2.65040000E-01
 -2.94470000E-01 -3.16570000E-01 -3.63590000E-01 -4.57840000E-01 -8.61830000E-01
 -1.33004000E+00 -6.82880000E-01 -6.25540000E-01 -6.35430000E-01 -8.79690000E-01
 -9.02690000E-01 -9.59650000E-01 -1.01869000E+00 -6.81170000E-01 -7.96500000E-01
 -9.04950000E-01 -8.34790000E-01 -9.01560000E-01 -9.74130000E-01 -1.03326000E+00
 -7.15490000E-01 -7.83960000E-01 -8.28380000E-01 -5.61040000E-01 -1.03841000E+00
 -8.62500000E-01 -9.59300000E-01 -1.01755000E+00 -7.64900000E-01 -1.29467000E+00
 -1.92740000E-01 -2.56010000E-01 -3.19820000E-01 -1.94660000E-01 -2.60090000E-01
 -4.27990000E-01  0.00000000E+00  0.00000000E+00  0.00000000E+00  0.00000000E+00
  0.00000000E+00  0.00000000E+00  0.00000000E+00  0.00000000E+00  0.00000000E+00
  0.00000000E+00  0.00000000E+00  0.00000000E+00  0.00000000E+00  0.00000000E+00
  0.00000000E+00  0.00000000E+00  0.00000000E+00  0.00000000E+00  0.00000000E+00
  0.00000000E+00  0.00000000E+00  0.00000000E+00  0.00000000E+00  0.00000000E+00
  0.00000000E+00  0.00000000E+00  0.00000000E+00  0.00000000E+00  0.00000000E+00
  0.00000000E+00  0.00000000E+00  0.00000000E+00  0.00000000E+00  0.00000000E+00
  0.00000000E+00  0.00000000E+00  0.00000000E+00  0.00000000E+00  0.00000000E+00
  0.00000000E+00  0.00000000E+00  0.00000000E+00  0.00000000E+00  0.00000000E+00
  0.00000000E+00  0.00000000E+00  0.00000000E+00  0.00000000E+00  0.00000000E+00
  0.00000000E+00  0.00000000E+00  0.00000000E+00  0.00000000E+00  0.00000000E+00
  0.00000000E+00  0.00000000E+00  0.00000000E+00  0.00000000E+00  0.00000000E+00
  0.00000000E+00  0.00000000E+00  0.00000000E+00  0.00000000E+00  0.00000000E+00
  0.00000000E+00  0.00000000E+00  0.00000000E+00  0.00000000E+00  0.00000000E+00
  0.00000000E+00  0.00000000E+00  0.00000000E+00  0.00000000E+00  0.00000000E+00
  0.00000000E+00  0.00000000E+00  0.00000000E+00  0.00000000E+00  0.00000000E+00
  0.00000000E+00  0.00000000E+00  0.00000000E+00  0.00000000E+00  0.00000000E+00
  0.00000000E+00  0.00000000E+00  0.00000000E+00  0.00000000E+00  0.00000000E+00
  0.00000000E+00  0.00000000E+00  0.00000000E+00  0.00000000E+00  0.00000000E+00
  0.00000000E+00  0.00000000E+00  0.00000000E+00  0.00000000E+00  0.00000000E+00
  0.00000000E+00  0.00000000E+00  0.00000000E+00  0.00000000E+00  0.00000000E+00
  0.00000000E+00  0.00000000E+00  0.00000000E+00  0.00000000E+00  0.00000000E+00
  0.00000000E+00  0.00000000E+00  0.00000000E+00  0.00000000E+00  0.00000000E+00
  1.90440000E+00  1.36430000E+00  4.84000000E-01  7.31600000E+00  9.24030000E+00
  8.78200000E+00  5.61290000E+00  4.83340000E+00  3.24870000E+00  2.71090000E+00
  2.01130000E+00  1.50282000E+01  1.46788000E+01  2.13546000E+01  2.38290000E+01
  1.98022000E+01  1.50468000E+01  1.09745000E+01  1.27219000E+01  1.51949000E+01
  1.57342000E+01  2.79222000E+01  1.61366000E+01  2.21252000E+01  2.45676000E+01
  1.96016000E+01  1.79818000E+01  1.72396000E+01  5.01500000E+00  1.92898000E+01
  2.34477000E+01  2.23993000E+01  2.96586000E+01  2.60081000E+01  2.15580000E+01
  1.69594000E+01  1.56479000E+01  1.86897000E+01  1.93530000E+01  3.43444000E+01
  1.98480000E+01  2.72140000E+01  3.02182000E+01  2.41099000E+01  2.21176000E+01
  2.12047000E+01  7.56690000E+00  2.37264000E+01  2.93879000E+01  3.01278000E+01
  4.19382000E+01  3.85203000E+01  3.39511000E+01  2.75774000E+01  1.56460000E+01
  1.04460000E+01  2.01830000E+01  4.99540000E+01  4.76430000E+01  1.18690000E+01
  1.08670000E+01  9.96100000E+00  9.18700000E+00  3.67980000E+01  1.34070000E+01
  9.38200000E+00  9.81700000E+00  8.90800000E+00  8.40700000E+00  8.05800000E+00
  1.29600000E+01  2.67920000E+01  2.49300000E+01  3.45630000E+01  1.11860000E+01
  1.09440000E+01  1.01270000E+01  9.40400000E+00  1.36660000E+01  7.81000000E+00
  6.93600000E+01  5.86630000E+01  4.79690000E+01  4.52740000E+01  3.92290000E+01
  3.30660000E+01  0.00000000E+00  0.00000000E+00  0.00000000E+00  0.00000000E+00
  0.00000000E+00  0.00000000E+00  0.00000000E+00  0.00000000E+00  0.00000000E+00
  0.00000000E+00  0.00000000E+00  0.00000000E+00  0.00000000E+00  0.00000000E+00
  0.00000000E+00  0.00000000E+00  0.00000000E+00  0.00000000E+00  0.00000000E+00
  0.00000000E+00  0.00000000E+00  0.00000000E+00  0.00000000E+00  0.00000000E+00
  0.00000000E+00  0.00000000E+00  0.00000000E+00  0.00000000E+00  0.00000000E+00
  0.00000000E+00  0.00000000E+00  0.00000000E+00  0.00000000E+00  0.00000000E+00
  0.00000000E+00  0.00000000E+00  0.00000000E+00  0.00000000E+00  0.00000000E+00
  0.00000000E+00  0.00000000E+00  0.00000000E+00  0.00000000E+00  0.00000000E+00
  0.00000000E+00  0.00000000E+00  0.00000000E+00  0.00000000E+00  0.00000000E+00
  0.00000000E+00  0.00000000E+00  0.00000000E+00  0.00000000E+00  0.00000000E+00
  0.00000000E+00  0.00000000E+00  0.00000000E+00  0.00000000E+00  0.00000000E+00
  0.00000000E+00  0.00000000E+00  0.00000000E+00  0.00000000E+00  0.00000000E+00
  0.00000000E+00  0.00000000E+00  0.00000000E+00  0.00000000E+00  0.00000000E+00
  0.00000000E+00  0.00000000E+00  0.00000000E+00  0.00000000E+00  0.00000000E+00
  0.00000000E+00  0.00000000E+00  0.00000000E+00  0.00000000E+00  0.00000000E+00
  0.00000000E+00  0.00000000E+00  0.00000000E+00  0.00000000E+00  0.00000000E+00
  0.00000000E+00  0.00000000E+00  0.00000000E+00  0.00000000E+00  0.00000000E+00
  0.00000000E+00  0.00000000E+00  0.00000000E+00  0.00000000E+00  0.00000000E+00
  0.00000000E+00  0.00000000E+00  0.00000000E+00  0.00000000E+00  0.00000000E+00
  0.00000000E+00  0.00000000E+00  0.00000000E+00  0.00000000E+00  0.00000000E+00
  0.00000000E+00  0.00000000E+00  0.00000000E+00  0.00000000E+00  0.00000000E+00
  0.00000000E+00  0.00000000E+00  0.00000000E+00  0.00000000E+00  0.00000000E+00
  0.00000000E+00  0.00000000E+00  0.00000000E+00  0.00000000E+00  0.00000000E+00
  0.00000000E+00  0.00000000E+00  0.00000000E+00  0.00000000E+00  0.00000000E+00
  0.00000000E+00  0.00000000E+00  0.00000000E+00  0.00000000E+00  0.00000000E+00
  0.00000000E+00  0.00000000E+00  0.00000000E+00  0.00000000E+00  0.00000000E+00
  0.00000000E+00  0.00000000E+00  0.00000000E+00  0.00000000E+00  0.00000000E+00
  0.00000000E+00  0.00000000E+00  0.00000000E+00  0.00000000E+00  0.00000000E+00
  0.00000000E+00  0.00000000E+00  0.00000000E+00  0.00000000E+00  0.00000000E+00
  0.00000000E+00  0.00000000E+00  0.00000000E+00  0.00000000E+00  0.00000000E+00
  0.00000000E+00  0.00000000E+00  0.00000000E+00  0.00000000E+00  0.00000000E+00
  0.00000000E+00  0.00000000E+00  0.00000000E+00  0.00000000E+00  0.00000000E+00
  0.00000000E+00  0.00000000E+00  0.00000000E+00  0.00000000E+00  0.00000000E+00
  0.00000000E+00  0.00000000E+00  0.00000000E+00  0.00000000E+00  0.00000000E+00
  0.00000000E+00  0.00000000E+00  0.00000000E+00  0.00000000E+00  0.00000000E+00
  0.00000000E+00  0.00000000E+00  0.00000000E+00  0.00000000E+00  0.00000000E+00
  0.00000000E+00  0.00000000E+00  0.00000000E+00  0.00000000E+00  0.00000000E+00
  0.00000000E+00  0.00000000E+00  0.00000000E+00  0.00000000E+00  0.00000000E+00
  0.00000000E+00  0.00000000E+00  0.00000000E+00  0.00000000E+00  0.00000000E+00
  0.00000000E+00  0.00000000E+00  0.00000000E+00  0.00000000E+00  0.00000000E+00
  0.00000000E+00  0.00000000E+00  0.00000000E+00  0.00000000E+00  0.00000000E+00
  0.00000000E+00  0.00000000E+00  0.00000000E+00  0.00000000E+00  0.00000000E+00
  0.00000000E+00  0.00000000E+00  0.00000000E+00  0.00000000E+00  0.00000000E+00
  0.00000000E+00  0.00000000E+00  0.00000000E+00  0.00000000E+00  0.00000000E+00
  0.00000000E+00  0.00000000E+00  0.00000000E+00  0.00000000E+00  0.00000000E+00
  0.00000000E+00  0.00000000E+00  0.00000000E+00  0.00000000E+00  0.00000000E+00
  0.00000000E+00  0.00000000E+00  0.00000000E+00  0.00000000E+00  0.00000000E+00
  0.00000000E+00  0.00000000E+00  0.00000000E+00  0.00000000E+00  0.00000000E+00
  0.00000000E+00  0.00000000E+00  0.00000000E+00  0.00000000E+00  0.00000000E+00
  0.00000000E+00  0.00000000E+00  0.00000000E+00  0.00000000E+00  0.00000000E+00
  0.00000000E+00  0.00000000E+00  0.00000000E+00  0.00000000E+00  0.00000000E+00
  0.00000000E+00  0.00000000E+00  0.00000000E+00  0.00000000E+00  0.00000000E+00
  0.00000000E+00  0.00000000E+00  0.00000000E+00  0.00000000E+00  0.00000000E+00
  0.00000000E+00  0.00000000E+00  0.00000000E+00  0.00000000E+00  0.00000000E+00
  0.00000000E+00  0.00000000E+00  0.00000000E+00  0.00000000E+00  0.00000000E+00
  0.00000000E+00  0.00000000E+00  0.00000000E+00  0.00000000E+00  0.00000000E+00
  0.00000000E+00  0.00000000E+00  0.00000000E+00  0.00000000E+00  0.00000000E+00
  0.00000000E+00  0.00000000E+00  0.00000000E+00  0.00000000E+00  0.00000000E+00
  0.00000000E+00  0.00000000E+00  0.00000000E+00  0.00000000E+00  0.00000000E+00
  0.00000000E+00  0.00000000E+00  0.00000000E+00  0.00000000E+00  0.00000000E+00
  0.00000000E+00  0.00000000E+00  0.00000000E+00  0.00000000E+00  0.00000000E+00
  0.00000000E+00  0.00000000E+00  0.00000000E+00  0.00000000E+00  0.00000000E+00
  0.00000000E+00  0.00000000E+00  0.00000000E+00  0.00000000E+00  0.00000000E+00
  0.00000000E+00  0.00000000E+00  0.00000000E+00  0.00000000E+00  0.00000000E+00
  0.00000000E+00  0.00000000E+00  0.00000000E+00  0.00000000E+00  0.00000000E+00
  0.00000000E+00  0.00000000E+00  0.00000000E+00  0.00000000E+00  0.00000000E+00
  0.00000000E+00  0.00000000E+00  0.00000000E+00  0.00000000E+00  0.00000000E+00
  0.00000000E+00  0.00000000E+00  0.00000000E+00  0.00000000E+00  0.00000000E+00
  0.00000000E+00  0.00000000E+00  0.00000000E+00  0.00000000E+00  0.00000000E+00
  0.00000000E+00  0.00000000E+00  0.00000000E+00  0.00000000E+00  0.00000000E+00
  0.00000000E+00  0.00000000E+00  0.00000000E+00  0.00000000E+00  0.00000000E+00
  0.00000000E+00  0.00000000E+00  0.00000000E+00  0.00000000E+00  0.00000000E+00
  0.00000000E+00  0.00000000E+00  0.00000000E+00  0.00000000E+00  0.00000000E+00
  0.00000000E+00  0.00000000E+00  0.00000000E+00  0.00000000E+00  0.00000000E+00
  0.00000000E+00  0.00000000E+00  0.00000000E+00  0.00000000E+00  0.00000000E+00
  0.00000000E+00  0.00000000E+00  0.00000000E+00  0.00000000E+00  0.00000000E+00
  0.00000000E+00  0.00000000E+00  0.00000000E+00  0.00000000E+00  0.00000000E+00
  0.00000000E+00  0.00000000E+00  0.00000000E+00  0.00000000E+00  0.00000000E+00
  0.00000000E+00  0.00000000E+00  0.00000000E+00  0.00000000E+00  0.00000000E+00
  0.00000000E+00  0.00000000E+00  0.00000000E+00  0.00000000E+00  0.00000000E+00
  0.00000000E+00  0.00000000E+00  0.00000000E+00  0.00000000E+00  0.00000000E+00
  0.00000000E+00  0.00000000E+00  0.00000000E+00  0.00000000E+00  0.00000000E+00
  0.00000000E+00  0.00000000E+00  0.00000000E+00  0.00000000E+00  0.00000000E+00
  0.00000000E+00  0.00000000E+00  0.00000000E+00  0.00000000E+00  0.00000000E+00
  0.00000000E+00  0.00000000E+00  0.00000000E+00  0.00000000E+00  0.00000000E+00
  0.00000000E+00  0.00000000E+00  0.00000000E+00  0.00000000E+00  0.00000000E+00
  0.00000000E+00  0.00000000E+00  0.00000000E+00  0.00000000E+00  0.00000000E+00
  0.00000000E+00  0.00000000E+00  0.00000000E+00  0.00000000E+00  0.00000000E+00
  0.00000000E+00  0.00000000E+00  0.00000000E+00  0.00000000E+00  0.00000000E+00
  0.00000000E+00  0.00000000E+00  0.00000000E+00  0.00000000E+00  0.00000000E+00
  0.00000000E+00  0.00000000E+00  0.00000000E+00  0.00000000E+00  0.00000000E+00
  0.00000000E+00  0.00000000E+00  0.00000000E+00  0.00000000E+00  0.00000000E+00
  0.00000000E+00  0.00000000E+00  0.00000000E+00  0.00000000E+00  0.00000000E+00
  0.00000000E+00  0.00000000E+00  0.00000000E+00  0.00000000E+00  0.00000000E+00
  0.00000000E+00  0.00000000E+00  0.00000000E+00  0.00000000E+00  0.00000000E+00
  0.00000000E+00  0.00000000E+00  0.00000000E+00  0.00000000E+00  0.00000000E+00
  0.00000000E+00  0.00000000E+00  0.00000000E+00  0.00000000E+00  0.00000000E+00
  0.00000000E+00  0.00000000E+00  0.00000000E+00  0.00000000E+00  0.00000000E+00
  0.00000000E+00  0.00000000E+00  0.00000000E+00  0.00000000E+00  0.00000000E+00
  0.00000000E+00  0.00000000E+00  0.00000000E+00  0.00000000E+00  0.00000000E+00
  0.00000000E+00  0.00000000E+00  0.00000000E+00  0.00000000E+00  0.00000000E+00
  0.00000000E+00  0.00000000E+00  0.00000000E+00  0.00000000E+00  0.00000000E+00
  0.00000000E+00  0.00000000E+00  0.00000000E+00  0.00000000E+00  0.00000000E+00
  0.00000000E+00  0.00000000E+00  0.00000000E+00  0.00000000E+00  0.00000000E+00
  0.00000000E+00  0.00000000E+00  0.00000000E+00  0.00000000E+00  0.00000000E+00
  0.00000000E+00  0.00000000E+00  0.00000000E+00  0.00000000E+00  0.00000000E+00
  0.00000000E+00  0.00000000E+00  0.00000000E+00  0.00000000E+00  0.00000000E+00
  0.00000000E+00  0.00000000E+00  0.00000000E+00  0.00000000E+00  0.00000000E+00
  0.00000000E+00  0.00000000E+00  0.00000000E+00  0.00000000E+00  0.00000000E+00
  0.00000000E+00  0.00000000E+00  0.00000000E+00  0.00000000E+00  0.00000000E+00
  0.00000000E+00  0.00000000E+00  0.00000000E+00  0.00000000E+00  0.00000000E+00
  0.00000000E+00  0.00000000E+00  0.00000000E+00  0.00000000E+00  0.00000000E+00
  0.00000000E+00  0.00000000E+00  0.00000000E+00  0.00000000E+00  0.00000000E+00
  0.00000000E+00  0.00000000E+00  0.00000000E+00  0.00000000E+00  0.00000000E+00
  0.00000000E+00  0.00000000E+00  0.00000000E+00  0.00000000E+00  0.00000000E+00
  0.00000000E+00  0.00000000E+00  0.00000000E+00  0.00000000E+00  0.00000000E+00
  0.00000000E+00  0.00000000E+00  0.00000000E+00  0.00000000E+00  0.00000000E+00
  0.00000000E+00  0.00000000E+00  0.00000000E+00  0.00000000E+00  0.00000000E+00
  0.00000000E+00  0.00000000E+00  0.00000000E+00  0.00000000E+00  0.00000000E+00
  0.00000000E+00  0.00000000E+00  0.00000000E+00  0.00000000E+00  0.00000000E+00
  0.00000000E+00  0.00000000E+00  0.00000000E+00  0.00000000E+00  0.00000000E+00
  0.00000000E+00  0.00000000E+00  0.00000000E+00  0.00000000E+00  0.00000000E+00
  0.00000000E+00  0.00000000E+00  0.00000000E+00  0.00000000E+00  0.00000000E+00
  0.00000000E+00  0.00000000E+00  0.00000000E+00  0.00000000E+00  0.00000000E+00
  0.00000000E+00  0.00000000E+00  0.00000000E+00  0.00000000E+00  0.00000000E+00
  0.00000000E+00  0.00000000E+00  0.00000000E+00  0.00000000E+00  0.00000000E+00
  0.00000000E+00  0.00000000E+00  0.00000000E+00  0.00000000E+00  0.00000000E+00
  0.00000000E+00  0.00000000E+00  0.00000000E+00  0.00000000E+00  0.00000000E+00
  0.00000000E+00  0.00000000E+00  0.00000000E+00  0.00000000E+00  0.00000000E+00
  0.00000000E+00  0.00000000E+00  0.00000000E+00  0.00000000E+00  0.00000000E+00
  0.00000000E+00  0.00000000E+00  0.00000000E+00  0.00000000E+00  0.00000000E+00
  0.00000000E+00  0.00000000E+00  0.00000000E+00  0.00000000E+00  0.00000000E+00
  0.00000000E+00  0.00000000E+00  0.00000000E+00  0.00000000E+00  0.00000000E+00
  0.00000000E+00  0.00000000E+00  0.00000000E+00  0.00000000E+00  0.00000000E+00
  0.00000000E+00  0.00000000E+00  0.00000000E+00  0.00000000E+00  0.00000000E+00
  0.00000000E+00  0.00000000E+00  0.00000000E+00  0.00000000E+00  0.00000000E+00
  0.00000000E+00  0.00000000E+00  0.00000000E+00  0.00000000E+00  0.00000000E+00
  0.00000000E+00  0.00000000E+00  0.00000000E+00  0.00000000E+00  0.00000000E+00
  0.00000000E+00  0.00000000E+00  0.00000000E+00  0.00000000E+00  0.00000000E+00
  0.00000000E+00  0.00000000E+00  0.00000000E+00  0.00000000E+00  0.00000000E+00
  0.00000000E+00  0.00000000E+00  0.00000000E+00  0.00000000E+00  0.00000000E+00
  0.00000000E+00  0.00000000E+00  0.00000000E+00  0.00000000E+00  0.00000000E+00
  0.00000000E+00  0.00000000E+00  0.00000000E+00  0.00000000E+00  0.00000000E+00
  0.00000000E+00  0.00000000E+00  0.00000000E+00  0.00000000E+00  0.00000000E+00
  0.00000000E+00  0.00000000E+00  0.00000000E+00  0.00000000E+00  0.00000000E+00
  0.00000000E+00  0.00000000E+00  0.00000000E+00  0.00000000E+00  0.00000000E+00
  0.00000000E+00  0.00000000E+00  0.00000000E+00  0.00000000E+00  0.00000000E+00
  0.00000000E+00  0.00000000E+00  0.00000000E+00  0.00000000E+00  0.00000000E+00
  0.00000000E+00  0.00000000E+00  0.00000000E+00  0.00000000E+00  0.00000000E+00
  0.00000000E+00  0.00000000E+00  0.00000000E+00  0.00000000E+00  0.00000000E+00
  0.00000000E+00  0.00000000E+00  0.00000000E+00  0.00000000E+00  0.00000000E+00
  0.00000000E+00  0.00000000E+00  0.00000000E+00  0.00000000E+00  0.00000000E+00
  0.00000000E+00  0.00000000E+00  0.00000000E+00  0.00000000E+00  0.00000000E+00
  0.00000000E+00  0.00000000E+00  0.00000000E+00  0.00000000E+00  0.00000000E+00
  0.00000000E+00  0.00000000E+00  0.00000000E+00  0.00000000E+00  0.00000000E+00
  0.00000000E+00  0.00000000E+00  0.00000000E+00  0.00000000E+00  0.00000000E+00
  0.00000000E+00  0.00000000E+00  0.00000000E+00  0.00000000E+00  0.00000000E+00
  0.00000000E+00  0.00000000E+00  0.00000000E+00  0.00000000E+00  0.00000000E+00
  0.00000000E+00  0.00000000E+00  0.00000000E+00  0.00000000E+00  0.00000000E+00
  0.00000000E+00  0.00000000E+00  0.00000000E+00  0.00000000E+00  0.00000000E+00
  0.00000000E+00  0.00000000E+00  0.00000000E+00  0.00000000E+00  0.00000000E+00
  0.00000000E+00  0.00000000E+00  0.00000000E+00  0.00000000E+00  0.00000000E+00
  0.00000000E+00  0.00000000E+00  0.00000000E+00  0.00000000E+00  0.00000000E+00
  0.00000000E+00  0.00000000E+00  0.00000000E+00  0.00000000E+00  0.00000000E+00
  0.00000000E+00  0.00000000E+00  0.00000000E+00  0.00000000E+00  0.00000000E+00
  0.00000000E+00  0.00000000E+00  0.00000000E+00  0.00000000E+00  0.00000000E+00
  0.00000000E+00  0.00000000E+00  0.00000000E+00  0.00000000E+00  0.00000000E+00
  0.00000000E+00  0.00000000E+00  0.00000000E+00  0.00000000E+00  0.00000000E+00
  0.00000000E+00  0.00000000E+00  0.00000000E+00  0.00000000E+00  0.00000000E+00
  0.00000000E+00  0.00000000E+00  0.00000000E+00  0.00000000E+00  0.00000000E+00
  0.00000000E+00  0.00000000E+00  0.00000000E+00  0.00000000E+00  0.00000000E+00
  0.00000000E+00  0.00000000E+00  0.00000000E+00  0.00000000E+00  0.00000000E+00
  0.00000000E+00  0.00000000E+00  0.00000000E+00  0.00000000E+00  0.00000000E+00
  0.00000000E+00  0.00000000E+00  0.00000000E+00  0.00000000E+00  0.00000000E+00
  0.00000000E+00  0.00000000E+00  0.00000000E+00  0.00000000E+00  0.00000000E+00
  0.00000000E+00  0.00000000E+00  0.00000000E+00  0.00000000E+00  0.00000000E+00
  0.00000000E+00  0.00000000E+00  0.00000000E+00  0.00000000E+00  0.00000000E+00
  0.00000000E+00  0.00000000E+00  0.00000000E+00  0.00000000E+00  0.00000000E+00
  0.00000000E+00  0.00000000E+00  0.00000000E+00  0.00000000E+00  0.00000000E+00
  0.00000000E+00  0.00000000E+00  0.00000000E+00  0.00000000E+00  0.00000000E+00
  0.00000000E+00  0.00000000E+00  0.00000000E+00  0.00000000E+00  0.00000000E+00
  0.00000000E+00  0.00000000E+00  0.00000000E+00  0.00000000E+00  0.00000000E+00
  0.00000000E+00  0.00000000E+00  0.00000000E+00  0.00000000E+00  0.00000000E+00
  0.00000000E+00  0.00000000E+00  0.00000000E+00  0.00000000E+00  0.00000000E+00
  0.00000000E+00  0.00000000E+00  0.00000000E+00  0.00000000E+00  0.00000000E+00
  0.00000000E+00  0.00000000E+00  0.00000000E+00  0.00000000E+00  0.00000000E+00
  0.00000000E+00  0.00000000E+00  0.00000000E+00  0.00000000E+00  0.00000000E+00
  0.00000000E+00  0.00000000E+00  0.00000000E+00  0.00000000E+00  0.00000000E+00
  0.00000000E+00  0.00000000E+00  0.00000000E+00  0.00000000E+00  0.00000000E+00
  0.00000000E+00  0.00000000E+00  0.00000000E+00  0.00000000E+00  0.00000000E+00
  0.00000000E+00  0.00000000E+00  0.00000000E+00  0.00000000E+00  0.00000000E+00
  0.00000000E+00  0.00000000E+00  0.00000000E+00  0.00000000E+00  0.00000000E+00
  0.00000000E+00  0.00000000E+00  0.00000000E+00  0.00000000E+00  0.00000000E+00
  0.00000000E+00  0.00000000E+00  0.00000000E+00  0.00000000E+00  0.00000000E+00
  0.00000000E+00  0.00000000E+00  0.00000000E+00  0.00000000E+00  0.00000000E+00
  0.00000000E+00  0.00000000E+00  0.00000000E+00  0.00000000E+00  0.00000000E+00
  0.00000000E+00  0.00000000E+00  0.00000000E+00  0.00000000E+00  0.00000000E+00
  0.00000000E+00  0.00000000E+00  0.00000000E+00  0.00000000E+00  0.00000000E+00
  0.00000000E+00  0.00000000E+00  0.00000000E+00  0.00000000E+00  0.00000000E+00
  0.00000000E+00  0.00000000E+00  0.00000000E+00  0.00000000E+00  0.00000000E+00
  0.00000000E+00  0.00000000E+00  0.00000000E+00  0.00000000E+00  0.00000000E+00
  0.00000000E+00  0.00000000E+00  0.00000000E+00  0.00000000E+00  0.00000000E+00
  0.00000000E+00  0.00000000E+00  0.00000000E+00  0.00000000E+00  0.00000000E+00
  0.00000000E+00  0.00000000E+00  0.00000000E+00  0.00000000E+00  0.00000000E+00
  0.00000000E+00  0.00000000E+00  0.00000000E+00  0.00000000E+00  0.00000000E+00
  0.00000000E+00  0.00000000E+00  0.00000000E+00  0.00000000E+00  0.00000000E+00
  0.00000000E+00  0.00000000E+00  0.00000000E+00  0.00000000E+00  0.00000000E+00
  0.00000000E+00  0.00000000E+00  0.00000000E+00  0.00000000E+00  0.00000000E+00
  0.00000000E+00  0.00000000E+00  0.00000000E+00  0.00000000E+00  0.00000000E+00
  0.00000000E+00  0.00000000E+00  0.00000000E+00  0.00000000E+00  0.00000000E+00
  0.00000000E+00  0.00000000E+00  0.00000000E+00  0.00000000E+00  0.00000000E+00
  0.00000000E+00  0.00000000E+00  0.00000000E+00  0.00000000E+00  0.00000000E+00
  0.00000000E+00  0.00000000E+00  0.00000000E+00  0.00000000E+00  0.00000000E+00
  0.00000000E+00  0.00000000E+00  0.00000000E+00  0.00000000E+00  0.00000000E+00
  0.00000000E+00  0.00000000E+00  0.00000000E+00  0.00000000E+00  0.00000000E+00
  0.00000000E+00  0.00000000E+00  0.00000000E+00  0.00000000E+00  0.00000000E+00
  0.00000000E+00  0.00000000E+00  0.00000000E+00  0.00000000E+00  0.00000000E+00
  0.00000000E+00  0.00000000E+00  0.00000000E+00  0.00000000E+00  0.00000000E+00
  0.00000000E+00  0.00000000E+00  0.00000000E+00  0.00000000E+00  0.00000000E+00
  0.00000000E+00  0.00000000E+00  0.00000000E+00  0.00000000E+00  0.00000000E+00
  0.00000000E+00  0.00000000E+00  0.00000000E+00  0.00000000E+00  0.00000000E+00
  0.00000000E+00  0.00000000E+00  0.00000000E+00  0.00000000E+00  0.00000000E+00
  0.00000000E+00  0.00000000E+00  0.00000000E+00  0.00000000E+00  0.00000000E+00
  0.00000000E+00  0.00000000E+00  0.00000000E+00  0.00000000E+00  0.00000000E+00
  0.00000000E+00  0.00000000E+00  0.00000000E+00  0.00000000E+00  0.00000000E+00
  0.00000000E+00  0.00000000E+00  0.00000000E+00  0.00000000E+00  0.00000000E+00
  0.00000000E+00  0.00000000E+00  0.00000000E+00  0.00000000E+00  0.00000000E+00
  0.00000000E+00  0.00000000E+00  0.00000000E+00  0.00000000E+00  0.00000000E+00
  0.00000000E+00  0.00000000E+00  0.00000000E+00  0.00000000E+00  0.00000000E+00
  0.00000000E+00  0.00000000E+00  0.00000000E+00  0.00000000E+00  0.00000000E+00
  0.00000000E+00  0.00000000E+00  0.00000000E+00  0.00000000E+00  0.00000000E+00
  0.00000000E+00  0.00000000E+00  0.00000000E+00  0.00000000E+00  0.00000000E+00
  0.00000000E+00  0.00000000E+00  0.00000000E+00  0.00000000E+00  0.00000000E+00
  0.00000000E+00  0.00000000E+00  0.00000000E+00  0.00000000E+00  0.00000000E+00
  0.00000000E+00  0.00000000E+00  0.00000000E+00  0.00000000E+00  0.00000000E+00
  0.00000000E+00  0.00000000E+00  0.00000000E+00  0.00000000E+00  0.00000000E+00
  0.00000000E+00  0.00000000E+00  0.00000000E+00  0.00000000E+00  0.00000000E+00
  0.00000000E+00  0.00000000E+00  0.00000000E+00  0.00000000E+00  0.00000000E+00
  0.00000000E+00  0.00000000E+00  0.00000000E+00  0.00000000E+00  0.00000000E+00
  0.00000000E+00  0.00000000E+00  0.00000000E+00  0.00000000E+00  0.00000000E+00
  0.00000000E+00  0.00000000E+00  0.00000000E+00  0.00000000E+00  0.00000000E+00
  0.00000000E+00  0.00000000E+00  0.00000000E+00  0.00000000E+00  0.00000000E+00
  0.00000000E+00  0.00000000E+00  0.00000000E+00  0.00000000E+00  0.00000000E+00
  0.00000000E+00  0.00000000E+00  0.00000000E+00  0.00000000E+00  0.00000000E+00
  0.00000000E+00  0.00000000E+00  0.00000000E+00  0.00000000E+00  0.00000000E+00
  0.00000000E+00  0.00000000E+00  0.00000000E+00  0.00000000E+00  0.00000000E+00
  0.00000000E+00  0.00000000E+00  0.00000000E+00  0.00000000E+00  0.00000000E+00
  0.00000000E+00  0.00000000E+00  0.00000000E+00  0.00000000E+00  0.00000000E+00
  0.00000000E+00  0.00000000E+00  0.00000000E+00  0.00000000E+00  0.00000000E+00
  0.00000000E+00  0.00000000E+00  0.00000000E+00  0.00000000E+00  0.00000000E+00
  0.00000000E+00  0.00000000E+00  0.00000000E+00  0.00000000E+00  0.00000000E+00
  0.00000000E+00  0.00000000E+00  0.00000000E+00  0.00000000E+00  0.00000000E+00
  0.00000000E+00  0.00000000E+00  0.00000000E+00  0.00000000E+00  0.00000000E+00
  0.00000000E+00  0.00000000E+00  0.00000000E+00  0.00000000E+00  0.00000000E+00
  0.00000000E+00  0.00000000E+00  0.00000000E+00  0.00000000E+00  0.00000000E+00
  0.00000000E+00  0.00000000E+00  0.00000000E+00  0.00000000E+00  0.00000000E+00
  0.00000000E+00  0.00000000E+00  0.00000000E+00  0.00000000E+00  0.00000000E+00
  0.00000000E+00  0.00000000E+00  0.00000000E+00  0.00000000E+00  0.00000000E+00
  0.00000000E+00  0.00000000E+00  0.00000000E+00  0.00000000E+00  0.00000000E+00
  0.00000000E+00  0.00000000E+00  0.00000000E+00  0.00000000E+00  0.00000000E+00
  0.00000000E+00  0.00000000E+00  0.00000000E+00  0.00000000E+00  0.00000000E+00
  0.00000000E+00  0.00000000E+00  0.00000000E+00  0.00000000E+00  0.00000000E+00
  0.00000000E+00  0.00000000E+00  0.00000000E+00  0.00000000E+00  0.00000000E+00
  0.00000000E+00  0.00000000E+00  0.00000000E+00  0.00000000E+00  0.00000000E+00
  0.00000000E+00  0.00000000E+00  0.00000000E+00  0.00000000E+00  0.00000000E+00
  0.00000000E+00  0.00000000E+00  0.00000000E+00  0.00000000E+00  0.00000000E+00
  0.00000000E+00  0.00000000E+00  0.00000000E+00  0.00000000E+00  0.00000000E+00
  0.00000000E+00  0.00000000E+00  0.00000000E+00  0.00000000E+00  0.00000000E+00
  0.00000000E+00  0.00000000E+00  0.00000000E+00  0.00000000E+00  0.00000000E+00
  0.00000000E+00  0.00000000E+00  0.00000000E+00  0.00000000E+00  0.00000000E+00
  0.00000000E+00  0.00000000E+00  0.00000000E+00  0.00000000E+00  0.00000000E+00
  0.00000000E+00  0.00000000E+00  0.00000000E+00  0.00000000E+00  0.00000000E+00
  0.00000000E+00  0.00000000E+00  0.00000000E+00  0.00000000E+00  0.00000000E+00
  0.00000000E+00  0.00000000E+00  0.00000000E+00  0.00000000E+00  0.00000000E+00
  0.00000000E+00  0.00000000E+00  0.00000000E+00  0.00000000E+00  0.00000000E+00
  0.00000000E+00  0.00000000E+00  0.00000000E+00  0.00000000E+00  0.00000000E+00
  0.00000000E+00  0.00000000E+00  0.00000000E+00  0.00000000E+00  0.00000000E+00
  0.00000000E+00  0.00000000E+00  0.00000000E+00  0.00000000E+00  0.00000000E+00
  0.00000000E+00  0.00000000E+00  0.00000000E+00  0.00000000E+00  0.00000000E+00
  0.00000000E+00  0.00000000E+00  0.00000000E+00  0.00000000E+00  0.00000000E+00
  0.00000000E+00  0.00000000E+00  0.00000000E+00  0.00000000E+00  0.00000000E+00
  0.00000000E+00  0.00000000E+00  0.00000000E+00  0.00000000E+00  0.00000000E+00
  0.00000000E+00  0.00000000E+00  0.00000000E+00  0.00000000E+00  0.00000000E+00
  0.00000000E+00  0.00000000E+00  0.00000000E+00  0.00000000E+00  0.00000000E+00
  0.00000000E+00  0.00000000E+00  0.00000000E+00  0.00000000E+00  0.00000000E+00
  0.00000000E+00  0.00000000E+00  0.00000000E+00  0.00000000E+00  0.00000000E+00
  0.00000000E+00  0.00000000E+00  0.00000000E+00  0.00000000E+00  0.00000000E+00
  0.00000000E+00  0.00000000E+00  0.00000000E+00  0.00000000E+00  0.00000000E+00
  0.00000000E+00  0.00000000E+00  0.00000000E+00  0.00000000E+00  0.00000000E+00
  0.00000000E+00  0.00000000E+00  0.00000000E+00  0.00000000E+00  0.00000000E+00
  0.00000000E+00  0.00000000E+00  0.00000000E+00  0.00000000E+00  0.00000000E+00
  0.00000000E+00  0.00000000E+00  0.00000000E+00  0.00000000E+00  0.00000000E+00
  0.00000000E+00  0.00000000E+00  0.00000000E+00  0.00000000E+00  0.00000000E+00
  0.00000000E+00  0.00000000E+00  0.00000000E+00  0.00000000E+00  0.00000000E+00
  0.00000000E+00  0.00000000E+00  0.00000000E+00  0.00000000E+00  0.00000000E+00
  0.00000000E+00  0.00000000E+00  0.00000000E+00  0.00000000E+00  0.00000000E+00
  0.00000000E+00  0.00000000E+00  0.00000000E+00  0.00000000E+00  0.00000000E+00
  0.00000000E+00  0.00000000E+00  0.00000000E+00  0.00000000E+00  0.00000000E+00
  0.00000000E+00  0.00000000E+00  0.00000000E+00  0.00000000E+00  0.00000000E+00
  0.00000000E+00  0.00000000E+00  0.00000000E+00  0.00000000E+00  0.00000000E+00
  0.00000000E+00  0.00000000E+00  0.00000000E+00  0.00000000E+00  0.00000000E+00
  0.00000000E+00  0.00000000E+00  0.00000000E+00  0.00000000E+00  0.00000000E+00
  0.00000000E+00  0.00000000E+00  0.00000000E+00  0.00000000E+00  0.00000000E+00
  0.00000000E+00  0.00000000E+00  0.00000000E+00  0.00000000E+00  0.00000000E+00
  0.00000000E+00  0.00000000E+00  0.00000000E+00  0.00000000E+00  0.00000000E+00
  0.00000000E+00  0.00000000E+00  0.00000000E+00  0.00000000E+00  0.00000000E+00
  0.00000000E+00  0.00000000E+00  0.00000000E+00  0.00000000E+00  0.00000000E+00
  0.00000000E+00  0.00000000E+00  0.00000000E+00  0.00000000E+00  0.00000000E+00
  0.00000000E+00  0.00000000E+00  0.00000000E+00  0.00000000E+00  0.00000000E+00
  0.00000000E+00  0.00000000E+00  0.00000000E+00  0.00000000E+00  0.00000000E+00
  0.00000000E+00  0.00000000E+00  0.00000000E+00  0.00000000E+00  0.00000000E+00
  0.00000000E+00  0.00000000E+00  0.00000000E+00  0.00000000E+00  0.00000000E+00
  0.00000000E+00  0.00000000E+00  0.00000000E+00  0.00000000E+00  0.00000000E+00
  0.00000000E+00  0.00000000E+00  0.00000000E+00  0.00000000E+00  0.00000000E+00
  0.00000000E+00  0.00000000E+00  0.00000000E+00  0.00000000E+00  0.00000000E+00
  0.00000000E+00  0.00000000E+00  0.00000000E+00  0.00000000E+00  0.00000000E+00
  0.00000000E+00  0.00000000E+00  0.00000000E+00  0.00000000E+00  0.00000000E+00
  0.00000000E+00  0.00000000E+00  0.00000000E+00  0.00000000E+00  0.00000000E+00
  0.00000000E+00  0.00000000E+00  0.00000000E+00  0.00000000E+00  0.00000000E+00
  0.00000000E+00  0.00000000E+00  0.00000000E+00  0.00000000E+00  0.00000000E+00
  0.00000000E+00  0.00000000E+00  0.00000000E+00  0.00000000E+00  0.00000000E+00
  0.00000000E+00  0.00000000E+00  0.00000000E+00  0.00000000E+00  0.00000000E+00
  0.00000000E+00  0.00000000E+00  0.00000000E+00  0.00000000E+00  0.00000000E+00
  0.00000000E+00  0.00000000E+00  0.00000000E+00  0.00000000E+00  0.00000000E+00
  0.00000000E+00  0.00000000E+00  0.00000000E+00  0.00000000E+00  0.00000000E+00
  0.00000000E+00  0.00000000E+00  0.00000000E+00  0.00000000E+00  0.00000000E+00
  0.00000000E+00  0.00000000E+00  0.00000000E+00  0.00000000E+00  0.00000000E+00
  0.00000000E+00  0.00000000E+00  0.00000000E+00  0.00000000E+00  0.00000000E+00
  0.00000000E+00  0.00000000E+00  0.00000000E+00  0.00000000E+00  0.00000000E+00
  0.00000000E+00  0.00000000E+00  0.00000000E+00  0.00000000E+00  0.00000000E+00
  0.00000000E+00  0.00000000E+00  0.00000000E+00  0.00000000E+00  0.00000000E+00
  0.00000000E+00  0.00000000E+00  0.00000000E+00  0.00000000E+00  0.00000000E+00
  0.00000000E+00  0.00000000E+00  0.00000000E+00  0.00000000E+00  0.00000000E+00
  0.00000000E+00  0.00000000E+00  0.00000000E+00  0.00000000E+00  0.00000000E+00
  0.00000000E+00  0.00000000E+00  0.00000000E+00  0.00000000E+00  0.00000000E+00
  0.00000000E+00  0.00000000E+00  0.00000000E+00  0.00000000E+00  0.00000000E+00
  0.00000000E+00  0.00000000E+00  0.00000000E+00  0.00000000E+00  0.00000000E+00
  0.00000000E+00  0.00000000E+00  0.00000000E+00  0.00000000E+00  0.00000000E+00
  0.00000000E+00  0.00000000E+00  0.00000000E+00  0.00000000E+00  0.00000000E+00
  0.00000000E+00  0.00000000E+00  0.00000000E+00  0.00000000E+00  0.00000000E+00
  0.00000000E+00  0.00000000E+00  0.00000000E+00  0.00000000E+00  0.00000000E+00
  0.00000000E+00  0.00000000E+00  0.00000000E+00  0.00000000E+00  0.00000000E+00
  0.00000000E+00  0.00000000E+00  0.00000000E+00  0.00000000E+00  0.00000000E+00
  0.00000000E+00  0.00000000E+00  0.00000000E+00  0.00000000E+00  0.00000000E+00
  0.00000000E+00  0.00000000E+00  0.00000000E+00  0.00000000E+00  0.00000000E+00
  0.00000000E+00  0.00000000E+00  0.00000000E+00  0.00000000E+00  0.00000000E+00
  0.00000000E+00  0.00000000E+00  0.00000000E+00  0.00000000E+00  0.00000000E+00
  0.00000000E+00  0.00000000E+00  0.00000000E+00  0.00000000E+00  0.00000000E+00
  0.00000000E+00  0.00000000E+00  0.00000000E+00  0.00000000E+00  0.00000000E+00
  0.00000000E+00  0.00000000E+00  0.00000000E+00  0.00000000E+00  0.00000000E+00
  0.00000000E+00  0.00000000E+00  0.00000000E+00  0.00000000E+00  0.00000000E+00
  0.00000000E+00  0.00000000E+00  0.00000000E+00  0.00000000E+00  0.00000000E+00
  0.00000000E+00  0.00000000E+00  0.00000000E+00  0.00000000E+00  0.00000000E+00
  0.00000000E+00  0.00000000E+00  0.00000000E+00  0.00000000E+00  0.00000000E+00
  0.00000000E+00  0.00000000E+00  0.00000000E+00  0.00000000E+00  0.00000000E+00
  0.00000000E+00  0.00000000E+00  0.00000000E+00  0.00000000E+00  0.00000000E+00
  0.00000000E+00  0.00000000E+00  0.00000000E+00  0.00000000E+00  0.00000000E+00
  0.00000000E+00  0.00000000E+00  0.00000000E+00  0.00000000E+00  0.00000000E+00
  0.00000000E+00  0.00000000E+00  0.00000000E+00  0.00000000E+00  0.00000000E+00
  0.00000000E+00  0.00000000E+00  0.00000000E+00  0.00000000E+00  0.00000000E+00
  0.00000000E+00  0.00000000E+00  0.00000000E+00  0.00000000E+00  0.00000000E+00
  0.00000000E+00  0.00000000E+00  0.00000000E+00  0.00000000E+00  0.00000000E+00
  0.00000000E+00  0.00000000E+00  0.00000000E+00  0.00000000E+00  0.00000000E+00
  0.00000000E+00  0.00000000E+00  0.00000000E+00  0.00000000E+00  0.00000000E+00
  0.00000000E+00  0.00000000E+00  0.00000000E+00  0.00000000E+00  0.00000000E+00
  0.00000000E+00  0.00000000E+00  0.00000000E+00  0.00000000E+00  0.00000000E+00
  0.00000000E+00  0.00000000E+00  0.00000000E+00  0.00000000E+00  0.00000000E+00
  0.00000000E+00  0.00000000E+00  0.00000000E+00  0.00000000E+00  0.00000000E+00
  0.00000000E+00  0.00000000E+00  0.00000000E+00  0.00000000E+00  0.00000000E+00
  0.00000000E+00  0.00000000E+00  0.00000000E+00  0.00000000E+00  0.00000000E+00
  0.00000000E+00  0.00000000E+00  0.00000000E+00  0.00000000E+00  0.00000000E+00
  0.00000000E+00  0.00000000E+00  0.00000000E+00  0.00000000E+00  0.00000000E+00
  0.00000000E+00  0.00000000E+00  0.00000000E+00  0.00000000E+00  0.00000000E+00
  0.00000000E+00  0.00000000E+00  0.00000000E+00  0.00000000E+00  0.00000000E+00
  0.00000000E+00  0.00000000E+00  0.00000000E+00  0.00000000E+00  0.00000000E+00
  0.00000000E+00  0.00000000E+00  0.00000000E+00  0.00000000E+00  0.00000000E+00
  0.00000000E+00  0.00000000E+00  0.00000000E+00  0.00000000E+00  0.00000000E+00
  0.00000000E+00  0.00000000E+00  0.00000000E+00  0.00000000E+00  0.00000000E+00
  0.00000000E+00  0.00000000E+00  0.00000000E+00  0.00000000E+00  0.00000000E+00
  0.00000000E+00  0.00000000E+00  0.00000000E+00  0.00000000E+00  0.00000000E+00
  0.00000000E+00  0.00000000E+00  0.00000000E+00  0.00000000E+00  0.00000000E+00
  0.00000000E+00  0.00000000E+00  0.00000000E+00  0.00000000E+00  0.00000000E+00
Gaussian Version                           C   N=           2
AppleM1-GDVRevJ.32+     
