PH3                                                                     
Freq      RB3LYP                                                      6-31G(d)            
Number of atoms                            I                4
Info1-9                                    I   N=           9
          13          13           0           0           0         101
           6          18        -502
Full Title                                 C   N=           1
PH3         
Route                                      C   N=           6
#B3LYP 6-31G* freq=anharm output=pickett iop(7/8=10) symm=co
m           
Point Group                                C   N=           2
C03V                    
Point Group NOp                            I                6
Point Group Abelian NOp                    I                2
Point Group NClass                         I                3
Point Group NIrrep                         I                3
Point Group NGen                           I                2
Point Group NOp symm assign                I                2
Point Group Irrep Names                    H   N=           3
A1      A2      E       
Point Group Class Names                    H   N=           3
E       2C3     3Sgm    
Point Group Generators                     I   N=           2
           3           2
Point Group Class of Operators             I   N=           6
           1           3           2           2           3           3
Point Group Rotations                      R   N=          72
  1.00000000E+00 -3.72165197E-16  0.00000000E+00 -3.72165212E-16  1.00000000E+00
  0.00000000E+00  0.00000000E+00  0.00000000E+00  1.00000000E+00  0.00000000E+00
  0.00000000E+00  0.00000000E+00 -1.00000000E+00 -9.97583182E-24  0.00000000E+00
 -5.12534142E-24  1.00000000E+00  0.00000000E+00  0.00000000E+00  0.00000000E+00
  1.00000000E+00  0.00000000E+00  0.00000000E+00  0.00000000E+00 -5.00000000E-01
 -8.66025404E-01  0.00000000E+00  8.66025404E-01 -5.00000000E-01  0.00000000E+00
  0.00000000E+00  0.00000000E+00  1.00000000E+00  0.00000000E+00  0.00000000E+00
  0.00000000E+00 -5.00000000E-01  8.66025404E-01  0.00000000E+00 -8.66025404E-01
 -5.00000000E-01  0.00000000E+00  0.00000000E+00  0.00000000E+00  1.00000000E+00
  0.00000000E+00  0.00000000E+00  0.00000000E+00  5.00000000E-01  8.66025404E-01
  0.00000000E+00  8.66025404E-01 -5.00000000E-01  0.00000000E+00  0.00000000E+00
  0.00000000E+00  1.00000000E+00  0.00000000E+00  0.00000000E+00  0.00000000E+00
  5.00000000E-01 -8.66025404E-01  0.00000000E+00 -8.66025404E-01 -5.00000000E-01
  0.00000000E+00  0.00000000E+00  0.00000000E+00  1.00000000E+00  0.00000000E+00
  0.00000000E+00  0.00000000E+00
Point Group Cell Trans                     I   N=          18
           0           0           0           0           0           0
           0           0           0           0           0           0
           0           0           0           0           0           0
Point Group Char Table                     R   N=           9
  1.00000000E+00  1.00000000E+00  1.00000000E+00  1.00000000E+00  1.00000000E+00
 -1.00000000E+00  2.00000000E+00 -1.00000000E+00  0.00000000E+00
Point Group Atom Permutations              I   N=          24
           1           2           3           4           1           2
           4           3           1           3           4           2
           1           4           2           3           1           3
           2           4           1           4           3           2
Charge                                     I                0
Multiplicity                               I                1
Number of electrons                        I               18
Number of alpha electrons                  I                9
Number of beta electrons                   I                9
Number of basis functions                  I               25
Number of independent functions            I               25
Number of point charges in /Mol/           I                0
Number of translation vectors              I                0
Atomic numbers                             I   N=           4
          15           1           1           1
Nuclear charges                            R   N=           4
  1.50000000E+01  1.00000000E+00  1.00000000E+00  1.00000000E+00
Current cartesian coordinates              R   N=          12
  0.00000000E+00  0.00000000E+00  6.68565357E-02 -6.60129388E-16  1.77375363E+00
 -6.84906752E-01  1.53611571E+00 -8.86876816E-01 -6.84906752E-01 -1.53611571E+00
 -8.86876816E-01 -6.84906752E-01
Number of symbols in /Mol/                 I                0
Int Atom Types                             I   N=           4
           0           0           0           0
Force Field                                I                0
Atom Types                                 C   N=           4
                                                
MM charges                                 R   N=           4
  0.00000000E+00  0.00000000E+00  0.00000000E+00  0.00000000E+00
Integer atomic weights                     I   N=           4
          31           1           1           1
Real atomic weights                        R   N=           4
  3.09737634E+01  1.00782504E+00  1.00782504E+00  1.00782504E+00
Atom fragment info                         I   N=           4
           0           0           0           0
Atom residue num                           I   N=           4
           0           0           0           0
Nuclear spins                              I   N=           4
           1           1           1           1
Nuclear ZEff                               R   N=           4
 -1.29400000E+01 -1.00000000E+00 -1.00000000E+00 -1.00000000E+00
Nuclear ZNuc                               R   N=           4
  1.50000000E+01  1.00000000E+00  1.00000000E+00  1.00000000E+00
Nuclear QMom                               R   N=           4
  0.00000000E+00  0.00000000E+00  0.00000000E+00  0.00000000E+00
Nuclear GFac                               R   N=           4
  1.13160000E+00  2.79284600E+00  2.79284600E+00  2.79284600E+00
MicOpt                                     I   N=           4
          -1          -1          -1          -1
Number of residues                         I                0
Number of secondary structures             I                0
SymInf integers                            I   N=          26
           2           2           1           1           1          -1
           1           1           0           0           0           0
           0           0           0           0           0           0
           0           0           0           0           0           0
           0           0
RotTr to input orientation                 R   N=          12
 -3.06428257E-07 -1.00000000E+00  0.00000000E+00  1.00000000E+00 -3.06428256E-07
  0.00000000E+00  0.00000000E+00  0.00000000E+00  1.00000000E+00 -1.95937624E-17
  1.30625083E-17  6.66374972E-02
Number of contracted shells                I               11
Number of primitive shells                 I               29
Pure/Cartesian d shells                    I                1
Pure/Cartesian f shells                    I                0
Highest angular momentum                   I                2
Largest degree of contraction              I                6
Shell types                                I   N=          11
           0          -1          -1          -1           2           0
           0           0           0           0           0
Number of primitives per shell             I   N=          11
           6           6           3           1           1           3
           1           3           1           3           1
Shell to atom map                          I   N=          11
           1           1           1           1           1           2
           2           3           3           4           4
Primitive exponents                        R   N=          29
  1.94133000E+04  2.90942000E+03  6.61364000E+02  1.85759000E+02  5.91943000E+01
  2.00310000E+01  3.39478000E+02  8.10101000E+01  2.58780000E+01  9.45221000E+00
  3.66566000E+00  1.46746000E+00  2.15623000E+00  7.48997000E-01  2.83145000E-01
  9.98317000E-02  5.50000000E-01  1.87311370E+01  2.82539436E+00  6.40121692E-01
  1.61277759E-01  1.87311370E+01  2.82539436E+00  6.40121692E-01  1.61277759E-01
  1.87311370E+01  2.82539436E+00  6.40121692E-01  1.61277759E-01
Contraction coefficients                   R   N=          29
  1.85159892E-03  1.42061917E-02  6.99994593E-02  2.40078860E-01  4.84761718E-01
  3.35199805E-01 -2.78217010E-03 -3.60499014E-02 -1.16631004E-01  9.68328036E-02
  6.14418023E-01  4.03798015E-01 -2.52924114E-01  3.28518447E-02  1.08125476E+00
  1.00000000E+00  1.00000000E+00  3.34946043E-02  2.34726953E-01  8.13757326E-01
  1.00000000E+00  3.34946043E-02  2.34726953E-01  8.13757326E-01  1.00000000E+00
  3.34946043E-02  2.34726953E-01  8.13757326E-01  1.00000000E+00
P(S=P) Contraction coefficients            R   N=          29
  0.00000000E+00  0.00000000E+00  0.00000000E+00  0.00000000E+00  0.00000000E+00
  0.00000000E+00  4.56461619E-03  3.36935719E-02  1.39754883E-01  3.39361717E-01
  4.50920624E-01  2.38585801E-01 -1.77653127E-02  2.74058196E-01  7.85421563E-01
  1.00000000E+00  0.00000000E+00  0.00000000E+00  0.00000000E+00  0.00000000E+00
  0.00000000E+00  0.00000000E+00  0.00000000E+00  0.00000000E+00  0.00000000E+00
  0.00000000E+00  0.00000000E+00  0.00000000E+00  0.00000000E+00
Coordinates of each shell                  R   N=          33
  0.00000000E+00  0.00000000E+00  6.68565357E-02  0.00000000E+00  0.00000000E+00
  6.68565357E-02  0.00000000E+00  0.00000000E+00  6.68565357E-02  0.00000000E+00
  0.00000000E+00  6.68565357E-02  0.00000000E+00  0.00000000E+00  6.68565357E-02
 -3.30064694E-16  1.77375363E+00 -6.84906752E-01 -3.30064694E-16  1.77375363E+00
 -6.84906752E-01  1.53611571E+00 -8.86876816E-01 -6.84906752E-01  1.53611571E+00
 -8.86876816E-01 -6.84906752E-01 -1.53611571E+00 -8.86876816E-01 -6.84906752E-01
 -1.53611571E+00 -8.86876816E-01 -6.84906752E-01
Constraint Structure                       R   N=          12
  1.30625023E-17  1.95937664E-17  6.68565357E-02 -5.43528233E-07  1.77375363E+00
 -6.84906752E-01  1.53611706E+00 -8.86876345E-01 -6.84906752E-01 -1.53611652E+00
 -8.86877287E-01 -6.84906752E-01
Constraint Force Constants                 R   N=          12
  0.00000000E+00  0.00000000E+00  0.00000000E+00  0.00000000E+00  0.00000000E+00
  0.00000000E+00  0.00000000E+00  0.00000000E+00  0.00000000E+00  0.00000000E+00
  0.00000000E+00  0.00000000E+00
Num ILSW                                   I              100
ILSW                                       I   N=         100
           0           1           0           1           2           0
           0           0           0           0        4002          -1
           5           0           0           0           2          -1
           0           0           0           0           1           0
           1           0           0           0           0           0
           0           0      100000           0          -1           0
           0           0           0           0           0           0
           0           0           0           1           0           0
           0 -2000000000           1           0           0           0
           0           0        2004          68           0           0
           0           0           5           0           0           0
           0           0           0           0           0           1
           0           0           0           0           0           0
           0           0           0           0           0           0
           0           0           0           0           0           0
           0           0           1           0           0           0
           0           0           0           0
Num RLSW                                   I               68
RLSW                                       R   N=          68
  8.00000000E-01  7.20000000E-01  1.00000000E+00  8.10000000E-01  2.00000000E-01
  0.00000000E+00  0.00000000E+00  1.00000000E+00  0.00000000E+00  0.00000000E+00
  0.00000000E+00  0.00000000E+00  1.00000000E+00  0.00000000E+00  0.00000000E+00
  0.00000000E+00  0.00000000E+00  1.00000000E+00  0.00000000E+00  0.00000000E+00
  0.00000000E+00  0.00000000E+00  1.00000000E+00  0.00000000E+00  0.00000000E+00
  0.00000000E+00  0.00000000E+00  1.00000000E+00  0.00000000E+00  0.00000000E+00
  0.00000000E+00  0.00000000E+00  1.00000000E+00  0.00000000E+00  0.00000000E+00
  0.00000000E+00  0.00000000E+00  0.00000000E+00  1.00000000E+00  1.00000000E+00
  0.00000000E+00  1.00000000E+00  0.00000000E+00  0.00000000E+00  0.00000000E+00
  0.00000000E+00  0.00000000E+00  0.00000000E+00  0.00000000E+00  0.00000000E+00
  0.00000000E+00  0.00000000E+00  1.00000000E+00  1.00000000E+00  1.00000000E+00
  1.00000000E+00  1.00000000E+00  1.00000000E+00  0.00000000E+00  0.00000000E+00
  0.00000000E+00  0.00000000E+00  0.00000000E+00  0.00000000E+00  0.00000000E+00
  0.00000000E+00  2.00000000E-10  1.00000000E-02
MxBond                                     I                3
NBond                                      I   N=           4
           3           1           1           1
IBond                                      I   N=          12
           2           3           4           1           0           0
           1           0           0           1           0           0
RBond                                      R   N=          12
  3.00000000E+00  3.00000000E+00  3.00000000E+00  3.00000000E+00  0.00000000E+00
  0.00000000E+00  3.00000000E+00  0.00000000E+00  0.00000000E+00  3.00000000E+00
  0.00000000E+00  0.00000000E+00
Virial Ratio                               R      1.995541918743377E+00
SCF Energy                                 R     -3.427436138312280E+02
Total Energy                               R     -3.427436138312280E+02
RMS Force                                  R      2.963477608047937E-01
RMS Density                                R      4.290302235598819E-09
NImag                                      I                3
Zero-point Energy                          R      4.197824330894131E-02
Job Status                                 I                1
Nuclear derivative order                   I                3
Energy with zero-point                     R     -3.427016355879190E+02
Thermal Energy                             R     -3.426988030334781E+02
Thermal Enthalpy                           R     -3.426978588486645E+02
Thermal Free Energy                        R     -3.427206754584199E+02
External E-field                           R   N=         105
  0.00000000E+00  0.00000000E+00  0.00000000E+00  0.00000000E+00  0.00000000E+00
  0.00000000E+00  0.00000000E+00  0.00000000E+00  0.00000000E+00  0.00000000E+00
  0.00000000E+00  0.00000000E+00  0.00000000E+00  0.00000000E+00  0.00000000E+00
  0.00000000E+00  0.00000000E+00  0.00000000E+00  0.00000000E+00  0.00000000E+00
  0.00000000E+00  0.00000000E+00  0.00000000E+00  0.00000000E+00  0.00000000E+00
  0.00000000E+00  0.00000000E+00  0.00000000E+00  0.00000000E+00  0.00000000E+00
  0.00000000E+00  0.00000000E+00  0.00000000E+00  0.00000000E+00  0.00000000E+00
  0.00000000E+00  0.00000000E+00  0.00000000E+00  0.00000000E+00  0.00000000E+00
  0.00000000E+00  0.00000000E+00  0.00000000E+00  0.00000000E+00  0.00000000E+00
  0.00000000E+00  0.00000000E+00  0.00000000E+00  0.00000000E+00  0.00000000E+00
  0.00000000E+00  0.00000000E+00  0.00000000E+00  0.00000000E+00  0.00000000E+00
  0.00000000E+00  0.00000000E+00  0.00000000E+00  0.00000000E+00  0.00000000E+00
  0.00000000E+00  0.00000000E+00  0.00000000E+00  0.00000000E+00  0.00000000E+00
  0.00000000E+00  0.00000000E+00  0.00000000E+00  0.00000000E+00  0.00000000E+00
  0.00000000E+00  0.00000000E+00  0.00000000E+00  0.00000000E+00  0.00000000E+00
  0.00000000E+00  0.00000000E+00  0.00000000E+00  0.00000000E+00  0.00000000E+00
  0.00000000E+00  0.00000000E+00  0.00000000E+00  0.00000000E+00  0.00000000E+00
  0.00000000E+00  0.00000000E+00  0.00000000E+00  0.00000000E+00  0.00000000E+00
  0.00000000E+00  0.00000000E+00  0.00000000E+00  0.00000000E+00  0.00000000E+00
  0.00000000E+00  0.00000000E+00  0.00000000E+00  0.00000000E+00  0.00000000E+00
  0.00000000E+00  0.00000000E+00  0.00000000E+00  0.00000000E+00  0.00000000E+00
IOpCl                                      I                0
IROHF                                      I                0
Alpha Orbital Energies                     R   N=          25
 -7.69819177E+01 -6.51730567E+00 -4.67708227E+00 -4.67667610E+00 -4.66638725E+00
 -7.47901010E-01 -4.74325582E-01 -4.72989112E-01 -2.37283414E-01  8.58964753E-02
  8.62670772E-02  1.45190275E-01  2.79813477E-01  2.97240791E-01  2.98797411E-01
  3.43805779E-01  6.16758614E-01  6.17132258E-01  6.73667217E-01  6.74112448E-01
  7.60939414E-01  1.31672253E+00  1.87595571E+00  1.89851644E+00  3.41706944E+00
Alpha MO coefficients                      R   N=         625
  9.96228685E-01  1.42841712E-02  0.00000000E+00 -3.72899897E-16 -5.31607195E-05
 -2.69646570E-02  0.00000000E+00  4.14972500E-16  7.71939934E-05  1.78145859E-03
  0.00000000E+00 -7.07729310E-17  5.14331167E-04  9.46407226E-03  9.46407226E-03
  9.53286294E-03  0.00000000E+00  0.00000000E+00 -1.16473384E-16 -1.05368817E-04
  9.08664158E-04 -1.05368817E-04  9.08664158E-04 -1.05368817E-04  9.08664158E-04
 -2.73634836E-01  1.02103600E+00  0.00000000E+00  1.31416774E-15 -8.72471284E-03
  9.38072410E-02  0.00000000E+00  1.08628240E-15 -2.13195139E-03 -2.30478002E-03
  0.00000000E+00  7.11411792E-16 -3.42150193E-03 -2.36909831E-02 -2.36909831E-02
 -2.55480415E-02  0.00000000E+00  0.00000000E+00 -4.31032026E-16  1.60761762E-03
 -7.24336834E-03  1.60761762E-03 -7.24336834E-03  1.60761762E-03 -7.24336834E-03
  1.38503076E-18  1.22193409E-16  0.00000000E+00  9.89872779E-01  1.35051550E-13
  2.15578203E-15  0.00000000E+00  3.53331235E-02  4.25469262E-15  1.59067102E-14
  0.00000000E+00 -5.38314054E-03 -5.62627756E-15 -2.29435770E-03  2.29435770E-03
 -7.93922901E-16  0.00000000E+00  0.00000000E+00 -3.33477811E-03  1.36643931E-03
 -7.37798604E-03 -6.83219655E-04  3.68899302E-03 -6.83219655E-04  3.68899302E-03
  0.00000000E+00  0.00000000E+00  9.89872779E-01  0.00000000E+00  0.00000000E+00
  0.00000000E+00  3.53331235E-02  0.00000000E+00  0.00000000E+00  0.00000000E+00
 -5.38314054E-03  0.00000000E+00  0.00000000E+00  0.00000000E+00  0.00000000E+00
  0.00000000E+00 -2.64929607E-03 -3.33477811E-03  0.00000000E+00  0.00000000E+00
  0.00000000E+00  1.18337115E-03 -6.38952334E-03 -1.18337115E-03  6.38952334E-03
 -2.86028021E-03  1.07417888E-02  0.00000000E+00 -1.34500142E-13  9.90929500E-01
 -6.01389991E-03  0.00000000E+00 -5.23852077E-15  3.14264303E-02 -1.34863678E-02
  0.00000000E+00  1.34336721E-16 -5.22872528E-03  1.54569861E-03  1.54569861E-03
  7.43067377E-04  0.00000000E+00  0.00000000E+00  3.04697188E-16 -1.84738707E-03
  7.12174236E-03 -1.84738707E-03  7.12174236E-03 -1.84738707E-03  7.12174236E-03
  6.98027851E-02 -3.23652340E-01  0.00000000E+00 -1.73056243E-15  6.90301998E-02
  6.16541920E-01  0.00000000E+00  5.68257928E-15 -1.30270881E-01  2.00928602E-01
  0.00000000E+00 -2.31472104E-15 -2.28021718E-02 -2.76817818E-03 -2.76817818E-03
 -4.05590537E-02  0.00000000E+00  0.00000000E+00 -1.60098453E-15  1.83477497E-01
  7.93122390E-04  1.83477497E-01  7.93122390E-04  1.83477497E-01  7.93122390E-04
 -3.68574284E-16  2.16591967E-15  0.00000000E+00 -2.36319596E-01 -1.22631262E-15
 -9.00676127E-15  0.00000000E+00  5.13670061E-01  5.48905019E-15 -9.80580713E-14
  0.00000000E+00  5.74678098E-02  2.50209886E-14 -6.26572116E-02  6.26572116E-02
  4.08106180E-15  0.00000000E+00  0.00000000E+00 -7.85197999E-02  3.14797923E-01
  2.00619484E-01 -1.57398962E-01 -1.00309742E-01 -1.57398962E-01 -1.00309742E-01
  0.00000000E+00  0.00000000E+00 -2.36319596E-01  0.00000000E+00  0.00000000E+00
  0.00000000E+00  5.13670061E-01  0.00000000E+00  0.00000000E+00  0.00000000E+00
  5.74678098E-02  0.00000000E+00  0.00000000E+00  0.00000000E+00  0.00000000E+00
  0.00000000E+00 -7.23503160E-02 -7.85197999E-02  0.00000000E+00  0.00000000E+00
  0.00000000E+00  2.72622999E-01  1.73741570E-01 -2.72622999E-01 -1.73741570E-01
  2.14082517E-02 -9.85452534E-02  0.00000000E+00  1.42724676E-15 -2.40188511E-01
  2.16611932E-01  0.00000000E+00 -5.42687024E-15  6.16353785E-01  1.35859572E-01
  0.00000000E+00 -1.21082137E-14  4.20516344E-01  1.79058105E-02  1.79058105E-02
 -2.54812624E-02  0.00000000E+00  0.00000000E+00  3.56599146E-16 -7.17142740E-02
  1.37112292E-02 -7.17142740E-02  1.37112292E-02 -7.17142740E-02  1.37112292E-02
 -1.05447367E-14  1.29552131E-14  0.00000000E+00 -4.26962193E-02 -5.84036146E-15
 -2.80771231E-13  0.00000000E+00  1.71205515E-01 -3.05396298E-15  1.65038323E-12
  0.00000000E+00  1.72171478E+00 -4.41744805E-13  1.53636224E-01 -1.53636224E-01
  4.49955736E-14  0.00000000E+00  0.00000000E+00  1.11675120E-01 -1.63115286E-01
 -1.51392995E+00  8.15576428E-02  7.56964974E-01  8.15576428E-02  7.56964974E-01
  0.00000000E+00  0.00000000E+00 -4.26962193E-02  0.00000000E+00  0.00000000E+00
  0.00000000E+00  1.71205515E-01  0.00000000E+00  0.00000000E+00  0.00000000E+00
  1.72171478E+00  0.00000000E+00  0.00000000E+00  0.00000000E+00  0.00000000E+00
  0.00000000E+00  1.77403830E-01  1.11675120E-01  0.00000000E+00  0.00000000E+00
  0.00000000E+00 -1.41261981E-01 -1.31110180E+00  1.41261981E-01  1.31110180E+00
 -3.31138114E-02  2.49174248E-02  0.00000000E+00 -1.26292137E-14 -5.53177019E-02
 -8.32288410E-01  0.00000000E+00  5.07177808E-14  1.63535105E-01  4.40989993E+00
  0.00000000E+00 -5.20530468E-13 -1.34575077E+00 -5.11631856E-02 -5.11631856E-02
  1.07416653E-01  0.00000000E+00  0.00000000E+00 -4.93525138E-14 -9.01333812E-02
 -1.41637303E+00 -9.01333812E-02 -1.41637303E+00 -9.01333812E-02 -1.41637303E+00
  6.54081827E-02 -8.82863475E-02  0.00000000E+00 -8.04379718E-14 -7.61602687E-02
  1.51261469E+00  0.00000000E+00  3.54942891E-13  2.42666945E-01  2.17718235E+00
  0.00000000E+00 -9.75541038E-14 -1.45203163E+00 -4.82160348E-02 -4.82160348E-02
  1.52706768E-01  0.00000000E+00  0.00000000E+00  3.78691770E-16 -3.98911146E-02
 -1.58024570E+00 -3.98911146E-02 -1.58024570E+00 -3.98911146E-02 -1.58024570E+00
 -1.51733048E-14  3.11232819E-14  0.00000000E+00 -2.77774480E-01  1.02368081E-13
 -3.44558281E-13  0.00000000E+00  1.24050113E+00 -4.28540319E-13  3.54954903E-15
  0.00000000E+00 -3.64133988E-01  5.66605532E-13  6.70937232E-02 -6.70937232E-02
 -3.71190398E-15  0.00000000E+00  0.00000000E+00  2.84436308E-03  5.75478756E-02
 -1.13194251E+00 -2.87739378E-02  5.65971257E-01 -2.87739378E-02  5.65971257E-01
  0.00000000E+00  0.00000000E+00 -2.77774480E-01  0.00000000E+00  0.00000000E+00
  0.00000000E+00  1.24050113E+00  0.00000000E+00  0.00000000E+00  0.00000000E+00
 -3.64133988E-01  0.00000000E+00  0.00000000E+00  0.00000000E+00  0.00000000E+00
  0.00000000E+00  7.74731583E-02  2.84436308E-03  0.00000000E+00  0.00000000E+00
  0.00000000E+00  4.98379222E-02 -9.80290974E-01 -4.98379222E-02  9.80290974E-01
  9.21539442E-03 -2.17538539E-03  0.00000000E+00  8.45002375E-14  2.67637194E-01
  2.45613134E-01  0.00000000E+00 -3.82768940E-13 -1.22036108E+00  3.01480603E+00
  0.00000000E+00  7.12554005E-14  2.19811177E-01 -1.03802367E-01 -1.03802367E-01
  2.41512530E-01  0.00000000E+00  0.00000000E+00 -2.77060335E-14 -1.24325417E-02
 -1.40476871E+00 -1.24325417E-02 -1.40476871E+00 -1.24325417E-02 -1.40476871E+00
  1.70692254E-15 -6.25047644E-15  0.00000000E+00 -1.00107455E-02 -2.83026835E-15
  5.55130112E-14  0.00000000E+00  2.46345433E-02  1.69651366E-14 -2.12170162E-13
  0.00000000E+00 -5.69603230E-01  4.60394491E-14  6.81509765E-01 -6.81509765E-01
 -7.22042863E-15  0.00000000E+00  0.00000000E+00 -5.66316943E-01 -1.50412131E-01
  8.27223522E-01  7.52060653E-02 -4.13611761E-01  7.52060653E-02 -4.13611761E-01
  0.00000000E+00  0.00000000E+00 -1.00107455E-02  0.00000000E+00  0.00000000E+00
  0.00000000E+00  2.46345433E-02  0.00000000E+00  0.00000000E+00  0.00000000E+00
 -5.69603230E-01  0.00000000E+00  0.00000000E+00  0.00000000E+00  0.00000000E+00
  0.00000000E+00  7.86939692E-01 -5.66316943E-01  0.00000000E+00  0.00000000E+00
  0.00000000E+00 -1.30260726E-01  7.16396585E-01  1.30260726E-01 -7.16396585E-01
  3.86539457E-15 -2.56505186E-14  0.00000000E+00 -7.77041665E-02 -6.36958868E-16
  1.04471550E-13  0.00000000E+00  2.76530284E-01  1.33277158E-14 -9.41734816E-13
  0.00000000E+00 -1.50020606E+00  2.58789689E-13  2.68207173E-01 -2.68207173E-01
  1.92639213E-13  0.00000000E+00  0.00000000E+00  7.00204762E-01 -4.09266195E-01
  2.03826927E+00  2.04633098E-01 -1.01913463E+00  2.04633098E-01 -1.01913463E+00
  0.00000000E+00  0.00000000E+00 -7.77041665E-02  0.00000000E+00  0.00000000E+00
  0.00000000E+00  2.76530284E-01  0.00000000E+00  0.00000000E+00  0.00000000E+00
 -1.50020606E+00  0.00000000E+00  0.00000000E+00  0.00000000E+00  0.00000000E+00
  0.00000000E+00  3.09698967E-01  7.00204762E-01  0.00000000E+00  0.00000000E+00
  0.00000000E+00 -3.54434922E-01  1.76519297E+00  3.54434922E-01 -1.76519297E+00
  3.40284248E-04  4.06832464E-02  0.00000000E+00 -3.06877642E-15  4.27197652E-02
  1.49402091E-01  0.00000000E+00 -1.69661321E-14 -2.56202690E-01  4.27973962E+00
  0.00000000E+00 -4.07177696E-13 -1.08018753E+00  4.66998682E-01  4.66998682E-01
 -9.43634912E-01  0.00000000E+00  0.00000000E+00  1.87430895E-13  1.63682050E-01
 -2.03277898E+00  1.63682050E-01 -2.03277898E+00  1.63682050E-01 -2.03277898E+00
 -3.37434549E-02  1.06358187E-01  0.00000000E+00  6.85347500E-15 -1.04323648E-01
 -5.25851990E-01  0.00000000E+00 -3.71947728E-14  6.03032627E-01  2.63111702E+00
  0.00000000E+00 -5.13582431E-14 -7.89720187E-01 -3.69327024E-01 -3.69327024E-01
  2.85339548E-01  0.00000000E+00  0.00000000E+00  2.66085024E-14  1.00068104E+00
 -1.37900516E+00  1.00068104E+00 -1.37900516E+00  1.00068104E+00 -1.37900516E+00
 -7.83290361E-15  2.96265481E-14  0.00000000E+00  1.87539017E-01 -1.60572649E-15
 -3.42689900E-13  0.00000000E+00 -1.22597744E+00  8.73121702E-15 -2.96943287E-13
  0.00000000E+00  5.16105938E-01  8.28043921E-14  8.13676264E-01 -8.13676264E-01
  1.59123297E-13  0.00000000E+00  0.00000000E+00  7.94145825E-01  1.61664476E+00
 -8.28867444E-01 -8.08322381E-01  4.14433722E-01 -8.08322381E-01  4.14433722E-01
  0.00000000E+00  0.00000000E+00  1.87539017E-01  0.00000000E+00  0.00000000E+00
  0.00000000E+00 -1.22597744E+00  0.00000000E+00  0.00000000E+00  0.00000000E+00
  5.16105938E-01  0.00000000E+00  0.00000000E+00  0.00000000E+00  0.00000000E+00
  0.00000000E+00  9.39552420E-01  7.94145825E-01  0.00000000E+00  0.00000000E+00
  0.00000000E+00  1.40005543E+00 -7.17820263E-01 -1.40005543E+00  7.17820263E-01
  1.71552719E-01 -6.80022133E-01  0.00000000E+00  9.52674272E-15 -9.91280178E-03
  7.20361712E+00  0.00000000E+00 -6.10520298E-14  8.40509915E-02 -1.80624229E-01
  0.00000000E+00  8.07251860E-14 -1.06953280E-01 -3.05463527E+00 -3.05463527E+00
 -2.98726413E+00  0.00000000E+00  0.00000000E+00  3.14168520E-14  1.83631968E-01
 -2.03019063E-01  1.83631968E-01 -2.03019063E-01  1.83631968E-01 -2.03019063E-01
Orthonormal basis                          R   N=         625
  6.96755335E-03  5.33523315E-02 -9.89647726E-05 -2.11397792E-07 -6.10264503E-03
  1.63353498E-01 -2.48460342E-04  1.13179654E-06 -3.05292500E-02  1.60380199E-01
 -7.89670842E-05  1.49916631E-06 -3.12023607E-02  1.22224554E-01  1.22225488E-01
  1.13574692E-01  9.67365659E-05  7.63231468E-05 -6.19914698E-07  8.32396659E-02
  1.33019232E-01  8.26491250E-02  1.32484182E-01  8.38269938E-02  1.33549657E-01
 -1.45536244E-04 -5.41477102E-04  9.79630882E-02 -5.81742174E-03 -1.59154119E-05
 -1.50942080E-04  3.21222397E-01 -1.97233202E-02 -6.01138963E-04  5.09567482E-04
  3.03777799E-01 -1.91847089E-02 -1.01646631E-03  2.57611970E-03 -2.73273124E-03
 -1.73355653E-04 -9.05437375E-02 -7.67464669E-02  4.61538013E-03 -1.47204615E-02
 -1.17481280E-02  2.23994347E-01  1.79047688E-01 -2.08144533E-01 -1.64044398E-01
 -1.06839432E-05 -3.95255361E-05  6.40311259E-03  1.00075727E-01 -1.18730019E-06
 -1.34029233E-05  2.02497345E-02  3.26596780E-01 -4.11377879E-05  2.84672259E-05
  1.86305341E-02  3.09108634E-01 -6.63670943E-05 -4.37539269E-02  4.37409128E-02
 -1.42028626E-05 -5.69059252E-03 -4.87782586E-03 -7.70844816E-02  2.47375573E-01
  1.99924413E-01 -1.10170337E-01 -8.97093909E-02 -1.37132692E-01 -1.10014796E-01
  1.58438550E-02  5.93252737E-02  8.88119513E-04  4.13171172E-06  2.08160977E-01
  1.12000799E-01  1.50541506E-03  5.22160296E-06  4.75320499E-01  8.85178041E-02
  9.00496181E-04  3.99686957E-06  4.39615014E-01  7.23416195E-02  7.23405537E-02
  9.94209100E-02 -3.58926618E-04 -2.81404398E-04  6.34969921E-07 -7.78332203E-02
 -3.96115652E-02 -7.74436117E-02 -3.98459832E-02 -7.82307415E-02 -3.93767094E-02
  1.70496679E-02  1.57286791E-02  2.39240602E-01 -2.06788451E-03 -2.87174638E-03
 -1.70846324E-04  2.32680172E-01 -7.27975266E-04 -1.62713489E-03 -1.27928261E-03
  2.47639038E-01  7.73417155E-04 -1.41403236E-04 -1.13746383E-03 -1.15453279E-03
 -6.70961898E-04  5.52821910E-01  4.68601922E-01  3.59550107E-04 -6.59020245E-04
 -3.83924911E-04 -2.32996726E-01  3.60895568E-02  2.30964757E-01 -3.89953871E-02
  6.86894978E-01  5.79604310E-01 -5.61304322E-03  8.59812728E-05 -3.74572381E-02
 -2.85604678E-02 -5.34801299E-03  4.42014973E-05 -3.17979209E-02 -1.96243662E-02
 -6.01921623E-03  6.30192900E-06 -2.59521168E-02 -6.13160967E-02 -6.13497585E-02
 -4.21843570E-02 -1.52618352E-02 -1.29066209E-02  5.39168023E-05 -2.54711172E-02
 -9.44684005E-03 -1.96969338E-02 -1.03930163E-02 -3.11346185E-02 -8.46074903E-03
 -7.44337364E-05 -5.03551324E-05 -2.92197456E-03  2.92211408E-01  1.16568599E-06
  2.34123132E-06 -6.89935902E-04  2.10576871E-01  5.82902679E-06  3.99540319E-06
  1.35038276E-03  2.08840156E-01  2.20310625E-06  1.58092308E-01 -1.58089657E-01
  6.62209943E-06  6.51359471E-04  1.06470104E-03  7.29326986E-01 -2.69733504E-01
  2.52218946E-02  1.34849315E-01 -1.17944273E-02  1.34883931E-01 -1.34108620E-02
 -4.87284882E-05  2.14541855E-06  2.40323028E-05 -7.54422336E-08 -1.99374479E-04
  4.00571474E-05  1.98643365E-06 -1.39999126E-08 -3.22649274E-05  3.63275658E-05
 -8.41468913E-06  2.27444657E-08  1.06554057E-05 -3.33531376E-06 -3.33608579E-06
  9.05252447E-05 -6.46612404E-01  7.62818471E-01 -5.35965230E-04 -8.44033399E-05
  4.83871439E-06 -8.37699818E-05  1.17303142E-06 -8.50235514E-05  8.45980196E-06
  1.64938090E-04 -2.25373785E-05 -8.47508252E-02  8.97361141E-01  1.20216860E-03
 -1.49475281E-04 -5.15477319E-03  5.48785991E-02  1.08374135E-04 -8.07891390E-05
  2.95367269E-02 -3.07917641E-01 -2.69319435E-04  8.77578644E-03 -8.79372128E-03
 -3.11335101E-04  1.52364984E-02  1.27296063E-02 -2.69679641E-01  2.63552825E-02
 -1.40647391E-01 -1.55845209E-02  8.20700906E-02 -1.01094123E-02  5.87449874E-02
 -1.80525391E-03  2.67605112E-04  9.15045763E-01  8.49086833E-02 -1.36833997E-02
  1.68220198E-03  5.30218709E-02  4.91167658E-03 -1.18334699E-03  8.74403037E-04
 -3.19607955E-01 -2.92957922E-02  3.16944034E-03  8.43547150E-04 -5.47481401E-04
  3.42705450E-03 -1.36290482E-01 -1.15581492E-01 -2.04607531E-02  1.12698349E-05
 -1.39418341E-02  2.44333794E-02 -1.19282201E-01 -3.15728811E-02  1.31198565E-01
  4.48708886E-02 -2.09035583E-02  1.40640019E-02  7.93707275E-05  9.38989743E-01
 -7.29206441E-02  1.18025361E-04 -1.11847947E-06 -4.81402843E-03 -2.19161268E-02
 -5.15606366E-03 -3.34364154E-05 -3.50481660E-01 -3.81381681E-02 -3.81289375E-02
 -9.31505726E-02  3.75398031E-04  5.94673371E-04  5.30018775E-05  2.84328135E-02
  5.93248398E-02  2.88536610E-02  5.77394058E-02  2.80054222E-02  6.09444732E-02
  6.63090868E-05 -5.10728077E-05 -2.78022053E-03  5.45150568E-02 -5.99877467E-06
 -6.12794287E-06  6.94280766E-04 -7.64299127E-02  3.79301731E-06 -1.41112605E-05
  4.84532288E-04 -2.62304591E-01  3.04703866E-05 -6.43962729E-01  6.44059470E-01
 -8.52756171E-05  1.25022643E-04  4.62141141E-04  5.06724749E-01  2.69231513E-01
 -5.52912970E-02 -1.34894467E-01  2.75733752E-02 -1.34232836E-01  2.76809638E-02
 -3.45415478E-01  3.52086290E-01 -4.38649611E-03  9.65431003E-06  1.92751859E-02
  6.09329655E-02  1.73946237E-03 -2.07405774E-05 -4.64080947E-02  7.56819207E-02
  1.39415007E-03 -3.21756281E-05 -1.86786234E-01 -3.81319232E-01 -3.81138230E-01
  7.73328287E-01 -5.53447961E-04 -6.67365637E-04  3.88625016E-05 -2.35669263E-01
  4.66687178E-02 -2.36838676E-01  4.63994536E-02 -2.34620196E-01  4.69362549E-02
 -6.88657798E-01  8.16128864E-01  8.35420049E-04  8.41040479E-06  2.69694278E-02
  6.00277896E-03 -6.32977123E-05 -1.80848740E-07 -1.88303097E-02 -9.91079949E-02
  9.82498986E-04 -4.71546362E-08  2.40888346E-02  1.33041359E-01  1.33080411E-01
 -4.60517350E-01 -2.10119035E-03 -1.73681895E-03  1.79385951E-06  7.05825714E-02
 -5.34718397E-02  6.97969094E-02 -5.31840631E-02  7.13691785E-02 -5.37574865E-02
  4.75779427E-02  5.42365617E-02  2.31674968E-03  2.76401849E-05  2.06429758E-01
  3.63005831E-01 -1.13122752E-03 -1.40371599E-05 -3.82990318E-01 -6.08644382E-01
  7.41006336E-03  2.00469278E-05  1.55003819E-01  2.42279358E-01  2.42246619E-01
  6.24250512E-01 -6.29492350E-03 -5.25338614E-03  3.89615391E-06  2.94765984E-01
 -4.36626598E-01  2.91023518E-01 -4.36340942E-01  2.98508265E-01 -4.36900315E-01
  4.64004280E-04 -2.88666565E-03  3.81852196E-01  1.08842663E-02 -1.74896083E-04
 -2.95859944E-03 -8.62038465E-01 -2.26607815E-02  2.42620600E-03  3.51759557E-03
  8.94817355E-01  2.22118320E-02  7.92489767E-05 -1.24332175E-02  7.27159715E-03
 -3.57728868E-03 -3.63213050E-01 -3.07883481E-01 -6.68285327E-03 -1.28788357E-02
  1.21824701E-02 -4.49519098E-01  3.10048766E-01  4.53425478E-01 -3.09596554E-01
  2.73645094E-06 -4.24891057E-05  9.15442183E-03 -3.94509833E-01 -9.64553003E-07
 -7.64639818E-05 -2.34463016E-02  9.34156184E-01  4.34560174E-05  8.42594314E-05
  2.17599825E-02 -8.65691098E-01  2.61595745E-05  3.61182147E-01 -3.61332598E-01
 -6.49854322E-05 -8.02744515E-03 -6.63392634E-03  2.42684037E-01  4.39636925E-01
 -3.69443639E-01 -2.31579743E-01  1.94071619E-01 -2.08251606E-01  1.75674628E-01
 -5.57582253E-02  3.17704644E-02  5.14534820E-03 -4.76206468E-05  2.47174543E-01
 -4.07339839E-01 -1.15292224E-02  1.29442416E-04 -6.15189139E-01  3.70596516E-01
 -2.79801661E-03  5.41901532E-05  1.00866156E+00 -5.36668123E-01 -5.36439386E-01
 -1.66063727E-02  7.32710137E-03  6.36737093E-03 -7.96801968E-05  4.13136899E-01
  1.24879848E-01  4.22183616E-01  1.27414293E-01  4.04564892E-01  1.22444563E-01
 -3.61562002E-02  6.60379196E-02  1.53307311E-02 -4.08045188E-04 -3.24274098E-01
 -3.36096581E-01 -5.41837271E-02  1.49375272E-03  1.26506705E+00 -2.39613759E-01
 -5.03513952E-03  2.52710181E-04 -5.92838942E-01 -4.30028132E-01 -4.28180668E-01
  2.22817820E-01  3.00816718E-02  2.57257196E-02 -7.56108835E-04  7.63646757E-01
 -8.46344456E-03  8.04648641E-01  5.87212461E-03  7.26762346E-01 -2.14723675E-02
 -1.45281365E-03 -3.58460604E-03 -2.96696546E-01  7.89258479E-02 -1.01574994E-02
 -2.94502461E-02  1.48626268E+00 -3.88429182E-01  5.63894440E-02  7.78161142E-04
  1.21068205E-01 -4.19962773E-02 -1.69434025E-02  1.79369675E-01 -2.45315113E-01
  1.87205638E-03 -8.34736696E-01 -7.07420661E-01  1.89407710E-01  3.92980376E-01
  1.21804815E-01 -1.24203650E+00 -4.45129276E-01  9.87002633E-01  3.31901021E-01
 -3.40668388E-04 -1.18299450E-03 -8.15987357E-02 -2.82090093E-01 -2.41018088E-03
 -7.67905654E-03  4.27450384E-01  1.45336529E+00  1.41118471E-02  5.66637652E-04
  3.26421368E-02  1.45093748E-01 -4.11911409E-03 -7.89847088E-01  7.72710741E-01
  1.66970715E-04 -2.38509944E-01 -2.02664920E-01 -7.03787302E-01 -1.28293525E+00
 -4.45215021E-01  3.38264568E-01  1.11648814E-01  9.79871488E-01  3.35851823E-01
  1.50630375E-04  1.01683661E-03 -4.28376476E-02  4.26268563E-02  3.84968823E-04
  1.97915156E-03  2.42523766E-01 -2.41423614E-01  9.05542180E-04 -1.47335470E-02
 -1.56661300E+00  1.54740654E+00  6.19056144E-03  3.76147774E-02 -3.34920897E-02
  5.02329406E-03 -3.92272831E-02 -3.32261717E-02  3.38115644E-02  6.01080863E-01
 -2.06057050E+00 -8.25873651E-01  2.85139903E+00  2.24481016E-01 -7.72698393E-01
 -1.56619573E-04 -9.79284953E-04  4.07598276E-02  4.15589169E-02 -3.90969927E-04
 -2.07430763E-03 -2.38325931E-01 -2.43008556E-01 -8.97892452E-04  1.48346476E-02
  1.55333774E+00  1.57177585E+00 -6.22082686E-03  3.64277770E-02 -4.05087844E-02
 -4.96845257E-03  4.15427230E-02  3.52383931E-02  3.66498502E-02  6.11941436E-01
 -2.11692065E+00  2.15952468E-01 -7.57318903E-01 -8.27526951E-01  2.85600058E+00
  1.82918476E-01 -7.04443786E-01 -9.06000184E-06  1.41101901E-05 -1.39514874E-02
  7.34234668E+00  1.71538971E-03 -9.19319942E-05  9.95061148E-02 -1.33723667E+00
  4.39564202E-04  6.47344778E-05  1.31173646E-01 -2.97379796E+00 -2.97390587E+00
 -2.88156186E+00 -1.77468787E-04 -1.12906339E-04  5.20071196E-05  1.06030360E-01
  2.15919218E-01  1.06318068E-01  2.12937836E-01  1.05339948E-01  2.19234391E-01
  2.40979200E-02 -5.95070708E-02  2.13784489E-03  2.58101816E-05  2.88852139E-02
  1.13899281E+00 -1.02346806E-02 -1.24783049E-04 -2.00493054E-01  7.49686852E+00
 -1.96747914E-02 -6.41959184E-05 -2.04525122E+00 -3.70915137E-01 -3.70999299E-01
 -6.36540508E-01  4.52371199E-04  2.75484143E-04  4.23255856E-05  4.23571416E-01
 -3.50275313E+00  4.20914160E-01 -3.45918425E+00  4.25979595E-01 -3.54717960E+00
Total SCF Density                          R   N=         325
  2.14537352E+00 -5.79789144E-01  2.31461193E+00  1.56548115E-04 -9.48527229E-04
  2.07139684E+00  1.06180321E-06 -8.09479004E-06  5.67667175E-04  2.07139391E+00
 -1.64615350E-03  6.12081085E-03  4.78732752E-04  2.05196168E-06  2.08894958E+00
 -9.68018334E-03 -2.51140212E-01  6.72442498E-04 -3.52602018E-07 -3.24897569E-02
  8.73249250E-01 -1.82999184E-04  1.20678725E-03 -1.72836487E-01 -7.63147236E-04
 -8.00951830E-04 -1.41749655E-03  5.30193737E-01 -7.49714993E-07  8.45804836E-06
 -7.63160149E-04 -1.72835628E-01 -1.49656842E-06  1.28167283E-06  5.91491195E-04
  5.30212433E-01  9.34411121E-03 -4.08248314E-02 -7.27642051E-04 -1.47696320E-06
 -2.51754759E-01  1.05608003E-01  9.92759846E-04 -8.15607854E-06  7.95720915E-01
  3.87596436E-02 -1.61807425E-01 -5.18342661E-04  1.23677360E-05 -6.42133921E-02
  3.06312479E-01 -1.53464879E-03 -4.51642483E-05  1.14284843E-01  1.18079683E-01
  2.09675720E-05  9.87167073E-05 -3.78269618E-02  7.50688595E-05 -1.89901443E-04
 -5.25198667E-04  5.86866587E-02  1.98478253E-04  8.59326555E-04 -2.08653970E-04
  6.67045386E-03 -6.70313513E-07  4.15129448E-06  7.50947847E-05 -3.78197670E-02
 -1.10727441E-06 -9.63255815E-06  1.98454921E-04  5.86641689E-02  5.46186910E-06
 -8.08129857E-06  3.29178770E-05  6.66429596E-03  1.77470361E-02 -7.51940103E-02
 -3.44529952E-04 -4.71112353E-06 -2.15454672E-01  1.53435797E-01  1.36083842E-03
  1.10984164E-05  5.23994191E-01  1.05249963E-01  5.93374727E-04  4.57357825E-06
  3.54769967E-01  3.21925838E-02 -4.98080566E-02  8.36401925E-05  2.50741067E-02
 -5.50483139E-03 -6.46822425E-04  3.07809083E-04 -6.45257459E-02  2.29960228E-02
  3.85296816E-03  4.38085409E-05 -7.17648325E-03  1.53394472E-02  9.82419950E-03
  3.21931067E-02 -4.98088929E-02 -1.94077647E-04 -2.50722368E-02 -5.50676674E-03
 -6.39540593E-04  9.48420700E-04  6.45353017E-02  2.29947727E-02  3.84337822E-03
  1.45621158E-04  7.17824511E-03  1.53441517E-02 -5.89809408E-03  9.82768715E-03
  2.62176226E-02 -2.06036754E-02 -6.93214778E-05  1.24210922E-06  8.56001957E-03
 -6.63776989E-02  7.53318060E-04  2.25444482E-06 -2.06887114E-02 -2.30993733E-02
  9.92918924E-05  1.02193620E-06 -1.94032467E-02  7.06676380E-04  7.07348194E-04
  6.07912410E-03  3.31129059E-05 -1.94159375E-04  2.89505307E-02  1.60314778E-04
  2.61817020E-05  2.94897055E-04 -7.45059490E-02 -3.69871853E-04  1.03626185E-04
  2.69648543E-04 -8.29013384E-03 -5.87667472E-05 -2.39705647E-05 -1.49294238E-06
 -1.60989066E-04 -1.16536240E-04  1.04810375E-02  1.81043918E-05 -1.29758983E-04
  3.05101717E-02  1.19095537E-04  2.19297965E-04  1.18741992E-04 -8.08951871E-02
 -1.26274221E-04 -5.34484579E-04  1.60776667E-04 -8.99296433E-03 -3.37644106E-05
 -4.63359503E-04 -5.37231385E-05 -1.60054008E-04 -1.01565025E-04  1.13773448E-02
  1.23514092E-02 -2.01141381E-07  1.37939773E-07  1.19099474E-04  3.05097894E-02
  3.65347748E-08 -3.24294105E-06 -1.26275236E-04 -8.09011394E-02  1.35217121E-06
  5.92607344E-06 -3.37664087E-05 -8.98953044E-03 -1.97903680E-06  9.85377432E-03
 -9.85530033E-03 -1.73488786E-07  6.13934597E-05  2.47258650E-05  1.23525985E-02
  2.14644180E-02 -1.01389337E-01 -2.55576322E-04 -1.46081348E-01  5.60916338E-02
  1.95504032E-01  3.53851992E-04  3.23504093E-01 -1.36330181E-01  5.42718976E-02
 -1.25500566E-04  3.61667603E-02 -6.86664448E-02 -4.31230324E-02  3.57872878E-02
 -1.13148653E-02 -2.49744990E-04 -2.22482661E-05 -4.94453283E-02  2.75824415E-01
  6.42978541E-03 -1.78176349E-02 -4.15085645E-04 -1.09431599E-01  7.76442514E-03
  5.40926312E-03  1.21789878E-03  2.05592036E-01  1.71662881E-02  3.86343592E-03
  1.96444692E-04  2.31411656E-02  1.14724599E-02 -2.42355891E-02  2.59792922E-02
 -3.61860233E-04 -2.75621243E-04 -2.07914542E-04 -3.14569265E-02  1.24567936E-01
  8.11986198E-02  2.12111078E-02 -9.99415053E-02 -1.26021231E-01  7.26107879E-02
  5.57296654E-02  1.92902306E-01  2.79308066E-01 -1.61054593E-01 -1.35625847E-01
  5.28996116E-02  3.09653914E-02 -1.79459418E-02 -6.80403705E-02  1.61730164E-02
 -2.28490190E-02 -1.07942884E-02 -3.92709173E-02 -4.26240821E-02  2.45963774E-02
 -2.15623243E-02 -6.40935152E-02  2.73697862E-01  6.38729707E-03 -1.77943826E-02
 -9.50464523E-02  5.46321284E-02  8.07216027E-03  6.55912726E-03  1.81195523E-01
 -1.03906543E-01  1.51440160E-02  3.70854479E-03  2.03801759E-02 -1.16490617E-02
  1.05596456E-02  1.36066814E-02 -1.16009659E-02 -1.93187045E-04 -2.54854818E-02
 -2.77210705E-02  1.58851827E-02 -6.46634907E-02 -3.98573984E-02  1.27134452E-01
  8.37362887E-02  2.17228564E-02 -1.02871101E-01  1.27006815E-01  7.34749883E-02
  5.64566293E-02  1.98150672E-01 -2.81034517E-01 -1.62459976E-01 -1.37042477E-01
  5.57437850E-02 -3.17138235E-02 -1.82331067E-02 -6.93248457E-02  1.59342383E-02
 -2.39514743E-02 -1.18441947E-02  3.96351177E-02  4.30156662E-02  2.48481416E-02
 -2.13864425E-02 -6.56629869E-02 -2.14782952E-02 -6.54550956E-02  2.78026548E-01
  6.47190030E-03 -1.78373247E-02  9.44816969E-02  5.47852916E-02  7.45727127E-03
  4.21278234E-03 -1.74810498E-01 -1.01626347E-01  1.92168760E-02  4.04672909E-03
 -1.97001898E-02 -1.14833243E-02  1.23877608E-02  1.32344271E-02 -1.17511913E-02
 -5.23960876E-04  2.47122969E-02  2.67458186E-02  1.55621824E-02 -6.50603732E-02
 -3.95493364E-02 -6.42826298E-02 -3.96986020E-02  1.21919929E-01  7.86512219E-02
Grdnt Energy                               R     -3.427436138312280E+02
Grdnt NVar                                 I                0
Grdnt IGetFC                               I                4
Quartic Cent Dist                          R   N=          10
  0.00000000E+00  0.00000000E+00  0.00000000E+00  0.00000000E+00  0.00000000E+00
  3.03937520E-04  1.90101538E-04 -4.44356312E-04 -1.24294470E-12 -6.45848663E-14
Mulliken Charges                           R   N=           4
 -4.69260064E-01  1.56404624E-01  1.52483497E-01  1.60371943E-01
APT Charges                                R   N=           4
 -2.33166738E-02  7.77267190E-03  6.68546486E-03  8.85853706E-03
Optimization MaxStp                        I                2
Optimization MaxJob                        I                1
Optimization Job offset                    I                0
Optimization Num results per geometry      I                8
Optimization Num geometry variables        I               12
Optimization Reference Energy              R     -3.420000000000000E+02
Optimization Number of geometries          I   N=           1
           1
Opt point       1 Results for each geome   R   N=           8
 -7.43613831E-01  0.00000000E+00  5.91408386E-01  2.96347761E-01  1.34101152E-01
  8.03704764E-02  0.00000000E+00  0.00000000E+00
Opt point       1 Geometries               R   N=          12
  0.00000000E+00  0.00000000E+00  6.68565357E-02 -3.30064694E-16  1.77375363E+00
 -6.84906752E-01  1.53611571E+00 -8.86876816E-01 -6.84906752E-01 -1.53611571E+00
 -8.86876816E-01 -6.84906752E-01
Opt point       1 Gradient at each geome   R   N=          12
 -3.06121696E-14  9.88523652E-15 -5.91408386E-01 -1.83593592E-15 -4.42535161E-01
  1.97136129E-01 -3.83246691E-01  2.21267580E-01  1.97136129E-01  3.83246691E-01
  2.21267580E-01  1.97136129E-01
ONIOM Charges                              I   N=          16
           0           0           0           0           0           0
           0           0           0           0           0           0
           0           0           0           0
ONIOM Multiplicities                       I   N=          16
           1           0           0           0           0           0
           0           0           0           0           0           0
           0           0           0           0
Atom Layers                                I   N=           4
           1           1           1           1
Atom Modifiers                             I   N=           4
           0           0           0           0
Int Atom Modified Types                    I   N=           4
           0           0           0           0
Atom Modified Types                        C   N=           4
                                                
Link Atoms                                 I   N=           4
           0           0           0           0
Atom Modified MM Charges                   R   N=           4
  0.00000000E+00  0.00000000E+00  0.00000000E+00  0.00000000E+00
Link Distances                             R   N=          16
  0.00000000E+00  0.00000000E+00  0.00000000E+00  0.00000000E+00  0.00000000E+00
  0.00000000E+00  0.00000000E+00  0.00000000E+00  0.00000000E+00  0.00000000E+00
  0.00000000E+00  0.00000000E+00  0.00000000E+00  0.00000000E+00  0.00000000E+00
  0.00000000E+00
Cartesian Gradient                         R   N=          12
 -3.06121696E-14  9.88523652E-15 -5.91408386E-01 -1.83593592E-15 -4.42535161E-01
  1.97136129E-01 -3.83246691E-01  2.21267580E-01  1.97136129E-01  3.83246691E-01
  2.21267580E-01  1.97136129E-01
Cartesian Force Constants                  R   N=          78
  1.41746707E+00  3.44581778E-12  1.41746730E+00  5.46276352E-12  3.17850558E-08
  8.36305899E-02  1.76064326E-01 -1.32028753E-15  4.59200702E-16 -1.85215478E-01
 -2.54633347E-15 -1.12104252E+00  5.71018175E-01  2.71627056E-15  1.14888712E+00
  2.06886418E-15  6.22800917E-01 -2.78768688E-02 -6.16948108E-16 -5.81198937E-01
  1.89302601E-02 -7.96765753E-01  5.61663632E-01  4.94516251E-01  4.57561563E-03
 -2.41540829E-03 -6.13154528E-03  8.15361468E-01  5.61663695E-01 -1.48212388E-01
 -2.85509096E-01  3.44548034E-02 -1.39223378E-02 -2.08009648E-02 -5.77683369E-01
  1.48310171E-01  5.39361475E-01 -3.11400467E-01 -2.78768646E-02 -2.10799366E-02
  5.09040845E-03  4.47330428E-03 -5.03333044E-01  2.90599469E-01  1.89302601E-02
 -7.96765753E-01 -5.61663632E-01 -4.94516251E-01  4.57561563E-03  2.41540829E-03
  6.13154528E-03 -2.31713145E-02 -1.84351059E-02 -1.49483913E-02  8.15361468E-01
 -5.61663695E-01 -1.48212388E-01 -2.85509096E-01 -3.44548034E-02 -1.39223378E-02
 -2.08009648E-02  1.84351059E-02  1.38245923E-02  1.57105564E-02  5.77683369E-01
  1.48310171E-01 -5.39361475E-01 -3.11400467E-01 -2.78768646E-02  2.10799366E-02
  5.09040845E-03  4.47330428E-03  1.49483913E-02  1.57105564E-02  4.47330428E-03
  5.03333044E-01  2.90599469E-01  1.89302601E-02
Cartesian 3rd/4th derivatives              R   N=         936
  5.95294291E-01 -3.72938707E-10  5.96957368E-01 -4.73783480E-10 -7.03403767E-04
 -1.25154970E+00 -7.58967890E-03 -3.44909948E-12  2.39843918E-12 -8.15995051E-03
 -2.88163740E-12 -3.89203925E-01 -3.02356629E-01 -2.40468493E-12  3.63652823E-01
  2.23259298E-12 -3.35329398E-01  4.16843439E-01 -1.95724592E-12  3.16895746E-01
 -3.83205542E-01 -2.93852306E-01  1.65408049E-01 -2.61499334E-01  7.87481470E-03
  2.28195958E-03 -3.06252801E-03  2.70719490E-01  1.65407337E-01 -1.03876722E-01
  1.51530016E-01 -1.08411731E-02  1.27755509E-02  9.21682591E-03 -1.61128086E-01
  8.57199457E-02 -2.90124101E-01  1.68016401E-01  4.17353129E-01  6.46119497E-03
 -7.26955867E-03 -1.68189484E-02  2.74112384E-01 -1.58806155E-01 -3.83675095E-01
 -2.93852305E-01 -1.65408048E-01  2.61499334E-01  7.87481470E-03 -2.28195958E-03
  3.06252801E-03  1.52580008E-02  6.56192242E-03  9.55052194E-03  2.70719489E-01
 -1.65407336E-01 -1.03876722E-01  1.51530017E-01  1.08411731E-02  1.27755509E-02
  9.21682591E-03 -6.56192242E-03  5.38122555E-03 -1.94068692E-03  1.61128086E-01
  8.57199453E-02  2.90124101E-01  1.68016401E-01  4.17353129E-01 -6.46119497E-03
 -7.26955867E-03 -1.68189484E-02 -9.55052194E-03 -1.94068692E-03 -1.68590854E-02
 -2.74112384E-01 -1.58806155E-01 -3.83675095E-01  9.93162649E-01  6.72794668E-10
 -9.94054516E-01  6.56143501E-10 -5.47594385E-01 -1.15121860E-03 -2.04676499E-02
 -3.77573064E-14 -4.06037256E-14  2.90993038E-02  1.94553104E-13  1.88802372E-01
  1.31604014E-01 -2.06722153E-13 -1.65810955E-01 -3.84857148E-14  1.51472946E-01
 -1.76129113E-01  4.72534233E-14 -1.39548193E-01  1.60684066E-01 -4.86347499E-01
 -1.83714135E-01  4.44901054E-02 -4.31582695E-03  4.91553275E-03  8.22398414E-03
  4.55265927E-01 -2.09588700E-01  4.02626072E-01  2.07995186E-01  1.35299821E-02
 -1.14957085E-02 -5.96237680E-03  1.87428660E-01 -3.87446206E-01  2.72004816E-02
  1.98060720E-01  8.86401663E-02  6.93898786E-03  3.97208927E-03  7.72252375E-03
 -4.34267795E-02 -2.14134154E-01 -8.09190730E-02 -4.86347500E-01  1.83714134E-01
 -4.44901061E-02 -4.31582695E-03 -4.91553275E-03 -8.22398414E-03  3.53973996E-02
  8.63005803E-03  9.28731004E-03  4.55265928E-01  2.09588700E-01  4.02626071E-01
  2.07995185E-01 -1.35299821E-02 -1.14957085E-02 -5.96237680E-03 -8.63005803E-03
 -3.68415769E-03  1.21013450E-02 -1.87428659E-01 -3.87446205E-01 -2.72004822E-02
  1.98060719E-01  8.86401660E-02 -6.93898786E-03  3.97208927E-03  7.72252375E-03
 -9.28731004E-03  1.21013450E-02 -1.54436170E-02  4.34267801E-02 -2.14134154E-01
 -8.09190727E-02  3.73700374E-10 -9.93649267E-01 -1.12420167E-09  5.48066975E-01
  1.54207335E-10 -1.81252257E-09  8.20433104E-14  5.72077549E-01 -2.33941779E-01
 -2.81805515E-13  5.42217380E-01  7.66869708E-10 -2.02083956E-10 -5.28670582E-01
 -7.67139971E-10 -2.14022932E-01 -2.02313087E-10  4.68711269E-11  2.39481515E-01
  2.02166206E-10 -4.71883794E-11  1.23196518E-01  2.10785859E-01 -1.57062598E-01
  4.51764971E-03 -6.77339893E-03 -1.27292916E-02 -1.27714167E-01  2.25715944E-01
 -2.69752967E-01 -4.39483074E-02 -2.17034838E-02  2.29047463E-02 -1.20075248E-03
 -2.05730572E-01  2.46848221E-01 -1.67022021E-01 -2.67063530E-02  1.52451090E-01
 -2.76986790E-03 -1.39437864E-02 -1.33557047E-02  1.64417289E-01  4.28995997E-02
 -1.39095385E-01 -1.23196519E-01  2.10785859E-01 -1.57062598E-01 -4.51764971E-03
 -6.77339893E-03 -1.27292916E-02  1.61557405E-14  1.71811197E-03  5.37460082E-03
  1.27714169E-01  2.25715943E-01  2.69752967E-01  4.39483075E-02 -2.17034838E-02
 -2.29047463E-02  1.20075248E-03  1.71811197E-03  1.17494551E-14 -2.24946021E-03
 -2.05730572E-01 -2.46848221E-01 -1.67022022E-01  2.67063531E-02 -1.52451090E-01
 -2.76986790E-03  1.39437864E-02  1.33557047E-02  5.37460082E-03  2.24946021E-03
 -8.37194231E-14  1.64417289E-01 -4.28995997E-02  1.39095385E-01 -1.62728997E+00
  1.83850592E-09 -1.62651730E+00  1.11710237E-09  2.15271787E-05  3.57917426E-01
 -4.38561547E-01 -3.13667357E-12  2.19543888E-12  4.45913330E-01 -1.10615073E-11
  1.52438340E+00 -8.48324988E-01 -4.33207493E-12 -1.54581261E+00  5.64405001E-12
 -8.65505824E-01 -1.19196531E-01 -3.39377643E-12  8.45011683E-01  1.28967237E-01
  1.03292576E+00 -8.49475572E-01 -7.34508107E-01 -3.67589189E-03  1.55703293E-03
  7.85720234E-03 -1.04714728E+00 -8.49466059E-01  5.10669491E-02  4.24151731E-01
 -2.64731105E-02  1.07146069E-02  1.02470707E-02  8.61928855E-01 -5.08993354E-02
 -7.49396764E-01  4.32742149E-01 -1.19360447E-01  1.28184855E-02  1.65665239E-03
 -4.88535297E-03  7.31614592E-01 -4.22484166E-01  1.29137569E-01  1.03292576E+00
  8.49475570E-01  7.34508106E-01 -3.67589189E-03 -1.55703293E-03 -7.85720234E-03
  1.78974072E-02  1.40103153E-02  4.96368672E-03 -1.04714727E+00  8.49466058E-01
  5.10669482E-02  4.24151730E-01  2.64731105E-02  1.07146069E-02  1.02470707E-02
 -1.40103153E-02 -1.08822205E-02 -1.19146350E-02 -8.61928853E-01 -5.08993346E-02
  7.49396763E-01  4.32742148E-01 -1.19360448E-01 -1.28184855E-02  1.65665239E-03
 -4.88535297E-03 -4.96368672E-03 -1.19146350E-02 -4.89176921E-03 -7.31614591E-01
 -4.22484166E-01  1.29137570E-01  2.14221198E+00  7.38971729E-10 -2.14533779E+00
  7.30902361E-10  1.85850929E+00 -1.38704600E-04 -6.50356317E-01 -3.89017502E-13
  2.70916990E-13  6.48700698E-01 -1.90327049E-13  2.17609106E+00 -1.23287510E+00
 -3.08351835E-13 -2.18049193E+00  2.03016572E-13 -1.24216663E+00 -1.53435875E-01
 -1.86840355E-13  1.22985883E+00  1.57685250E-01 -7.45927828E-01  5.91999601E-01
  5.30919607E-01  8.27809878E-04 -1.44530730E-03 -5.01821739E-04  7.58574960E-01
  6.17003495E-01 -1.53766314E-02 -3.12817093E-01 -9.76620238E-03  2.20043323E-03
  6.15390086E-03 -5.98895793E-01  5.83189119E-03  5.39040469E-01 -3.08171328E-01
  7.67872901E-02  4.19124900E-03  1.50813618E-03 -2.12468763E-03 -5.36824751E-01
  2.99642549E-01 -7.88967264E-02 -7.45927830E-01 -5.91999602E-01 -5.30919608E-01
  8.27809878E-04  1.44530730E-03  5.01821739E-04 -1.34749414E-02 -8.34149928E-03
 -6.40696620E-03  7.58574961E-01 -6.17003496E-01 -1.53766319E-02 -3.12817093E-01
  9.76620238E-03  2.20043323E-03  6.15390086E-03  8.34149928E-03  7.34430698E-03
  7.02064346E-03  5.98895794E-01  5.83189169E-03 -5.39040469E-01 -3.08171329E-01
  7.67872897E-02 -4.19124900E-03  1.50813618E-03 -2.12468763E-03  6.40696620E-03
  7.02064346E-03  4.23412394E-03  5.36824752E-01  2.99642549E-01 -7.88967260E-02
 -4.15163658E-09 -2.14209669E+00 -9.32009521E-11 -1.85810056E+00 -6.74330407E-10
 -9.02219254E-10 -6.79390521E-11  1.33675455E-03  6.27424199E-03  6.96780714E-11
  3.02626838E-02 -5.02551547E-10 -8.21507867E-11 -3.01407332E-02  4.98791522E-10
 -3.10334346E-03 -8.47886811E-11 -6.76217937E-11  1.03432286E-02  8.16073417E-11
  6.92080564E-11 -1.26472691E+00  1.07037997E+00  9.25913160E-01  2.94120046E-03
 -6.09752840E-05 -3.61994256E-03  1.26178571E+00  1.05591700E+00 -5.41502039E-02
 -5.31084649E-01  1.44019893E-02 -8.28117017E-03 -6.89127692E-03 -1.06777412E+00
  6.24313741E-02  9.30601952E-01 -5.39207414E-01  1.33047877E-01 -8.30873528E-03
  3.22804226E-03  3.65869786E-03 -9.19546938E-01  5.36977649E-01 -1.36706575E-01
  1.26472691E+00  1.07037997E+00  9.25913161E-01 -2.94120046E-03 -6.09752844E-05
 -3.61994256E-03  2.86702400E-12 -2.54486724E-03 -2.74627883E-03 -1.26178571E+00
  1.05591700E+00  5.41502045E-02  5.31084650E-01  1.44019893E-02  8.28117017E-03
  6.89127693E-03 -2.54486725E-03 -1.68026256E-12 -9.98277088E-04 -1.06777413E+00
 -6.24313747E-02  9.30601954E-01  5.39207415E-01 -1.33047877E-01 -8.30873528E-03
 -3.22804226E-03 -3.65869786E-03 -2.74627883E-03  9.98277084E-04 -7.44662237E-13
 -9.19546939E-01 -5.36977650E-01  1.36706574E-01 -1.16149054E+00 -1.28486316E-07
 -7.13573599E-01 -9.28356743E-08  1.00726212E-01  4.46624735E-01  2.07373320E-01
 -9.31918114E-12 -1.67998715E-12 -2.17299950E-01 -9.27857154E-12  6.36556956E-01
 -7.97872023E-01  9.23449265E-12 -6.12733969E-01 -5.00459337E-12 -8.48549959E-01
 -1.54078792E-01  6.22755116E-12  8.06546893E-01  1.95984553E-01  4.77370186E-01
 -3.30852936E-01 -4.24745963E-01  4.74261336E-03  1.45120049E-02  1.03366259E-02
 -4.75675947E-01 -2.99055396E-01  3.84939566E-02  3.48528816E-01 -1.29452435E-02
 -1.16914231E-02  2.08605154E-02  3.14215702E-01 -2.04244877E-02 -4.48234848E-01
  3.73866938E-01 -1.46250379E-01  1.62711070E-02 -4.49114091E-03 -2.09524693E-02
  4.22751230E-01 -3.47856850E-01  1.85041929E-01  4.77370338E-01  3.30853064E-01
  4.24746056E-01  4.74261335E-03 -1.45120049E-02 -1.03366259E-02 -6.52784576E-03
 -2.34533609E-03  8.63531237E-03 -4.75676098E-01  2.99055525E-01  3.84940146E-02
  3.48528882E-01  1.29452435E-02 -1.16914231E-02  2.08605154E-02  2.34533612E-03
 -6.58384282E-03 -2.13338736E-02 -3.14215830E-01 -2.04245457E-02  4.48234940E-01
  3.73867004E-01 -1.46250314E-01 -1.62711070E-02 -4.49114090E-03 -2.09524694E-02
 -8.63531237E-03 -2.13338736E-02 -1.78621815E-02 -4.22751323E-01 -3.47856916E-01
  1.85041864E-01 -1.52519684E+00 -6.34441596E-08  6.28644346E-02 -7.93134776E-08
 -2.00764659E-01 -8.23141312E-02  3.50787349E-01  1.63579701E-11 -1.87876920E-11
 -3.34450560E-01  5.61066177E-11  1.18073217E-01 -3.85383574E-01 -3.75083272E-11
 -1.02279734E-01 -1.53162448E-11 -4.24658233E-01 -2.89307564E-02  8.98620283E-12
  3.86168983E-01  3.13563845E-02  5.87516348E-01 -6.20223192E-01 -4.08921215E-01
 -8.38909594E-03  1.83900473E-02  6.65937781E-03 -5.57204152E-01 -6.14088125E-01
 -9.04832080E-02  2.93030045E-01 -1.81548689E-02 -7.67667122E-03  1.91036074E-02
  6.17082986E-01  1.24643919E-01 -4.28671679E-01  3.12666529E-01  5.56450584E-02
 -3.86389074E-03 -5.46410626E-04 -1.21240269E-03  4.16963395E-01 -2.86852435E-01
 -5.05791623E-02  5.87516472E-01  6.20223255E-01  4.08921295E-01 -8.38909595E-03
 -1.83900473E-02 -6.65937781E-03 -2.20140927E-02  1.50297345E-02  1.49949765E-02
 -5.57204277E-01  6.14088189E-01 -9.04831585E-02  2.93030075E-01  1.81548689E-02
 -7.67667122E-03  1.91036073E-02 -1.50297345E-02 -2.66898370E-02 -2.50826091E-02
 -6.17083049E-01  1.24643870E-01  4.28671758E-01  3.12666559E-01  5.56450867E-02
  3.86389075E-03 -5.46410645E-04 -1.21240268E-03 -1.49949766E-02 -2.50826090E-02
 -3.87659374E-03 -4.16963474E-01 -2.86852466E-01 -5.05791906E-02 -4.16968248E-01
  1.19172739E-07 -1.03011532E+00  6.50520689E-08  4.21474916E-01 -7.11741088E-02
 -2.89966329E-01 -6.28555575E-10  1.07584452E-10  2.98218377E-01 -6.53307921E-10
  1.20378956E+00 -8.89248610E-01  6.17229936E-10 -1.14483437E+00  9.92295452E-11
 -9.34777642E-01  5.87127291E-02 -1.07642483E-10  9.07947312E-01 -4.87010157E-02
  3.53779082E-01 -2.19644755E-01 -1.49522817E-01 -4.34672559E-03  2.14675753E-02
  7.04989520E-03 -3.48393964E-01 -1.61118146E-01 -8.68514099E-02  2.33842814E-01
 -3.19965077E-02 -2.92575247E-02  1.32741477E-02  1.95690833E-01  1.28443318E-01
 -1.62845145E-01  2.56606484E-01  6.25338792E-03  2.51578248E-02 -9.50305645E-03
 -5.00544535E-03  1.39644812E-01 -2.39657893E-01 -4.94031031E-03  3.53778912E-01
  2.19644636E-01  1.49522752E-01 -4.34672559E-03 -2.14675753E-02 -7.04989520E-03
 -1.12938657E-03 -2.70645337E-03 -2.53469048E-03 -3.48393793E-01  1.61118027E-01
 -8.68514951E-02  2.33842767E-01  3.19965077E-02 -2.92575247E-02  1.32741477E-02
  2.70645340E-03 -1.25401801E-02 -7.26046144E-03 -1.95690714E-01  1.28443403E-01
  1.62845080E-01  2.56606437E-01  6.25335667E-03 -2.51578248E-02 -9.50305644E-03
 -5.00544534E-03  2.53469047E-03 -7.26046144E-03  3.66926738E-03 -1.39644747E-01
 -2.39657846E-01 -4.94027904E-03  1.47138781E+00 -1.75278788E-07  1.96697301E+00
 -1.55913396E-07  1.09168148E-01 -1.11074245E+00  1.17696984E+00  1.79909630E-11
 -1.91657384E-11 -1.18788117E+00  1.17916240E-11 -2.11222296E+00  9.48326516E-01
  1.80575377E-11  2.17120550E+00 -3.86789598E-11  9.35334411E-01  3.58226512E-01
  1.19696648E-11 -9.31969714E-01 -3.54688282E-01 -1.32386722E+00  1.28103072E+00
  1.08531140E+00  5.23495909E-03  2.38291838E-02 -7.52060556E-03  1.35186586E+00
  1.31278211E+00  7.26106116E-02 -5.28791442E-01  9.01952835E-03 -2.92712002E-02
 -1.82336574E-03 -1.31328586E+00 -4.66245683E-02  1.09431344E+00 -5.22296236E-01
  3.76280573E-01 -1.23266244E-02 -8.33210654E-03 -1.76870361E-03 -1.08032411E+00
  5.25389357E-01 -3.75811512E-01 -1.32386693E+00 -1.28103055E+00 -1.08531124E+00
  5.23495909E-03 -2.38291838E-02  7.52060557E-03 -3.33246001E-02 -8.64605595E-03
 -2.23990097E-03  1.35186558E+00 -1.31278193E+00  7.26107039E-02 -5.28791334E-01
 -9.01952838E-03 -2.92712002E-02 -1.82336572E-03  8.64605599E-03  3.07935991E-03
  5.42405888E-03  1.31328568E+00 -4.66246606E-02 -1.09431328E+00 -5.22296127E-01
  3.76280669E-01  1.23266244E-02 -8.33210650E-03 -1.76870362E-03  2.23990097E-03
  5.42405887E-03  1.27654308E-03  1.08032396E+00  5.25389249E-01 -3.75811609E-01
 -6.88392959E-01  8.19670432E-08  4.01399936E+00  3.34104521E-08 -1.83615433E+00
 -9.64260048E-01  2.05780315E+00  3.61057325E-11 -1.86851272E-11 -2.06201569E+00
  6.11200285E-11 -4.18530914E+00  2.29604518E+00 -6.30630104E-11  4.22501894E+00
 -1.82871379E-11  2.28643657E+00  6.31053911E-01  1.36339634E-11 -2.29198852E+00
 -6.17127971E-01 -6.84393398E-01  6.30743895E-01  6.03413604E-01  1.88556909E-03
  1.09517318E-02  1.36389647E-03  7.01105427E-01  6.60957961E-01  8.56405177E-02
 -2.29989472E-01 -1.05211044E-02 -1.96348259E-02  2.63496074E-03 -6.46021325E-01
 -6.72423294E-02  6.11415988E-01 -2.25186013E-01  1.66625714E-01 -4.16797289E-03
 -2.18203279E-03 -6.96255847E-03 -6.06448067E-01  2.26810792E-01 -1.63240570E-01
 -6.84393487E-01 -6.30743977E-01 -6.03413638E-01  1.88556908E-03 -1.09517318E-02
 -1.36389647E-03 -1.86885915E-02 -4.54580550E-03 -1.37714670E-03  7.01105517E-01
 -6.60958043E-01  8.56404663E-02 -2.29989487E-01  1.05211044E-02 -1.96348259E-02
  2.63496074E-03  4.54580551E-03  1.03084057E-03  7.42326990E-04  6.46021407E-01
 -6.72422779E-02 -6.11416021E-01 -2.25186028E-01  1.66625705E-01  4.16797289E-03
 -2.18203279E-03 -6.96255847E-03  1.37714669E-03  7.42327001E-04  3.55431421E-03
  6.06448100E-01  2.26810807E-01 -1.63240561E-01  3.50895512E+00 -1.50529671E-07
 -2.07876520E-01 -1.26976411E-07  2.05335369E+00 -9.77695543E-01  3.60886736E-01
  1.68248821E-11 -1.73507708E-11 -3.66669725E-01  1.39134544E-11 -2.63055124E-02
 -2.63205327E-01 -3.28218192E-11  5.98751039E-02 -1.86650244E-11 -2.77921291E-01
 -8.49367725E-03  9.24091749E-12  2.74669378E-01  1.24292446E-02 -1.93460939E+00
  1.95195645E+00  1.68399722E+00  2.67079335E-03  1.98036161E-02 -1.96044318E-03
  1.94323857E+00  1.98509253E+00  1.17076622E-01 -8.95118282E-01 -3.49546992E-03
 -1.65647252E-02  1.48493900E-03 -1.97663365E+00 -8.57713007E-02  1.69537911E+00
 -8.87761146E-01  4.93117197E-01 -6.48049226E-03 -5.88573122E-03 -1.96737229E-03
 -1.68590301E+00  9.00068249E-01 -4.84871368E-01 -1.93460914E+00 -1.95195630E+00
 -1.68399710E+00  2.67079337E-03 -1.98036161E-02  1.96044319E-03 -1.13909644E-02
 -5.09368370E-03 -3.57280565E-03  1.94323832E+00 -1.98509238E+00  1.17076692E-01
 -8.95118193E-01  3.49546992E-03 -1.65647252E-02  1.48493900E-03  5.09368372E-03
 -1.49463928E-02 -6.23629747E-03  1.97663350E+00 -8.57713709E-02 -1.69537898E+00
 -8.87761057E-01  4.93117279E-01  6.48049227E-03 -5.88573122E-03 -1.96737228E-03
  3.57280563E-03 -6.23629747E-03 -6.30155702E-03  1.68590288E+00  9.00068159E-01
 -4.84871450E-01
Dipole Moment                              R   N=           3
  1.58752952E-16 -8.36639471E-16 -5.24647983E-01
Dipole Derivatives                         R   N=          36
  6.45358891E-02  1.21917207E-14 -5.85229842E-14 -1.49367575E-13  6.45349380E-02
 -3.33993211E-08 -5.25677064E-14  4.60853732E-07 -1.99006853E-01 -7.04626272E-02
  6.41229681E-15  1.44700884E-14  3.75099344E-16  2.74388715E-02  3.46038941E-03
 -1.27581369E-14  2.15420965E-01  6.63352700E-02  2.96343010E-03 -4.23920007E-02
  2.99690172E-03 -4.23909449E-02 -4.59870792E-02 -1.73018607E-03  1.86559919E-01
 -1.07710598E-01  6.63355327E-02  2.96343010E-03  4.23920007E-02 -2.99690172E-03
  4.23909449E-02 -4.59870792E-02 -1.73018607E-03 -1.86559919E-01 -1.07710598E-01
  6.63355327E-02
Polarizability                             R   N=           6
  1.37086912E+01 -2.94797321E-14  1.37087351E+01  1.61288500E-14  1.41723520E-05
  1.79207758E+01
Quadrupole Moment                          R   N=           6
  9.09592045E-01  9.09592045E-01 -1.81918409E+00 -4.03685703E-16 -1.42977266E-16
  2.68854353E-16
NDeriv for static properties               I                6
ND12 for static properties                 I               -2
Dipole Moment num derivs                   R   N=          36
 -4.45187652E-13  5.90434526E-08  1.12456434E-01  5.21068411E-14 -1.70333695E-01
  1.69535605E-07  1.70333033E-01 -1.22803261E-14  3.57546230E-13 -1.10895296E-11
  5.16053076E-07 -4.20296769E-02 -1.04178081E-14 -7.14113661E-02  6.86973679E-09
  7.14121179E-02 -2.30540561E-14 -6.67039441E-12  7.19131418E-12 -1.74427372E-04
  3.57781955E-01 -1.50833261E-13 -6.73851984E-02 -2.18833169E-01  7.50342781E-13
  6.72185229E-02 -2.18827769E-01 -5.76450562E-11 -9.26647232E-05  3.82730287E-02
  9.88366008E-12 -1.39030670E-01  5.38073438E-02  6.07266024E-11  1.38817812E-01
  5.37780777E-02
Dipole Derivatives num derivs              R   N=         432
  8.79283870E-02  7.47271008E-11  3.11959959E-11 -3.94967693E-12  8.73035881E-02
 -1.26135334E-04 -1.33524908E-11  1.75924162E-04 -6.32527894E-01 -8.47989972E-02
 -6.75105091E-11 -2.79536086E-11 -2.78208605E-12  2.63358628E-02  1.14973169E-02
  4.47675128E-12 -5.86068877E-02  2.10810544E-01 -1.56469488E-03 -4.82052583E-02
  1.00091669E-02 -4.80142442E-02 -5.68197254E-02 -5.68559077E-03 -5.08617086E-02
  2.92154818E-02  2.10858675E-01 -1.56469489E-03  4.82052583E-02 -1.00091669E-02
  4.80142442E-02 -5.68197254E-02 -5.68559077E-03  5.08617086E-02  2.92154817E-02
  2.10858675E-01 -1.22343699E-01  1.66349027E-11 -5.56112914E-12  1.54110328E-11
  1.22515218E-01  2.39313380E-01  1.66764702E-11  1.71800555E-01 -1.46193165E-04
 -3.29485751E-03 -7.41464759E-13  5.05486066E-13  2.93756480E-14 -2.27390251E-02
  3.15418189E-02  2.31009642E-13  2.35971323E-02 -2.20977328E-02  6.28192781E-02
  2.26985974E-02 -9.62934752E-02  3.12047244E-02 -4.98880965E-02 -1.35427599E-01
 -7.01112435E-02 -9.76988437E-02  1.11219630E-02  6.28192781E-02 -2.26985975E-02
  9.62934752E-02 -3.12047244E-02 -4.98880965E-02 -1.35427599E-01  7.01112435E-02
 -9.76988437E-02  1.11219630E-02 -3.15666743E-11  1.22496307E-01 -2.39090057E-01
  1.22164238E-01 -2.87378391E-11 -2.40681497E-12 -1.71831087E-01  2.21047466E-12
  4.40628543E-12 -1.56396406E-13 -7.67900074E-02  1.90920084E-01 -6.68400071E-02
  1.63737834E-11  9.92989587E-12  1.38202190E-01 -1.33011327E-11 -3.40862897E-12
 -1.57109250E-02 -2.28531496E-02  2.40849865E-02 -2.76621153E-02  3.83482574E-02
  9.64375086E-02  1.68144489E-02  6.99853656E-02  1.91370864E-02  1.57109250E-02
 -2.28531496E-02  2.40849865E-02 -2.76621153E-02 -3.83482574E-02 -9.64375086E-02
  1.68144489E-02 -6.99853656E-02 -1.91370864E-02  2.16416377E-01  8.36464594E-11
  1.94348091E-11 -4.77402805E-11  2.16032995E-01 -1.26518648E-04 -5.54592616E-11
  1.54249201E-04  2.27486756E-01  4.60196611E-02 -1.21795333E-10 -5.41203035E-11
 -1.00741588E-11 -1.90262674E-01 -1.01059359E-02  1.00627540E-11  1.85802236E-02
 -7.58476179E-02 -1.31218019E-01  1.02267346E-01 -8.74727551E-03  1.02386484E-01
 -1.28851602E-02  5.11622728E-03  1.60035385E-02 -9.36723641E-03 -7.58195691E-02
 -1.31218019E-01 -1.02267346E-01  8.74727554E-03 -1.02386484E-01 -1.28851602E-02
  5.11622728E-03 -1.60035385E-02 -9.36723643E-03 -7.58195691E-02 -2.84243447E-01
 -8.76983891E-12  7.63532214E-12 -4.06841370E-12  2.84432741E-01 -4.44375700E-02
 -1.06622501E-11 -2.30888330E-01 -3.24608983E-06  8.48796761E-02 -6.66123061E-12
 -2.37879240E-12 -2.84753260E-13 -2.14323324E-01  1.80598264E-02  1.11194479E-12
  1.03804669E-01 -6.99311627E-02  9.96818856E-02 -8.36780649E-02 -2.77737758E-03
 -1.13877866E-02 -3.50547087E-02  1.31888718E-02 -2.31898813E-02  6.35418305E-02
  3.49672044E-02  9.96818856E-02  8.36780649E-02  2.77737757E-03  1.13877866E-02
 -3.50547087E-02  1.31888718E-02  2.31898813E-02  6.35418305E-02  3.49672044E-02
  2.57825390E-11  2.84083168E-01  4.45509980E-02  2.84367397E-01  5.30075079E-11
  5.14267037E-12  2.30568215E-01 -1.82441279E-11  2.46259949E-11  8.00917298E-12
 -8.16524319E-02 -1.16327747E-02  1.93663474E-03 -5.36964481E-11 -1.03397138E-11
 -5.00609416E-02  1.62166085E-11 -5.26294075E-12  1.03615662E-01 -1.01215368E-01
 -1.64591116E-02 -1.43152016E-01  8.32557966E-03  2.69772408E-03 -9.02536368E-02
  2.33519733E-02  6.05498010E-02 -1.03615662E-01 -1.01215368E-01 -1.64591116E-02
 -1.43152016E-01 -8.32557966E-03 -2.69772408E-03 -9.02536368E-02 -2.33519733E-02
 -6.05498010E-02  1.50385289E-01 -2.74653710E-09  6.85361804E-10 -1.77267865E-09
  1.47300000E-01  5.94603508E-03 -1.53521596E-09  1.30755845E-02 -9.74127022E-01
 -7.12893836E-02  2.06836849E-11  1.28559744E-10  3.06721873E-11  1.07257055E-03
  7.29094644E-02 -8.83948276E-11 -8.53898154E-02  3.32563134E-01 -3.98897186E-02
 -3.76055238E-02  9.21369004E-02 -9.47804421E-03 -7.32089899E-02 -3.93825845E-02
 -1.11301699E-01  3.55098679E-02  3.22231992E-01 -3.98897139E-02  3.76055265E-02
 -9.21369010E-02  9.47804643E-03 -7.32089888E-02 -3.93825844E-02  1.11301701E-01
  3.55098692E-02  3.22231992E-01 -2.75051198E-02  1.19281513E-09  4.72825405E-11
  2.80571891E-09 -9.34387267E-02 -8.19119601E-02  2.45875970E-09  1.78163449E-01
 -3.10212766E-01  2.04353631E-02 -9.72976716E-12  1.11604114E-11 -9.23594247E-12
  1.07393767E-01 -6.56562228E-03  1.27293829E-10  1.07928936E-01  1.70243882E-02
  3.19311585E-03  4.54895409E-02  2.89695855E-01  7.10500193E-02 -6.00022392E-03
  4.42839560E-02  9.73529022E-02 -1.43693439E-01  1.48044236E-01  3.19311363E-03
 -4.54895421E-02 -2.89695855E-01 -7.10500216E-02 -6.00022498E-03  4.42839571E-02
 -9.73529046E-02 -1.43693440E-01  1.48044237E-01 -8.93455828E-02 -2.40277080E-09
  1.12871760E-09 -2.60032125E-09 -3.03018216E-02  9.57500733E-02 -1.82966190E-09
 -1.51900407E-01 -3.09762641E-01  7.35323708E-02 -1.24753306E-11 -1.44787414E-10
 -1.77712671E-11 -6.36186802E-02  2.69927019E-01  1.17415506E-10  2.10750272E-01
  2.04092762E-01  7.56484024E-03 -3.69294091E-02 -4.16288465E-04 -4.98248253E-03
  4.79375457E-02 -1.82793381E-01  1.03727370E-01 -3.00721801E-02  5.42849880E-02
  7.56484457E-03  3.69294114E-02  4.16287645E-04  4.98248566E-03  4.79375474E-02
 -1.82793381E-01 -1.03727368E-01 -3.00721788E-02  5.42849870E-02 -3.83905834E-02
 -1.25954879E-09  6.58329486E-10 -1.17803308E-09 -4.24190638E-02  7.26114697E-03
 -1.31403525E-09  1.29000252E-02  1.58793193E-01 -6.44948158E-02  9.06555532E-11
 -6.73209091E-11  2.16280884E-10  1.21244333E-01  5.98854144E-02  1.59128906E-10
  3.03684750E-02 -4.53008548E-02  5.11009348E-02 -8.65753044E-02  8.23047479E-02
 -5.80454127E-02 -3.84353392E-02 -3.35281153E-02 -1.13027747E-02 -2.22814975E-02
 -5.52961212E-02  5.11009372E-02  8.65753055E-02 -8.23047483E-02  5.80454142E-02
 -3.84353387E-02 -3.35281153E-02  1.13027759E-02 -2.22814965E-02 -5.52961218E-02
 -1.03685134E-02  1.76142732E-09 -6.54239656E-11  2.53848529E-09 -1.40238686E-01
  1.50076316E-02  1.74137187E-09  1.72510191E-02  7.10141530E-02 -1.05331536E-01
 -5.87107445E-11  3.49979897E-11 -4.19721376E-12  2.34717284E-01 -2.90450271E-02
  1.23759030E-10 -7.12085806E-02 -3.79944447E-02  5.75082628E-02 -6.51962645E-02
  2.31606045E-02  2.58247824E-02 -4.62620027E-02  7.06386312E-03 -4.02512518E-02
  2.63315343E-02 -1.50598067E-02  5.75082598E-02  6.51962627E-02 -2.31606042E-02
 -2.58247843E-02 -4.62620037E-02  7.06386310E-03  4.02512500E-02  2.63315334E-02
 -1.50598060E-02 -1.35814031E-01 -1.83521192E-10 -3.00433462E-10 -1.56285480E-10
 -1.31602165E-02 -5.64701385E-04  1.87471280E-10  7.93015757E-03  7.05913840E-02
  4.39802356E-03 -9.99452711E-11  2.12281197E-11  5.87536143E-11  2.60348704E-02
 -5.73967729E-03  6.03178991E-11 -1.53158373E-03  5.97932338E-03  6.53662400E-02
 -1.03627255E-01  7.46107346E-03 -1.37969808E-01 -5.46003137E-03  3.19735456E-03
 -9.76716478E-02 -3.84653391E-03 -3.68353058E-02  6.53662406E-02  1.03627255E-01
 -7.46107301E-03  1.37969809E-01 -5.46003099E-03  3.19735484E-03  9.76716476E-02
 -3.84653371E-03 -3.68353059E-02
Polarizability num derivs                  R   N=          72
 -2.01237777E+00  2.09227264E-10 -2.01252312E+00  3.95938397E-10 -1.29139275E-04
  9.15814028E+00  2.32536358E+00 -6.63697164E-12 -2.32570279E+00  5.40752140E-11
  1.51448763E+00  6.39142805E-04 -2.86223646E-11 -2.32563383E+00 -2.11963049E-11
 -1.51438548E+00  5.79637448E-12 -1.59895286E-10  4.39897167E+00  7.63563036E-12
  4.39901183E+00  1.02090766E-10 -1.92248742E-04 -1.68854829E+00 -2.51375719E+00
  2.40762956E-11  2.51406132E+00  3.79402054E-11 -2.53380374E+00  3.67966323E-04
  6.61435382E-10  2.51409108E+00  6.76381503E-10  2.53387680E+00 -1.48144246E-11
 -2.47879993E-10 -2.27382858E+00 -4.97260522E-10 -2.27952618E+00  2.00323799E-10
  2.39850461E-02 -8.60344724E-01  1.31561334E+00 -7.83312362E-10  7.61794875E+00
  4.78575793E-09  2.01704320E+00 -1.41742216E+00  7.62535105E+00  8.98550924E-11
  1.30980458E+00 -4.90276252E-10 -1.96791943E+00 -1.41515499E+00  2.99341199E+00
 -2.25185204E-10  2.98673734E+00 -1.35450642E-09  2.48511789E-02 -4.36764818E+00
  1.29368984E+00 -9.21061907E-10  3.29683384E+00  4.04162184E-09 -1.77965340E+00
 -1.69216579E+00  3.30501274E+00 -7.05460299E-11  1.28738265E+00  2.47475904E-09
  1.82942562E+00 -1.69119800E+00
Quadrupole Moment num derivs               R   N=          72
  4.04668230E-01  4.04670486E-01 -8.09338717E-01  2.95999462E-11 -1.13655008E-11
  3.83510817E-06  4.30603839E-01 -4.30585785E-01 -1.80532063E-05  2.42668821E-12
  1.44512303E-12 -3.43703021E-01 -1.45685147E-12  2.58518103E-12 -1.12800907E-12
 -4.30583237E-01  3.43710116E-01 -9.68133796E-13  1.25892987E-01  1.25896704E-01
 -2.51789692E-01  6.31664703E-12 -6.46413029E-11  2.09272734E-06 -1.73799568E-01
  1.73818154E-01 -1.85853415E-05  1.62508990E-12 -3.52978263E-12 -1.69674162E-01
  1.55100600E-11  2.17141099E-11 -3.72712997E-11  1.73810435E-01  1.69672941E-01
 -3.01284716E-12 -1.08556586E-01 -1.31933147E-01  2.40489733E-01  8.17568025E-13
 -1.67976830E-12  9.60345984E-03 -3.19112368E-01  1.57623392E-01  1.61488976E-01
  1.76148020E-10  1.31290354E-10  6.72905900E-02  1.81326279E-01 -3.42737324E-01
  1.61411045E-01 -1.36661576E-10 -1.75651076E-10 -4.79566689E-02 -1.86723875E-01
 -2.10399040E-01  3.97122915E-01 -2.72046745E-10 -3.16193360E-10  9.71088365E-03
 -3.38445971E-03 -3.42878802E-01  3.46263262E-01  3.07982486E-10  8.08901448E-11
  1.85598875E-01 -3.19243895E-01 -2.70048532E-02  3.46248748E-01  9.84326987E-11
  3.59318197E-11 -1.66241256E-01
QEq coupling tensors                       R   N=          24
 -4.05257789E-01  2.70901751E-13 -4.05257789E-01  1.00318130E-13 -5.12417746E-13
  8.10515578E-01  5.48400630E-01  5.81920673E-16 -8.95760866E-01 -3.43795735E-16
  6.43787154E-01  3.47360236E-01 -5.34720492E-01  6.25340271E-01  1.87360256E-01
  5.57536030E-01 -3.21893577E-01  3.47360236E-01 -5.34720492E-01 -6.25340271E-01
  1.87360256E-01 -5.57536030E-01 -3.21893577E-01  3.47360236E-01
NDeriv for magnetic props                  I                6
ND12 for magnetic props                    I               -2
QEq coupling tensors num derivs            R   N=         288
  7.41447017E-02 -1.10435604E-10  7.41704866E-02  1.01217980E-10 -1.53559227E-05
 -1.48315188E-01 -1.94450598E-02 -1.35933155E-12 -4.04014862E-01  4.26957562E-13
 -3.57455456E-01  4.23459922E-01 -3.07872900E-01  1.66523916E-01 -1.15588847E-01
 -3.09565016E-01  1.78728792E-01  4.23461747E-01 -3.07872900E-01 -1.66523916E-01
 -1.15588847E-01  3.09565016E-01  1.78728792E-01  4.23461747E-01  4.04784083E-01
 -2.10708426E-11 -4.04804389E-01 -1.45938827E-11 -1.35430250E-01  2.03064253E-05
 -6.71292289E-03 -2.10996725E-14  1.84069256E-01  6.49082160E-15  1.62568761E-01
 -1.77356333E-01 -5.16692390E-01 -2.17651551E-01  4.28023580E-01  3.99543085E-02
  2.31755875E-01  8.86688098E-02 -5.16692390E-01  2.17651551E-01  4.28023580E-01
 -3.99543085E-02  2.31755875E-01  8.86688098E-02  6.41718228E-11 -4.04778358E-01
  1.60434359E-11  1.35465140E-01  2.78832765E-12  1.60418165E-11 -2.32286920E-13
  5.97997207E-01 -1.17229448E-12 -2.54812763E-01 -1.17496203E-12  1.41441762E-12
  1.40872242E-01  2.21059059E-01 -2.94463219E-01 -1.85632255E-01 -3.99587396E-02
  1.53590976E-01 -1.40872242E-01  2.21059059E-01  2.94463219E-01 -1.85632255E-01
  3.99587396E-02 -1.53590976E-01 -4.28501219E-01  1.39787409E-11 -4.28488266E-01
  3.88994649E-10 -1.24398968E-05  8.56989485E-01 -7.75181145E-01 -3.21342092E-12
  1.24303249E+00  1.10050069E-12 -8.66973893E-01 -4.67851342E-01  7.38477144E-01
 -8.73912099E-01 -2.70627188E-01 -7.50821069E-01  4.33487690E-01 -4.67849956E-01
  7.38477144E-01  8.73912099E-01 -2.70627188E-01  7.50821069E-01  4.33487690E-01
 -4.67849956E-01  1.67902655E+00  1.20184745E-12 -1.67900657E+00  2.49011725E-11
  1.41211869E+00 -1.99756228E-05 -1.11223112E+00 -1.21790293E-13  1.75855790E+00
  5.86786680E-14 -1.25712093E+00 -6.46326782E-01 -5.37625951E-01  6.11472080E-01
  2.14508761E-01  5.49879246E-01 -3.04500542E-01  3.23117190E-01 -5.37625951E-01
 -6.11472080E-01  2.14508761E-01 -5.49879246E-01 -3.04500542E-01  3.23117190E-01
 -1.60426604E-11 -1.67899837E+00 -6.41710473E-11 -1.41213797E+00  1.47142124E-11
  1.76471731E-10 -1.21325609E-10  2.30276021E-02  1.95036872E-10 -1.29698214E-02
 -1.35243585E-10 -7.37127489E-11 -8.91386166E-01  1.08225171E+00  3.31677585E-01
  9.39545572E-01 -5.49940781E-01  5.59708581E-01  8.91386166E-01  1.08225171E+00
 -3.31677585E-01  9.39545572E-01  5.49940781E-01 -5.59708582E-01 -1.74759601E-01
 -2.04075696E-09 -1.05846704E-01 -1.56572750E-09 -1.47913981E-02  2.80606309E-01
 -2.38905584E-01  4.23989470E-12  5.76932040E-01  1.43721432E-12 -5.60587544E-01
 -3.38026456E-01  3.75169630E-01 -3.53938840E-01 -3.54447012E-02 -4.85772060E-01
  2.78363504E-01 -3.39724929E-01  3.75169630E-01  3.53938840E-01 -3.54447012E-02
  4.85772060E-01  2.78363504E-01 -3.39724929E-01 -1.49727550E-01  8.29459661E-10
  3.59820695E-02  1.32198827E-09 -3.90226347E-01  1.13745491E-01 -4.88848635E-02
  1.29632172E-12  1.23113247E-01  1.11862768E-12 -1.14267723E-01 -7.42283834E-02
  4.20505192E-01 -6.68425594E-01 -2.56026759E-01 -4.77519880E-01  2.10251665E-01
 -1.64478432E-01  4.20505192E-01  6.68425594E-01 -2.56026759E-01  4.77519880E-01
  2.10251665E-01 -1.64478432E-01 -3.47410142E-02 -2.99218125E-09 -7.87455728E-02
 -1.38360482E-09  3.61696360E-01  1.13486597E-01 -8.70838938E-01  2.19863282E-12
  1.06307559E+00  1.09919211E-12 -6.54445054E-01 -1.92236657E-01  2.43733803E-01
 -2.44835825E-01 -1.38235875E-01 -1.88779128E-01  1.70186897E-01 -1.05497928E-01
  2.43733803E-01  2.44835825E-01 -1.38235875E-01  1.88779128E-01  1.70186897E-01
 -1.05497928E-01  3.67390469E-01  2.00222793E-09  4.37829547E-01  7.26411871E-10
 -1.44881719E-02 -8.05220006E-01  1.04977355E+00  1.07090153E-11 -1.67629053E+00
 -7.39756093E-13  1.12147406E+00  6.26516981E-01 -9.92526937E-01  1.17974426E+00
  3.67755431E-01  9.70940670E-01 -5.62700970E-01  6.24771506E-01 -9.92526936E-01
 -1.17974426E+00  3.67755431E-01 -9.70940669E-01 -5.62700970E-01  6.24771505E-01
 -2.13617757E-01 -4.70576588E-09  4.15470554E-01 -3.53121647E-09 -5.06807835E-01
 -2.01852777E-01  2.14606641E+00  6.34620806E-13 -3.31318949E+00  2.44797963E-12
  2.38468646E+00  1.16712309E+00 -5.33299604E-01  5.72682110E-01  2.39911537E-01
  5.30001249E-01 -2.82906753E-01  2.93388068E-01 -5.33299604E-01 -5.72682110E-01
  2.39911537E-01 -5.30001249E-01 -2.82906753E-01  2.93388068E-01  3.45072022E-01
 -1.25513090E-09 -1.43450687E-01 -1.91865134E-10  4.77881963E-01 -2.01621325E-01
  8.65436965E-03 -1.40613355E-11 -1.31553896E-02  5.79921761E-12  4.79849966E-03
  4.50101994E-03 -1.41820372E+00  1.79924748E+00  5.43494867E-01  1.53868522E+00
 -9.15706396E-01  8.74708848E-01 -1.41820372E+00 -1.79924749E+00  5.43494867E-01
 -1.53868522E+00 -9.15706396E-01  8.74708849E-01
Number of Normal Modes                     I                6
Vib-LE2Fix                                 I               14
Vib-NDFDPol                                I                0
Vib-NumROA                                 I                0
Vib-NDim                                   I                4
Vib-NDim0                                  I                4
Vib-LFlags                                 I                8
Vib-IFlags                                 I   N=          48
           0           0           1           0           0           0
           0           0           0           0           2           0
           0           0           0           0           0           0
           3           0           0           0           0           0
           0           0           4           0           0           0
           0           0           0           0           5           0
           0           0           0           0           0           0
           6           0           0           0           0           0
Vib-AtMass                                 R   N=           4
  3.09737634E+01  1.00782504E+00  1.00782504E+00  1.00782504E+00
Vib-E2                                     R   N=          84
 -2.44275500E+03 -1.91214464E+03 -1.91214462E+03  6.09490249E+03  6.16570823E+03
  6.16570823E+03  1.08663959E+00  1.03561269E+00  1.03561269E+00  1.02162589E+00
  1.04762462E+00  1.04762462E+00  3.82028313E+00  2.23094593E+00  2.23094589E+00
  2.23601966E+01  2.34650691E+01  2.34650691E+01  1.23287732E+01  2.82845327E+01
  2.82847525E+01  1.72211977E+00  4.97148271E+00  4.97158735E+00  0.00000000E+00
  0.00000000E+00  0.00000000E+00  0.00000000E+00  0.00000000E+00  0.00000000E+00
  0.00000000E+00  0.00000000E+00  0.00000000E+00  0.00000000E+00  0.00000000E+00
  0.00000000E+00  0.00000000E+00  0.00000000E+00  0.00000000E+00  0.00000000E+00
  0.00000000E+00  0.00000000E+00  0.00000000E+00  0.00000000E+00  0.00000000E+00
  0.00000000E+00  0.00000000E+00  0.00000000E+00  0.00000000E+00  0.00000000E+00
  0.00000000E+00  0.00000000E+00  0.00000000E+00  0.00000000E+00  0.00000000E+00
  0.00000000E+00  0.00000000E+00  0.00000000E+00  0.00000000E+00  0.00000000E+00
  0.00000000E+00  0.00000000E+00  0.00000000E+00  0.00000000E+00  0.00000000E+00
  0.00000000E+00  0.00000000E+00  0.00000000E+00  0.00000000E+00  0.00000000E+00
  0.00000000E+00  0.00000000E+00  0.00000000E+00  0.00000000E+00  0.00000000E+00
  0.00000000E+00  0.00000000E+00  0.00000000E+00  0.00000000E+00  0.00000000E+00
  0.00000000E+00  0.00000000E+00  0.00000000E+00  0.00000000E+00
Vib-Modes                                  R   N=          72
 -6.03760229E-14  6.57176498E-10 -5.12848723E-02  2.41231811E-12  2.37546324E-01
  5.25384023E-01  2.05721142E-01 -1.18773172E-01  5.25384014E-01 -2.05721142E-01
 -1.18773172E-01  5.25384014E-01 -3.04517315E-02  7.14947751E-06  4.03821906E-13
  7.60003095E-01  3.19494549E-05  6.20839965E-05  8.78480633E-02  3.87890455E-01
 -2.29037650E-01  8.80302607E-02 -3.88142131E-01  2.28975566E-01 -7.14947751E-06
 -3.04517315E-02 -1.01898201E-09  1.78434026E-04 -1.36082146E-01 -2.64434042E-01
  3.88036943E-01  5.36072881E-01  1.32163270E-01 -3.87995650E-01  5.35890684E-01
  1.32270803E-01 -5.60579861E-12  3.43176229E-09  2.14604627E-02 -1.17022250E-12
  5.33709354E-01 -2.19850067E-01  4.62205953E-01 -2.66854730E-01 -2.19850112E-01
 -4.62205953E-01 -2.66854730E-01 -2.19850112E-01  4.84118606E-04 -3.64407243E-02
  2.04185016E-09  7.13268518E-05  7.51997508E-01 -3.16440760E-01 -3.35424161E-01
  1.88329474E-01  1.61861073E-01  3.20474284E-01  1.79615797E-01  1.54579624E-01
 -3.64407243E-02 -4.84118607E-04  2.36836224E-11 -5.36893666E-03  9.99036078E-03
 -4.20394659E-03  5.58299020E-01 -3.25505173E-01 -2.71943746E-01  5.67012696E-01
  3.30393363E-01  2.76147692E-01
Anharmonic Number of Normal Modes          I                9
Anharmonic Vib-LE2Fix                      I               14
Anharmonic Vib-NDFDPol                     I                0
Anharmonic Vib-NumROA                      I                0
Anharmonic Vib-NDim                        I                4
Anharmonic Vib-NDim0                       I                4
Anharmonic Vib-LFlags                      I                8
Anharmonic Vib-IFlags                      I   N=          72
           0           0           0           0           0           0
           0           0           0           0           0           0
           0           0           0           0           0           0
           0           0           0           0           0           0
           0           0           0           0           0           0
           0           0           0           0           0           0
           0           0           0           0           0           0
           0           0           0           0           0           0
           0           0           0           0           0           0
           0           0           0           0           0           0
           0           0           0           0           0           0
           0           0           0           0           0           0
Anharmonic Vib-AtMass                      R   N=           4
  3.09737634E+01  1.00782504E+00  1.00782504E+00  1.00782504E+00
Anharmonic Vib-E2                          R   N=         126
  6.06607405E+03  6.08096697E+03  6.09655908E+03  1.21097557E+04  1.21097923E+04
  1.21135219E+04  1.21444541E+04  1.21570998E+04  1.21676975E+04  0.00000000E+00
  0.00000000E+00  0.00000000E+00  0.00000000E+00  0.00000000E+00  0.00000000E+00
  0.00000000E+00  0.00000000E+00  0.00000000E+00  0.00000000E+00  0.00000000E+00
  0.00000000E+00  0.00000000E+00  0.00000000E+00  0.00000000E+00  0.00000000E+00
  0.00000000E+00  0.00000000E+00  0.00000000E+00  0.00000000E+00  0.00000000E+00
  0.00000000E+00  0.00000000E+00  0.00000000E+00  0.00000000E+00  0.00000000E+00
  0.00000000E+00  0.00000000E+00  0.00000000E+00  0.00000000E+00  0.00000000E+00
  0.00000000E+00  0.00000000E+00  0.00000000E+00  0.00000000E+00  0.00000000E+00
  0.00000000E+00  0.00000000E+00  0.00000000E+00  0.00000000E+00  0.00000000E+00
  0.00000000E+00  0.00000000E+00  0.00000000E+00  0.00000000E+00  0.00000000E+00
  0.00000000E+00  0.00000000E+00  0.00000000E+00  0.00000000E+00  0.00000000E+00
  0.00000000E+00  0.00000000E+00  0.00000000E+00  0.00000000E+00  0.00000000E+00
  0.00000000E+00  0.00000000E+00  0.00000000E+00  0.00000000E+00  0.00000000E+00
  0.00000000E+00  0.00000000E+00  0.00000000E+00  0.00000000E+00  0.00000000E+00
  0.00000000E+00  0.00000000E+00  0.00000000E+00  0.00000000E+00  0.00000000E+00
  0.00000000E+00  0.00000000E+00  0.00000000E+00  0.00000000E+00  0.00000000E+00
  0.00000000E+00  0.00000000E+00  0.00000000E+00  0.00000000E+00  0.00000000E+00
  0.00000000E+00  0.00000000E+00  0.00000000E+00  0.00000000E+00  0.00000000E+00
  0.00000000E+00 -5.54606915E-12 -1.12646223E-03  2.12321091E-02  4.47150117E-01
 -2.58328204E-01 -2.12619809E-01 -4.47150116E-01 -2.58328204E-01 -2.12619809E-01
  3.56059415E-02 -1.20411606E-14  3.36310607E-12 -5.49766558E-01  3.20436618E-01
  2.67767890E-01 -5.49766558E-01 -3.20436618E-01 -2.67767890E-01  1.78131150E-13
 -3.56059416E-02 -6.71969613E-04 -3.34909200E-01  1.88113972E-01  1.61479806E-01
  3.34909200E-01  1.88113972E-01  1.61479806E-01  3.31748818E-02  3.39523483E-09
  2.12321091E-02
Anharmonic Vib-Modes                       R   N=         108
 -5.54606915E-12 -1.12646223E-03  2.12321091E-02 -1.14951809E-12  5.51276281E-01
 -2.27292618E-01  4.47150117E-01 -2.58328204E-01 -2.12619809E-01 -4.47150116E-01
 -2.58328204E-01 -2.12619809E-01  3.56059415E-02 -1.20411606E-14  3.36310607E-12
  5.24594525E-03  8.25040864E-11 -3.45574826E-11 -5.49766558E-01  3.20436618E-01
  2.67767890E-01 -5.49766558E-01 -3.20436618E-01 -2.67767890E-01  1.78131150E-13
 -3.56059416E-02 -6.71969613E-04  2.92416264E-13  7.18059230E-01 -3.02307785E-01
 -3.34909200E-01  1.88113972E-01  1.61479806E-01  3.34909200E-01  1.88113972E-01
  1.61479806E-01  3.31748818E-02  3.39523483E-09  2.12321091E-02  4.88776891E-03
  5.28030329E-01 -2.17510715E-01 -5.49424853E-02  3.45430152E-02  3.19747962E-02
 -9.69518030E-01 -5.62573449E-01 -4.66996315E-01  4.40901135E-02  1.70461115E-02
 -1.72309564E-02  6.49594735E-03 -7.80290701E-01  3.24544753E-01 -8.98470511E-01
  5.24994089E-01  4.34081013E-01 -4.63058992E-01 -2.68586210E-01 -2.29062054E-01
 -1.10923030E-11  6.29560443E-07  4.24642181E-02 -2.31522483E-12  1.05604781E+00
 -4.35016022E-01  9.14581150E-01 -5.28033578E-01 -4.35024223E-01 -9.14581149E-01
 -5.28033577E-01 -4.35024223E-01  5.00755579E-02 -4.63869798E-02  1.19539467E-02
  7.37780336E-03  1.25453802E+00 -5.25272461E-01 -9.33183890E-01  5.36199196E-01
  4.55528229E-01 -6.13179774E-01 -3.65113435E-01 -2.97639691E-01  3.73138904E-02
 -3.56059415E-02  1.99855528E-09  5.49758321E-03  7.34770777E-01 -3.09191747E-01
 -8.96574381E-01  5.15565547E-01  4.35208046E-01 -2.55701235E-01 -1.56049153E-01
 -1.26016360E-01 -2.48924221E-02 -5.96682047E-02 -3.60652003E-03 -3.66748577E-03
  1.14163190E+00 -4.81194756E-01 -2.30314657E-01  1.22063685E-01  1.08818612E-01
  9.99007783E-01  5.70103716E-01  4.83216314E-01
Anharmonic number of displacements         I                6
Anharmonic displacement N1                 I                0
Anharmonic displacement flags              I   N=           6
           1           2           3           4           5           6
Anharmonic displacements                   R   N=          72
 -5.79190912E-14  6.30433469E-10 -4.91978943E-02  2.31409738E-12  2.27879654E-01
  5.04004134E-01  1.97349561E-01 -1.13939837E-01  5.04004126E-01 -1.97349561E-01
 -1.13939837E-01  5.04004126E-01  1.18473336E-15 -2.99235642E-02 -1.00130840E-09
  3.76329296E-15 -1.33721882E-01 -2.59847590E-01  3.81286383E-01  5.26685496E-01
  1.29923811E-01 -3.81286383E-01  5.26685496E-01  1.29923811E-01  2.99235642E-02
 -1.22779045E-14 -1.61730009E-13 -7.46821292E-01  7.14994761E-13  1.55035490E-12
 -8.64139093E-02 -3.81286380E-01  2.25034623E-01 -8.64139093E-02  3.81286380E-01
 -2.25034623E-01 -5.54614916E-12  3.39524605E-09  2.12321091E-02 -1.15789630E-12
  5.28030329E-01 -2.17510715E-01  4.57287772E-01 -2.64015217E-01 -2.17510759E-01
 -4.57287772E-01 -2.64015217E-01 -2.17510759E-01  2.62441622E-15 -3.56059415E-02
  1.99503085E-09  2.55381083E-13  7.34770777E-01 -3.09191747E-01 -3.20436573E-01
  1.79758197E-01  1.54595843E-01  3.20436573E-01  1.79758197E-01  1.54595843E-01
  3.56059415E-02 -1.20500643E-14  3.36310219E-12  5.24594525E-03  8.25041468E-11
 -3.45575104E-11 -5.49766558E-01  3.20436618E-01  2.67767890E-01 -5.49766558E-01
 -3.20436618E-01 -2.67767890E-01
ClPar MaxAn                                I              200
ClPar NIntPar                              I               12
ClPar NRealPar                             I               16
ClPar NBits                                I               30
ClPar LenBitVec                            I                1
ClPar Read BitMap                          I   N=         200
           0           0           0           0           0           0
           0           0           0           0           0           0
           0           0           0           0           0           0
           0           0           0           0           0           0
           0           0           0           0           0           0
           0           0           0           0           0           0
           0           0           0           0           0           0
           0           0           0           0           0           0
           0           0           0           0           0           0
           0           0           0           0           0           0
           0           0           0           0           0           0
           0           0           0           0           0           0
           0           0           0           0           0           0
           0           0           0           0           0           0
           0           0           0           0           0           0
           0           0           0           0           0           0
           0           0           0           0           0           0
           0           0           0           0           0           0
           0           0           0           0           0           0
           0           0           0           0           0           0
           0           0           0           0           0           0
           0           0           0           0           0           0
           0           0           0           0           0           0
           0           0           0           0           0           0
           0           0           0           0           0           0
           0           0           0           0           0           0
           0           0           0           0           0           0
           0           0           0           0           0           0
           0           0           0           0           0           0
           0           0           0           0           0           0
           0           0           0           0           0           0
           0           0           0           0           0           0
           0           0           0           0           0           0
           0           0
ClPar Default BitMap                       I   N=         200
      516096      516096      516096      516096      516096      516096
      516096      516096      516096      516096      516096      516096
      516096      516096      516096      516096      516096      516096
      516096      516096      516096      516096      516096      516096
      516096      516096      516096      516096      516096      516096
      516096      516096      516096      516096      516096      516096
      516096      516096      516096      516096      516096      516096
      516096      516096      516096      516096      516096      516096
      516096      516096      516096      516096      516096      516096
      516096      516096      516096      516096      516096      516096
      516096      516096      516096      516096      516096      516096
      516096      516096      516096      516096      516096      516096
      516096      516096      516096      516096      516096      516096
      516096      516096      516096      516096      516096      516096
      516096      516096      122880      122880      122880      122880
      122880      122880      122880      122880      122880      122880
      122880      122880      122880      122880      122880      122880
      122880      122880      122880      122880      122880      122880
      122880      122880      122880      122880      122880      122880
      122880      122880      122880      122880      122880      122880
      122880      122880      122880      122880      122880      122880
      122880      122880      122880      122880      122880      122880
      122880      122880      122880      122880      122880      122880
      122880      122880      122880      122880      122880      122880
      122880      122880      122880      122880      122880      122880
      122880      122880      122880      122880      122880      122880
      122880      122880      122880      122880      122880      122880
      122880      122880      122880      122880      122880      122880
      122880      122880      122880      122880      122880      122880
      122880      122880      122880      122880      122880      122880
      122880      122880      122880      122880      122880      122880
      122880      122880      122880      122880      122880      122880
      122880      122880      122880      122880      122880      122880
      122880      122880
ClPar Int Params                           I   N=        2400
           0           0           0           0           0           0
           0           0           0           0           0           0
           0           0           0           0           0           0
           0           0           0           0           0           0
           0           0           0           0           0           0
           0           0           0           0           0           0
           0           0           0           0           0           0
           0           0           0           0           0           0
           0           0           0           0           0           0
           0           0           0           0           0           0
           0           0           0           0           0           0
           0           0           0           0           0           0
           0           0           0           0           0           0
           0           0           0           0           0           0
           0           0           0           0           0           0
           0           0           0           0           0           0
           0           0           0           0           0           0
           0           0           0           0           0           0
           0           0           0           0           0           0
           0           0           0           0           0           0
           0           0           0           0           0           0
           0           0           0           0           0           0
           0           0           0           0           0           0
           0           0           0           0           0           0
           0           0           0           0           0           0
           0           0           0           0           0           0
           0           0           0           0           0           0
           0           0           0           0           0           0
           0           0           0           0           0           0
           0           0           0           0           0           0
           0           0           0           0           0           0
           0           0           0           0           0           0
           0           0           0           0           0           0
           0           0           0           0           0           0
           0           0           0           0           0           0
           0           0           0           0           0           0
           0           0           0           0           0           0
           0           0           0           0           0           0
           0           0           0           0           0           0
           0           0           0           0           0           0
           0           0           0           0           0           0
           0           0           0           0           0           0
           0           0           0           0           0           0
           0           0           0           0           0           0
           0           0           0           0           0           0
           0           0           0           0           0           0
           0           0           0           0           0           0
           0           0           0           0           0           0
           0           0           0           0           0           0
           0           0           0           0           0           0
           0           0           0           0           0           0
           0           0           0           0           0           0
           0           0           0           0           0           0
           0           0           0           0           0           0
           0           0           0           0           0           0
           0           0           0           0           0           0
           0           0           0           0           0           0
           0           0           0           0           0           0
           0           0           0           0           0           0
           0           0           0           0           0           0
           0           0           0           0           0           0
           0           0           0           0           0           0
           0           0           0           0           0           0
           0           0           0           0           0           0
           0           0           0           0           0           0
           0           0           0           0           0           0
           0           0           0           0           0           0
           0           0           0           0           0           0
           0           0           0           0           0           0
           0           0           0           0           0           0
           0           0           0           0           0           0
           0           0           0           0           0           0
           0           0           0           0           0           0
           0           0           0           0           0           0
           0           0           0           0           0           0
           0           0           0           0           0           0
           0           0           0           0           0           0
           0           0           0           0           0           0
           0           0           0           0           0           0
           0           0           0           0           0           0
           0           0           0           0           0           0
           0           0           0           0           0           0
           0           0           0           0           0           0
           0           0           0           0           0           0
           0           0           0           0           0           0
           0           0           0           0           0           0
           0           0           0           0           0           0
           0           0           0           0           0           0
           0           0           0           0           0           0
           0           0           0           0           0           0
           0           0           0           0           0           0
           0           0           0           0           0           0
           0           0           0           0           0           0
           0           0           0           0           0           0
           0           0           0           0           0           0
           0           0           0           0           0           0
           0           0           0           0           0           0
           0           0           0           0           0           0
           0           0           0           0           0           0
           0           0           0           0           0           0
           0           0           0           0           0           0
           0           0           0           0           0           0
           0           0           0           0           0           0
           0           0           0           0           0           0
           0           0           0           0           0           0
           0           0           0           0           0           0
           0           0           0           0           0           0
           0           0           0           0           0           0
           0           0           0           0           0           0
           0           0           0           0           0           0
           0           0           0           0           0           0
           0           0           0           0           0           0
           0           0           0           0           0           0
           0           0           0           0           0           0
           0           0           0           0           0           0
           0           0           0           0           0           0
           0           0           0           0           0           0
           0           0           0           0           0           0
           0           0           0           0           0           0
           0           0           0           0           0           0
           0           0           0           0           0           0
           0           0           0           0           0           0
           0           0           0           0           0           0
           0           0           0           0           0           0
           0           0           0           0           0           0
           0           0           0           0           0           0
           0           0           0           0           0           0
           0           0           0           0           0           0
           0           0           0           0           0           0
           0           0           0           0           0           0
           0           0           0           0           0           0
           0           0           0           0           0           0
           0           0           0           0           0           0
           0           0           0           0           0           0
           0           0           0           0           0           0
           0           0           0           0           0           0
           0           0           0           0           0           0
           0           0           0           0           0           0
           0           0           0           0           0           0
           0           0           0           0           0           0
           0           0           0           0           0           0
           0           0           0           0           0           0
           0           0           0           0           0           0
           0           0           0           0           0           0
           0           0           0           0           0           0
           0           0           0           0           0           0
           0           0           0           0           0           0
           0           0           0           0           0           0
           0           0           0           0           0           0
           0           0           0           0           0           0
           0           0           0           0           0           0
           0           0           0           0           0           0
           0           0           0           0           0           0
           0           0           0           0           0           0
           0           0           0           0           0           0
           0           0           0           0           0           0
           0           0           0           0           0           0
           0           0           0           0           0           0
           0           0           0           0           0           0
           0           0           0           0           0           0
           0           0           0           0           0           0
           0           0           0           0           0           0
           0           0           0           0           0           0
           0           0           0           0           0           0
           0           0           0           0           0           0
           0           0           0           0           0           0
           0           0           0           0           0           0
           0           0           0           0           0           0
           0           0           0           0           0           0
           0           0           0           0           0           0
           0           0           0           0           0           0
           0           0           0           0           0           0
           0           0           0           0           0           0
           0           0           0           0           0           0
           0           0           0           0           0           0
           0           0           0           0           0           0
           0           0           0           0           0           0
           0           0           0           0           0           0
           0           0           0           0           0           0
           0           0           0           0           0           0
           0           0           0           0           0           0
           0           0           0           0           0           0
           0           0           0           0           0           0
           0           0           0           0           0           0
           0           0           0           0           0           0
           0           0           0           0           0           0
           0           0           0           0           0           0
           0           0           0           0           0           0
           0           0           0           0           0           0
           0           0           0           0           0           0
           0           0           0           0           0           0
           0           0           0           0           0           0
           0           0           0           0           0           0
           0           0           0           0           0           0
           0           0           0           0           0           0
           0           0           0           0           0           0
           0           0           0           0           0           0
           0           0           0           0           0           0
           0           0           0           0           0           0
           0           0           0           0           0           0
           0           0           0           0           0           0
           0           0           0           0           0           0
           0           0           0           0           0           0
           0           0           0           0           0           0
           0           0           0           0           0           0
           0           0           0           0           0           0
           0           0           0           0           0           0
           0           0           0           0           0           0
           0           0           0           0           0           0
           0           0           0           0           0           0
           0           0           0           0           0           0
           0           0           0           0           0           0
           0           0           0           0           0           0
           0           0           0           0           0           0
           0           0           0           0           0           0
           0           0           0           0           0           0
           0           0           0           0           0           0
           0           0           0           0           0           0
           0           0           0           0           0           0
           0           0           0           0           0           0
           0           0           0           0           0           0
           0           0           0           0           0           0
           0           0           0           0           0           0
           0           0           0           0           0           0
           0           0           0           0           0           0
           0           0           0           0           0           0
           0           0           0           0           0           0
           0           0           0           0           0           0
           0           0           0           0           0           0
           0           0           0           0           0           0
           0           0           0           0           0           0
           0           0           0           0           0           0
           0           0           0           0           0           0
           0           0           0           0           0           0
           0           0           0           0           0           0
           0           0           0           0           0           0
           0           0           0           0           0           0
           0           0           0           0           0           0
           0           0           0           0           0           0
           0           0           0           0           0           0
           0           0           0           0           0           0
           0           0           0           0           0           0
           0           0           0           0           0           0
           0           0           0           0           0           0
           0           0           0           0           0           0
           0           0           0           0           0           0
           0           0           0           0           0           0
           0           0           0           0           0           0
           0           0           0           0           0           0
           0           0           0           0           0           0
           0           0           0           0           0           0
           0           0           0           0           0           0
           0           0           0           0           0           0
           0           0           0           0           0           0
           0           0           0           0           0           0
           0           0           0           0           0           0
           0           0           0           0           0           0
           0           0           0           0           0           0
           0           0           0           0           0           0
           0           0           0           0           0           0
           0           0           0           0           0           0
           0           0           0           0           0           0
           0           0           0           0           0           0
           0           0           0           0           0           0
           0           0           0           0           0           0
           0           0           0           0           0           0
           0           0           0           0           0           0
           0           0           0           0           0           0
           0           0           0           0           0           0
           0           0           0           0           0           0
           0           0           0           0           0           0
           0           0           0           0           0           0
           0           0           0           0           0           0
           0           0           0           0           0           0
           0           0           0           0           0           0
           0           0           0           0           0           0
           0           0           0           0           0           0
           0           0           0           0           0           0
           0           0           0           0           0           0
           0           0           0           0           0           0
           0           0           0           0           0           0
           0           0           0           0           0           0
           0           0           0           0           0           0
           0           0           0           0           0           0
           0           0           0           0           0           0
           0           0           0           0           0           0
           0           0           0           0           0           0
           0           0           0           0           0           0
           0           0           0           0           0           0
           0           0           0           0           0           0
           0           0           0           0           0           0
           0           0           0           0           0           0
           0           0           0           0           0           0
           0           0           0           0           0           0
           0           0           0           0           0           0
           0           0           0           0           0           0
           0           0           0           0           0           0
           0           0           0           0           0           0
           0           0           0           0           0           0
           0           0           0           0           0           0
           0           0           0           0           0           0
           0           0           0           0           0           0
           0           0           0           0           0           0
           0           0           0           0           0           0
           0           0           0           0           0           0
           0           0           0           0           0           0
           0           0           0           0           0           0
           0           0           0           0           0           0
           0           0           0           0           0           0
           0           0           0           0           0           0
           0           0           0           0           0           0
           0           0           0           0           0           0
           0           0           0           0           0           0
           0           0           0           0           0           0
           0           0           0           0           0           0
           0           0           0           0           0           0
           0           0           0           0           0           0
           0           0           0           0           0           0
           0           0           0           0           0           0
           0           0           0           0           0           0
           0           0           0           0           0           0
           0           0           0           0           0           0
           0           0           0           0           0           0
           0           0           0           0           0           0
           0           0           0           0           0           0
           0           0           0           0           0           0
           0           0           0           0           0           0
           0           0           0           0           0           0
           0           0           0           0           0           0
           0           0           0           0           0           0
           0           0           0           0           0           0
           0           0           0           0           0           0
           0           0           0           0           0           0
           0           0           0           0           0           0
           0           0           0           0           0           0
           0           0           0           0           0           0
           0           0           0           0           0           0
           0           0           0           0           0           0
           0           0           0           0           0           0
           0           0           0           0           0           0
           0           0           0           0           0           0
           0           0           0           0           0           0
           0           0           0           0           0           0
           0           0           0           0           0           0
           0           0           0           0           0           0
           0           0           0           0           0           0
           0           0           0           0           0           0
           0           0           0           0           0           0
           0           0           0           0           0           0
           0           0           0           0           0           0
           0           0           0           0           0           0
           0           0           0           0           0           0
           0           0           0           0           0           0
           0           0           0           0           0           0
           0           0           0           0           0           0
           0           0           0           0           0           0
           0           0           0           0           0           0
           0           0           0           0           0           0
           0           0           0           0           0           0
           0           0           0           0           0           0
           0           0           0           0           0           0
           0           0           0           0           0           0
           0           0           0           0           0           0
           0           0           0           0           0           0
           0           0           0           0           0           0
           0           0           0           0           0           0
           0           0           0           0           0           0
           0           0           0           0           0           0
           0           0           0           0           0           0
           0           0           0           0           0           0
           0           0           0           0           0           0
           0           0           0           0           0           0
           0           0           0           0           0           0
           0           0           0           0           0           0
           0           0           0           0           0           0
           0           0           0           0           0           0
           0           0           0           0           0           0
           0           0           0           0           0           0
           0           0           0           0           0           0
           0           0           0           0           0           0
           0           0           0           0           0           0
           0           0           0           0           0           0
           0           0           0           0           0           0
           0           0           0           0           0           0
           0           0           0           0           0           0
           0           0           0           0           0           0
           0           0           0           0           0           0
           0           0           0           0           0           0
           0           0           0           0           0           0
           0           0           0           0           0           0
           0           0           0           0           0           0
           0           0           0           0           0           0
           0           0           0           0           0           0
           0           0           0           0           0           0
           0           0           0           0           0           0
           0           0           0           0           0           0
           0           0           0           0           0           0
           0           0           0           0           0           0
           0           0           0           0           0           0
           0           0           0           0           0           0
ClPar Real Params                          R   N=        3200
  0.00000000E+00  0.00000000E+00  0.00000000E+00  0.00000000E+00  0.00000000E+00
  0.00000000E+00  0.00000000E+00  0.00000000E+00  0.00000000E+00  0.00000000E+00
  0.00000000E+00  0.00000000E+00  0.00000000E+00  0.00000000E+00  0.00000000E+00
  0.00000000E+00  0.00000000E+00  0.00000000E+00  0.00000000E+00  0.00000000E+00
  0.00000000E+00  0.00000000E+00  0.00000000E+00  0.00000000E+00  0.00000000E+00
  0.00000000E+00  0.00000000E+00  0.00000000E+00  0.00000000E+00  0.00000000E+00
  0.00000000E+00  0.00000000E+00  0.00000000E+00  0.00000000E+00  0.00000000E+00
  0.00000000E+00  0.00000000E+00  0.00000000E+00  0.00000000E+00  0.00000000E+00
  0.00000000E+00  0.00000000E+00  0.00000000E+00  0.00000000E+00  0.00000000E+00
  0.00000000E+00  0.00000000E+00  0.00000000E+00  0.00000000E+00  0.00000000E+00
  0.00000000E+00  0.00000000E+00  0.00000000E+00  0.00000000E+00  0.00000000E+00
  0.00000000E+00  0.00000000E+00  0.00000000E+00  0.00000000E+00  0.00000000E+00
  0.00000000E+00  0.00000000E+00  0.00000000E+00  0.00000000E+00  0.00000000E+00
  0.00000000E+00  0.00000000E+00  0.00000000E+00  0.00000000E+00  0.00000000E+00
  0.00000000E+00  0.00000000E+00  0.00000000E+00  0.00000000E+00  0.00000000E+00
  0.00000000E+00  0.00000000E+00  0.00000000E+00  0.00000000E+00  0.00000000E+00
  0.00000000E+00  0.00000000E+00  0.00000000E+00  0.00000000E+00  0.00000000E+00
  0.00000000E+00  0.00000000E+00  0.00000000E+00  0.00000000E+00  0.00000000E+00
  0.00000000E+00  0.00000000E+00  0.00000000E+00  0.00000000E+00  0.00000000E+00
  0.00000000E+00  0.00000000E+00  0.00000000E+00  0.00000000E+00  0.00000000E+00
  0.00000000E+00  0.00000000E+00  0.00000000E+00  0.00000000E+00  0.00000000E+00
  0.00000000E+00  0.00000000E+00  0.00000000E+00  0.00000000E+00  0.00000000E+00
  0.00000000E+00  0.00000000E+00  0.00000000E+00  0.00000000E+00  0.00000000E+00
  0.00000000E+00  0.00000000E+00  0.00000000E+00  0.00000000E+00  0.00000000E+00
  0.00000000E+00  0.00000000E+00  0.00000000E+00  0.00000000E+00  0.00000000E+00
  0.00000000E+00  0.00000000E+00  0.00000000E+00  0.00000000E+00  0.00000000E+00
  0.00000000E+00  0.00000000E+00  0.00000000E+00  0.00000000E+00  0.00000000E+00
  0.00000000E+00  0.00000000E+00  0.00000000E+00  0.00000000E+00  0.00000000E+00
  0.00000000E+00  0.00000000E+00  0.00000000E+00  0.00000000E+00  0.00000000E+00
  0.00000000E+00  0.00000000E+00  0.00000000E+00  0.00000000E+00  0.00000000E+00
  0.00000000E+00  0.00000000E+00  0.00000000E+00  0.00000000E+00  0.00000000E+00
  0.00000000E+00  0.00000000E+00  0.00000000E+00  0.00000000E+00  0.00000000E+00
  0.00000000E+00  0.00000000E+00  0.00000000E+00  0.00000000E+00  0.00000000E+00
  0.00000000E+00  0.00000000E+00  0.00000000E+00  0.00000000E+00  0.00000000E+00
  0.00000000E+00  0.00000000E+00  0.00000000E+00  0.00000000E+00  0.00000000E+00
  0.00000000E+00  0.00000000E+00  0.00000000E+00  0.00000000E+00  0.00000000E+00
  0.00000000E+00  0.00000000E+00  0.00000000E+00  0.00000000E+00  0.00000000E+00
  0.00000000E+00  0.00000000E+00  0.00000000E+00  0.00000000E+00  0.00000000E+00
  0.00000000E+00  0.00000000E+00  0.00000000E+00  0.00000000E+00  0.00000000E+00
  0.00000000E+00  0.00000000E+00  0.00000000E+00  0.00000000E+00  0.00000000E+00
  2.26000000E-01  4.43000000E-01  1.01000000E-01  1.47000000E-01  1.92000000E-01
  2.40000000E-01  2.75000000E-01  3.03000000E-01  3.25000000E-01  4.13000000E-01
  9.60000000E-02  1.35000000E-01  1.73000000E-01  2.11000000E-01  2.48000000E-01
  2.86000000E-01  3.23000000E-01  3.60000000E-01  8.20000000E-02  1.04000000E-01
  1.17000000E-01  1.23000000E-01  1.29000000E-01  1.34000000E-01  1.40000000E-01
  1.44000000E-01  1.48000000E-01  1.52000000E-01  1.55000000E-01  1.76000000E-01
  1.98000000E-01  2.19000000E-01  2.39000000E-01  2.60000000E-01  2.80000000E-01
  3.00000000E-01  7.90000000E-02  9.90000000E-02  1.19000000E-01  1.26000000E-01
  1.33000000E-01  1.40000000E-01  1.47000000E-01  1.53000000E-01  1.58000000E-01
  1.63000000E-01  1.57000000E-01  1.70000000E-01  1.87000000E-01  2.03000000E-01
  2.19000000E-01  2.34000000E-01  2.50000000E-01  2.65000000E-01  7.40000000E-02
  9.20000000E-02  1.05000000E-01  1.06000000E-01  1.07000000E-01  1.08000000E-01
  1.09000000E-01  1.10000000E-01  1.11000000E-01  1.12000000E-01  1.13000000E-01
  1.14000000E-01  1.15000000E-01  1.16000000E-01  1.17000000E-01  1.17000000E-01
  1.26000000E-01  1.36000000E-01  1.46000000E-01  1.55000000E-01  1.65000000E-01
  1.73000000E-01  1.82000000E-01  1.90000000E-01  1.62000000E-01  1.78000000E-01
  1.10000000E-01  1.35000000E-01  1.59000000E-01  1.83000000E-01  2.07000000E-01
  2.31000000E-01  6.90000000E-02  9.40000000E-02  1.02000000E-01  1.03000000E-01
  1.05000000E-01  1.07000000E-01  1.09000000E-01  1.11000000E-01  1.13000000E-01
  1.15000000E-01  1.17000000E-01  1.19000000E-01  1.20000000E-01  1.22000000E-01
  1.24000000E-01  1.26000000E-01  1.28000000E-01  1.28000000E-01  1.28000000E-01
  1.28000000E-01  1.28000000E-01  1.28000000E-01  1.28000000E-01  1.28000000E-01
  1.28000000E-01  1.28000000E-01  1.28000000E-01  1.28000000E-01  1.28000000E-01
  1.28000000E-01  1.28000000E-01  1.28000000E-01  1.28000000E-01  1.28000000E-01
  1.28000000E-01  1.28000000E-01  1.28000000E-01  1.28000000E-01  1.28000000E-01
  1.28000000E-01  1.28000000E-01  1.28000000E-01  1.28000000E-01  1.28000000E-01
  1.28000000E-01  1.28000000E-01  1.28000000E-01  1.28000000E-01  1.28000000E-01
  1.28000000E-01  1.28000000E-01  1.28000000E-01  1.28000000E-01  1.28000000E-01
  1.28000000E-01  1.28000000E-01  1.28000000E-01  1.28000000E-01  1.28000000E-01
  1.28000000E-01  1.28000000E-01  1.28000000E-01  1.28000000E-01  1.28000000E-01
  1.28000000E-01  1.28000000E-01  1.28000000E-01  1.28000000E-01  1.28000000E-01
  1.28000000E-01  1.28000000E-01  1.28000000E-01  1.28000000E-01  1.28000000E-01
  1.28000000E-01  1.28000000E-01  1.28000000E-01  1.28000000E-01  1.28000000E-01
  1.28000000E-01  1.28000000E-01  1.28000000E-01  1.28000000E-01  1.28000000E-01
  1.28000000E-01  1.28000000E-01  1.28000000E-01  1.28000000E-01  1.28000000E-01
  1.28000000E-01  1.28000000E-01  1.28000000E-01  1.28000000E-01  1.28000000E-01
  1.28000000E-01  1.28000000E-01  1.28000000E-01  1.28000000E-01  1.28000000E-01
  1.28000000E-01  1.28000000E-01  1.28000000E-01  1.28000000E-01  1.28000000E-01
  1.28000000E-01  1.28000000E-01  1.28000000E-01  1.28000000E-01  1.28000000E-01
  1.28000000E-01  1.28000000E-01  1.28000000E-01  1.28000000E-01  1.28000000E-01
  5.47000000E-01  5.92000000E-01  5.99000000E-01  6.68000000E-01  6.98000000E-01
  7.18000000E-01  7.26000000E-01  7.36000000E-01  7.43000000E-01  7.45000000E-01
  6.07000000E-01  6.66000000E-01  6.93000000E-01  7.09000000E-01  7.20000000E-01
  7.29000000E-01  7.35000000E-01  7.40000000E-01  6.08000000E-01  7.34000000E-01
  7.46000000E-01  7.55000000E-01  7.61000000E-01  7.65000000E-01  7.67000000E-01
  7.60000000E-01  7.49000000E-01  7.33000000E-01  7.08000000E-01  6.48000000E-01
  6.88000000E-01  7.09000000E-01  7.22000000E-01  7.31000000E-01  7.38000000E-01
  7.44000000E-01  6.09000000E-01  7.30000000E-01  7.41000000E-01  7.52000000E-01
  7.58000000E-01  7.63000000E-01  7.66000000E-01  7.58000000E-01  7.48000000E-01
  7.33000000E-01  7.01000000E-01  6.45000000E-01  6.86000000E-01  7.08000000E-01
  7.22000000E-01  7.31000000E-01  7.38000000E-01  7.44000000E-01  6.08000000E-01
  7.28000000E-01  7.32000000E-01  7.32000000E-01  7.32000000E-01  7.32000000E-01
  7.32000000E-01  7.32000000E-01  7.32000000E-01  7.32000000E-01  7.32000000E-01
  7.31000000E-01  7.31000000E-01  7.31000000E-01  7.31000000E-01  7.46000000E-01
  7.37000000E-01  7.46000000E-01  7.51000000E-01  7.55000000E-01  7.58000000E-01
  7.47000000E-01  7.32000000E-01  7.11000000E-01  7.41000000E-01  7.07000000E-01
  7.47000000E-01  7.43000000E-01  7.42000000E-01  7.42000000E-01  7.43000000E-01
  7.44000000E-01  6.05000000E-01  7.24000000E-01  7.26000000E-01  7.26000000E-01
  7.27000000E-01  7.27000000E-01  7.27000000E-01  7.28000000E-01  7.28000000E-01
  7.28000000E-01  7.28000000E-01  7.28000000E-01  7.29000000E-01  7.29000000E-01
  7.29000000E-01  7.29000000E-01  7.29000000E-01  7.29000000E-01  7.29000000E-01
  7.29000000E-01  7.29000000E-01  7.29000000E-01  7.29000000E-01  7.29000000E-01
  7.29000000E-01  7.29000000E-01  7.29000000E-01  7.29000000E-01  7.29000000E-01
  7.29000000E-01  7.29000000E-01  7.29000000E-01  7.29000000E-01  7.29000000E-01
  7.29000000E-01  7.29000000E-01  7.29000000E-01  7.29000000E-01  7.29000000E-01
  7.29000000E-01  7.29000000E-01  7.29000000E-01  7.29000000E-01  7.29000000E-01
  7.29000000E-01  7.29000000E-01  7.29000000E-01  7.29000000E-01  7.29000000E-01
  7.29000000E-01  7.29000000E-01  7.29000000E-01  7.29000000E-01  7.29000000E-01
  7.29000000E-01  7.29000000E-01  7.29000000E-01  7.29000000E-01  7.29000000E-01
  7.29000000E-01  7.29000000E-01  7.29000000E-01  7.29000000E-01  7.29000000E-01
  7.29000000E-01  7.29000000E-01  7.29000000E-01  7.29000000E-01  7.29000000E-01
  7.29000000E-01  7.29000000E-01  7.29000000E-01  7.29000000E-01  7.29000000E-01
  7.29000000E-01  7.29000000E-01  7.29000000E-01  7.29000000E-01  7.29000000E-01
  7.29000000E-01  7.29000000E-01  7.29000000E-01  7.29000000E-01  7.29000000E-01
  7.29000000E-01  7.29000000E-01  7.29000000E-01  7.29000000E-01  7.29000000E-01
  7.29000000E-01  7.29000000E-01  7.29000000E-01  7.29000000E-01  7.29000000E-01
  7.29000000E-01  7.29000000E-01  7.29000000E-01  7.29000000E-01  7.29000000E-01
  7.29000000E-01  7.29000000E-01  7.29000000E-01  7.29000000E-01  7.29000000E-01
  7.29000000E-01  7.29000000E-01  7.29000000E-01  7.29000000E-01  7.29000000E-01
  7.29000000E-01  7.29000000E-01  7.29000000E-01  7.29000000E-01  7.29000000E-01
  1.00000000E+00  1.70400000E+00  3.23000000E-01  3.89000000E-01  4.67000000E-01
  5.67000000E-01  6.36000000E-01  6.64000000E-01  6.96000000E-01  8.79000000E-01
  3.07000000E-01  3.48000000E-01  4.00000000E-01  4.54000000E-01  5.09000000E-01
  5.65000000E-01  6.21000000E-01  6.77000000E-01  2.56000000E-01  3.50000000E-01
  3.64000000E-01  3.62000000E-01  3.62000000E-01  3.62000000E-01  3.62000000E-01
  3.65000000E-01  3.69000000E-01  3.75000000E-01  3.86000000E-01  4.46000000E-01
  4.55000000E-01  4.74000000E-01  4.96000000E-01  5.20000000E-01  5.45000000E-01
  5.70000000E-01  2.45000000E-01  3.22000000E-01  3.55000000E-01  3.59000000E-01
  3.64000000E-01  3.70000000E-01  3.76000000E-01  3.85000000E-01  3.95000000E-01
  4.08000000E-01  3.76000000E-01  4.23000000E-01  4.22000000E-01  4.32000000E-01
  4.45000000E-01  4.59000000E-01  4.75000000E-01  4.91000000E-01  2.28000000E-01
  2.92000000E-01  2.89000000E-01  2.92000000E-01  2.95000000E-01  2.98000000E-01
  3.00000000E-01  3.03000000E-01  3.06000000E-01  3.09000000E-01  3.12000000E-01
  3.15000000E-01  3.18000000E-01  3.21000000E-01  3.24000000E-01  3.61000000E-01
  3.69000000E-01  3.70000000E-01  3.72000000E-01  3.75000000E-01  3.78000000E-01
  3.85000000E-01  3.94000000E-01  4.07000000E-01  5.26000000E-01  6.21000000E-01
  3.36000000E-01  3.54000000E-01  3.71000000E-01  3.86000000E-01  4.02000000E-01
  4.17000000E-01  2.09000000E-01  2.94000000E-01  2.65000000E-01  2.72000000E-01
  2.78000000E-01  2.84000000E-01  2.91000000E-01  2.97000000E-01  3.03000000E-01
  3.10000000E-01  3.16000000E-01  3.22000000E-01  3.29000000E-01  3.35000000E-01
  3.41000000E-01  3.48000000E-01  3.54000000E-01  3.54000000E-01  3.54000000E-01
  3.54000000E-01  3.54000000E-01  3.54000000E-01  3.54000000E-01  3.54000000E-01
  3.54000000E-01  3.54000000E-01  3.54000000E-01  3.54000000E-01  3.54000000E-01
  3.54000000E-01  3.54000000E-01  3.54000000E-01  3.54000000E-01  3.54000000E-01
  3.54000000E-01  3.54000000E-01  3.54000000E-01  3.54000000E-01  3.54000000E-01
  3.54000000E-01  3.54000000E-01  3.54000000E-01  3.54000000E-01  3.54000000E-01
  3.54000000E-01  3.54000000E-01  3.54000000E-01  3.54000000E-01  3.54000000E-01
  3.54000000E-01  3.54000000E-01  3.54000000E-01  3.54000000E-01  3.54000000E-01
  3.54000000E-01  3.54000000E-01  3.54000000E-01  3.54000000E-01  3.54000000E-01
  3.54000000E-01  3.54000000E-01  3.54000000E-01  3.54000000E-01  3.54000000E-01
  3.54000000E-01  3.54000000E-01  3.54000000E-01  3.54000000E-01  3.54000000E-01
  3.54000000E-01  3.54000000E-01  3.54000000E-01  3.54000000E-01  3.54000000E-01
  3.54000000E-01  3.54000000E-01  3.54000000E-01  3.54000000E-01  3.54000000E-01
  3.54000000E-01  3.54000000E-01  3.54000000E-01  3.54000000E-01  3.54000000E-01
  3.54000000E-01  3.54000000E-01  3.54000000E-01  3.54000000E-01  3.54000000E-01
  3.54000000E-01  3.54000000E-01  3.54000000E-01  3.54000000E-01  3.54000000E-01
  3.54000000E-01  3.54000000E-01  3.54000000E-01  3.54000000E-01  3.54000000E-01
  3.54000000E-01  3.54000000E-01  3.54000000E-01  3.54000000E-01  3.54000000E-01
  3.54000000E-01  3.54000000E-01  3.54000000E-01  3.54000000E-01  3.54000000E-01
  3.54000000E-01  3.54000000E-01  3.54000000E-01  3.54000000E-01  3.54000000E-01
  2.74000000E-01  2.96000000E-01  5.80000000E-02  4.40000000E-02  3.90000000E-02
  3.90000000E-02  3.60000000E-02  3.20000000E-02  2.90000000E-02  3.30000000E-02
  5.50000000E-02  3.90000000E-02  3.30000000E-02  3.00000000E-02  2.80000000E-02
  2.60000000E-02  2.50000000E-02  2.50000000E-02  4.50000000E-02  4.40000000E-02
  3.30000000E-02  2.50000000E-02  2.10000000E-02  1.80000000E-02  1.50000000E-02
  1.80000000E-02  2.10000000E-02  2.50000000E-02  3.30000000E-02  5.00000000E-02
  3.80000000E-02  3.10000000E-02  2.70000000E-02  2.40000000E-02  2.20000000E-02
  2.10000000E-02  4.30000000E-02  4.00000000E-02  3.20000000E-02  2.50000000E-02
  2.10000000E-02  1.80000000E-02  1.60000000E-02  1.90000000E-02  2.20000000E-02
  2.80000000E-02  3.10000000E-02  4.70000000E-02  3.40000000E-02  2.80000000E-02
  2.40000000E-02  2.10000000E-02  1.90000000E-02  1.80000000E-02  3.90000000E-02
  3.60000000E-02  2.50000000E-02  2.50000000E-02  2.50000000E-02  2.60000000E-02
  2.60000000E-02  2.60000000E-02  2.70000000E-02  2.70000000E-02  2.70000000E-02
  2.70000000E-02  2.80000000E-02  2.80000000E-02  2.80000000E-02  3.30000000E-02
  3.30000000E-02  2.60000000E-02  2.10000000E-02  1.80000000E-02  1.60000000E-02
  1.80000000E-02  2.20000000E-02  2.60000000E-02  4.90000000E-02  8.20000000E-02
  3.00000000E-02  2.40000000E-02  2.10000000E-02  1.80000000E-02  1.60000000E-02
  1.50000000E-02  3.50000000E-02  3.60000000E-02  2.20000000E-02  2.30000000E-02
  2.40000000E-02  2.40000000E-02  2.50000000E-02  2.50000000E-02  2.60000000E-02
  2.70000000E-02  2.70000000E-02  2.80000000E-02  2.80000000E-02  2.90000000E-02
  3.00000000E-02  3.00000000E-02  3.10000000E-02  3.10000000E-02  3.10000000E-02
  3.10000000E-02  3.10000000E-02  3.10000000E-02  3.10000000E-02  3.10000000E-02
  3.10000000E-02  3.10000000E-02  3.10000000E-02  3.10000000E-02  3.10000000E-02
  3.10000000E-02  3.10000000E-02  3.10000000E-02  3.10000000E-02  3.10000000E-02
  3.10000000E-02  3.10000000E-02  3.10000000E-02  3.10000000E-02  3.10000000E-02
  3.10000000E-02  3.10000000E-02  3.10000000E-02  3.10000000E-02  3.10000000E-02
  3.10000000E-02  3.10000000E-02  3.10000000E-02  3.10000000E-02  3.10000000E-02
  3.10000000E-02  3.10000000E-02  3.10000000E-02  3.10000000E-02  3.10000000E-02
  3.10000000E-02  3.10000000E-02  3.10000000E-02  3.10000000E-02  3.10000000E-02
  3.10000000E-02  3.10000000E-02  3.10000000E-02  3.10000000E-02  3.10000000E-02
  3.10000000E-02  3.10000000E-02  3.10000000E-02  3.10000000E-02  3.10000000E-02
  3.10000000E-02  3.10000000E-02  3.10000000E-02  3.10000000E-02  3.10000000E-02
  3.10000000E-02  3.10000000E-02  3.10000000E-02  3.10000000E-02  3.10000000E-02
  3.10000000E-02  3.10000000E-02  3.10000000E-02  3.10000000E-02  3.10000000E-02
  3.10000000E-02  3.10000000E-02  3.10000000E-02  3.10000000E-02  3.10000000E-02
  3.10000000E-02  3.10000000E-02  3.10000000E-02  3.10000000E-02  3.10000000E-02
  3.10000000E-02  3.10000000E-02  3.10000000E-02  3.10000000E-02  3.10000000E-02
  3.10000000E-02  3.10000000E-02  3.10000000E-02  3.10000000E-02  3.10000000E-02
  3.10000000E-02  3.10000000E-02  3.10000000E-02  3.10000000E-02  3.10000000E-02
  3.10000000E-02  3.10000000E-02  3.10000000E-02  3.10000000E-02  3.10000000E-02
 -5.92770000E-01 -9.17860000E-01 -2.48668000E+00 -8.36430000E-01 -3.18470000E-01
 -4.55790000E-01 -5.70730000E-01 -6.77940000E-01 -7.69860000E-01 -8.51140000E-01
 -1.51908000E+00 -3.18830000E-01 -2.17900000E-01 -3.01260000E-01 -3.72750000E-01
 -4.15890000E-01 -4.45930000E-01 -5.91320000E-01 -9.56370000E-01 -2.88450000E-01
 -4.87320000E-01 -6.34280000E-01 -7.17490000E-01 -7.91980000E-01 -8.68490000E-01
 -9.17520000E-01 -9.54890000E-01 -9.88460000E-01 -1.50055000E+00 -2.92560000E-01
 -2.14960000E-01 -2.91180000E-01 -3.42080000E-01 -3.84480000E-01 -4.34940000E-01
 -5.24310000E-01 -8.10070000E-01 -2.58460000E-01 -4.35550000E-01 -5.32740000E-01
 -6.08450000E-01 -6.10260000E-01 -7.58920000E-01 -8.90130000E-01 -8.45780000E-01
 -8.69340000E-01 -1.38234000E+00 -2.64850000E-01 -1.97280000E-01 -2.65040000E-01
 -2.94470000E-01 -3.16570000E-01 -3.63590000E-01 -4.57840000E-01 -8.61830000E-01
 -1.33004000E+00 -6.82880000E-01 -6.25540000E-01 -6.35430000E-01 -8.79690000E-01
 -9.02690000E-01 -9.59650000E-01 -1.01869000E+00 -6.81170000E-01 -7.96500000E-01
 -9.04950000E-01 -8.34790000E-01 -9.01560000E-01 -9.74130000E-01 -1.03326000E+00
 -7.15490000E-01 -7.83960000E-01 -8.28380000E-01 -5.61040000E-01 -1.03841000E+00
 -8.62500000E-01 -9.59300000E-01 -1.01755000E+00 -7.64900000E-01 -1.29467000E+00
 -1.92740000E-01 -2.56010000E-01 -3.19820000E-01 -1.94660000E-01 -2.60090000E-01
 -4.27990000E-01  0.00000000E+00  0.00000000E+00  0.00000000E+00  0.00000000E+00
  0.00000000E+00  0.00000000E+00  0.00000000E+00  0.00000000E+00  0.00000000E+00
  0.00000000E+00  0.00000000E+00  0.00000000E+00  0.00000000E+00  0.00000000E+00
  0.00000000E+00  0.00000000E+00  0.00000000E+00  0.00000000E+00  0.00000000E+00
  0.00000000E+00  0.00000000E+00  0.00000000E+00  0.00000000E+00  0.00000000E+00
  0.00000000E+00  0.00000000E+00  0.00000000E+00  0.00000000E+00  0.00000000E+00
  0.00000000E+00  0.00000000E+00  0.00000000E+00  0.00000000E+00  0.00000000E+00
  0.00000000E+00  0.00000000E+00  0.00000000E+00  0.00000000E+00  0.00000000E+00
  0.00000000E+00  0.00000000E+00  0.00000000E+00  0.00000000E+00  0.00000000E+00
  0.00000000E+00  0.00000000E+00  0.00000000E+00  0.00000000E+00  0.00000000E+00
  0.00000000E+00  0.00000000E+00  0.00000000E+00  0.00000000E+00  0.00000000E+00
  0.00000000E+00  0.00000000E+00  0.00000000E+00  0.00000000E+00  0.00000000E+00
  0.00000000E+00  0.00000000E+00  0.00000000E+00  0.00000000E+00  0.00000000E+00
  0.00000000E+00  0.00000000E+00  0.00000000E+00  0.00000000E+00  0.00000000E+00
  0.00000000E+00  0.00000000E+00  0.00000000E+00  0.00000000E+00  0.00000000E+00
  0.00000000E+00  0.00000000E+00  0.00000000E+00  0.00000000E+00  0.00000000E+00
  0.00000000E+00  0.00000000E+00  0.00000000E+00  0.00000000E+00  0.00000000E+00
  0.00000000E+00  0.00000000E+00  0.00000000E+00  0.00000000E+00  0.00000000E+00
  0.00000000E+00  0.00000000E+00  0.00000000E+00  0.00000000E+00  0.00000000E+00
  0.00000000E+00  0.00000000E+00  0.00000000E+00  0.00000000E+00  0.00000000E+00
  0.00000000E+00  0.00000000E+00  0.00000000E+00  0.00000000E+00  0.00000000E+00
  0.00000000E+00  0.00000000E+00  0.00000000E+00  0.00000000E+00  0.00000000E+00
  0.00000000E+00  0.00000000E+00  0.00000000E+00  0.00000000E+00  0.00000000E+00
  1.90440000E+00  1.36430000E+00  4.84000000E-01  7.31600000E+00  9.24030000E+00
  8.78200000E+00  5.61290000E+00  4.83340000E+00  3.24870000E+00  2.71090000E+00
  2.01130000E+00  1.50282000E+01  1.46788000E+01  2.13546000E+01  2.38290000E+01
  1.98022000E+01  1.50468000E+01  1.09745000E+01  1.27219000E+01  1.51949000E+01
  1.57342000E+01  2.79222000E+01  1.61366000E+01  2.21252000E+01  2.45676000E+01
  1.96016000E+01  1.79818000E+01  1.72396000E+01  5.01500000E+00  1.92898000E+01
  2.34477000E+01  2.23993000E+01  2.96586000E+01  2.60081000E+01  2.15580000E+01
  1.69594000E+01  1.56479000E+01  1.86897000E+01  1.93530000E+01  3.43444000E+01
  1.98480000E+01  2.72140000E+01  3.02182000E+01  2.41099000E+01  2.21176000E+01
  2.12047000E+01  7.56690000E+00  2.37264000E+01  2.93879000E+01  3.01278000E+01
  4.19382000E+01  3.85203000E+01  3.39511000E+01  2.75774000E+01  1.56460000E+01
  1.04460000E+01  2.01830000E+01  4.99540000E+01  4.76430000E+01  1.18690000E+01
  1.08670000E+01  9.96100000E+00  9.18700000E+00  3.67980000E+01  1.34070000E+01
  9.38200000E+00  9.81700000E+00  8.90800000E+00  8.40700000E+00  8.05800000E+00
  1.29600000E+01  2.67920000E+01  2.49300000E+01  3.45630000E+01  1.11860000E+01
  1.09440000E+01  1.01270000E+01  9.40400000E+00  1.36660000E+01  7.81000000E+00
  6.93600000E+01  5.86630000E+01  4.79690000E+01  4.52740000E+01  3.92290000E+01
  3.30660000E+01  0.00000000E+00  0.00000000E+00  0.00000000E+00  0.00000000E+00
  0.00000000E+00  0.00000000E+00  0.00000000E+00  0.00000000E+00  0.00000000E+00
  0.00000000E+00  0.00000000E+00  0.00000000E+00  0.00000000E+00  0.00000000E+00
  0.00000000E+00  0.00000000E+00  0.00000000E+00  0.00000000E+00  0.00000000E+00
  0.00000000E+00  0.00000000E+00  0.00000000E+00  0.00000000E+00  0.00000000E+00
  0.00000000E+00  0.00000000E+00  0.00000000E+00  0.00000000E+00  0.00000000E+00
  0.00000000E+00  0.00000000E+00  0.00000000E+00  0.00000000E+00  0.00000000E+00
  0.00000000E+00  0.00000000E+00  0.00000000E+00  0.00000000E+00  0.00000000E+00
  0.00000000E+00  0.00000000E+00  0.00000000E+00  0.00000000E+00  0.00000000E+00
  0.00000000E+00  0.00000000E+00  0.00000000E+00  0.00000000E+00  0.00000000E+00
  0.00000000E+00  0.00000000E+00  0.00000000E+00  0.00000000E+00  0.00000000E+00
  0.00000000E+00  0.00000000E+00  0.00000000E+00  0.00000000E+00  0.00000000E+00
  0.00000000E+00  0.00000000E+00  0.00000000E+00  0.00000000E+00  0.00000000E+00
  0.00000000E+00  0.00000000E+00  0.00000000E+00  0.00000000E+00  0.00000000E+00
  0.00000000E+00  0.00000000E+00  0.00000000E+00  0.00000000E+00  0.00000000E+00
  0.00000000E+00  0.00000000E+00  0.00000000E+00  0.00000000E+00  0.00000000E+00
  0.00000000E+00  0.00000000E+00  0.00000000E+00  0.00000000E+00  0.00000000E+00
  0.00000000E+00  0.00000000E+00  0.00000000E+00  0.00000000E+00  0.00000000E+00
  0.00000000E+00  0.00000000E+00  0.00000000E+00  0.00000000E+00  0.00000000E+00
  0.00000000E+00  0.00000000E+00  0.00000000E+00  0.00000000E+00  0.00000000E+00
  0.00000000E+00  0.00000000E+00  0.00000000E+00  0.00000000E+00  0.00000000E+00
  0.00000000E+00  0.00000000E+00  0.00000000E+00  0.00000000E+00  0.00000000E+00
  0.00000000E+00  0.00000000E+00  0.00000000E+00  0.00000000E+00  0.00000000E+00
  0.00000000E+00  0.00000000E+00  0.00000000E+00  0.00000000E+00  0.00000000E+00
  0.00000000E+00  0.00000000E+00  0.00000000E+00  0.00000000E+00  0.00000000E+00
  0.00000000E+00  0.00000000E+00  0.00000000E+00  0.00000000E+00  0.00000000E+00
  0.00000000E+00  0.00000000E+00  0.00000000E+00  0.00000000E+00  0.00000000E+00
  0.00000000E+00  0.00000000E+00  0.00000000E+00  0.00000000E+00  0.00000000E+00
  0.00000000E+00  0.00000000E+00  0.00000000E+00  0.00000000E+00  0.00000000E+00
  0.00000000E+00  0.00000000E+00  0.00000000E+00  0.00000000E+00  0.00000000E+00
  0.00000000E+00  0.00000000E+00  0.00000000E+00  0.00000000E+00  0.00000000E+00
  0.00000000E+00  0.00000000E+00  0.00000000E+00  0.00000000E+00  0.00000000E+00
  0.00000000E+00  0.00000000E+00  0.00000000E+00  0.00000000E+00  0.00000000E+00
  0.00000000E+00  0.00000000E+00  0.00000000E+00  0.00000000E+00  0.00000000E+00
  0.00000000E+00  0.00000000E+00  0.00000000E+00  0.00000000E+00  0.00000000E+00
  0.00000000E+00  0.00000000E+00  0.00000000E+00  0.00000000E+00  0.00000000E+00
  0.00000000E+00  0.00000000E+00  0.00000000E+00  0.00000000E+00  0.00000000E+00
  0.00000000E+00  0.00000000E+00  0.00000000E+00  0.00000000E+00  0.00000000E+00
  0.00000000E+00  0.00000000E+00  0.00000000E+00  0.00000000E+00  0.00000000E+00
  0.00000000E+00  0.00000000E+00  0.00000000E+00  0.00000000E+00  0.00000000E+00
  0.00000000E+00  0.00000000E+00  0.00000000E+00  0.00000000E+00  0.00000000E+00
  0.00000000E+00  0.00000000E+00  0.00000000E+00  0.00000000E+00  0.00000000E+00
  0.00000000E+00  0.00000000E+00  0.00000000E+00  0.00000000E+00  0.00000000E+00
  0.00000000E+00  0.00000000E+00  0.00000000E+00  0.00000000E+00  0.00000000E+00
  0.00000000E+00  0.00000000E+00  0.00000000E+00  0.00000000E+00  0.00000000E+00
  0.00000000E+00  0.00000000E+00  0.00000000E+00  0.00000000E+00  0.00000000E+00
  0.00000000E+00  0.00000000E+00  0.00000000E+00  0.00000000E+00  0.00000000E+00
  0.00000000E+00  0.00000000E+00  0.00000000E+00  0.00000000E+00  0.00000000E+00
  0.00000000E+00  0.00000000E+00  0.00000000E+00  0.00000000E+00  0.00000000E+00
  0.00000000E+00  0.00000000E+00  0.00000000E+00  0.00000000E+00  0.00000000E+00
  0.00000000E+00  0.00000000E+00  0.00000000E+00  0.00000000E+00  0.00000000E+00
  0.00000000E+00  0.00000000E+00  0.00000000E+00  0.00000000E+00  0.00000000E+00
  0.00000000E+00  0.00000000E+00  0.00000000E+00  0.00000000E+00  0.00000000E+00
  0.00000000E+00  0.00000000E+00  0.00000000E+00  0.00000000E+00  0.00000000E+00
  0.00000000E+00  0.00000000E+00  0.00000000E+00  0.00000000E+00  0.00000000E+00
  0.00000000E+00  0.00000000E+00  0.00000000E+00  0.00000000E+00  0.00000000E+00
  0.00000000E+00  0.00000000E+00  0.00000000E+00  0.00000000E+00  0.00000000E+00
  0.00000000E+00  0.00000000E+00  0.00000000E+00  0.00000000E+00  0.00000000E+00
  0.00000000E+00  0.00000000E+00  0.00000000E+00  0.00000000E+00  0.00000000E+00
  0.00000000E+00  0.00000000E+00  0.00000000E+00  0.00000000E+00  0.00000000E+00
  0.00000000E+00  0.00000000E+00  0.00000000E+00  0.00000000E+00  0.00000000E+00
  0.00000000E+00  0.00000000E+00  0.00000000E+00  0.00000000E+00  0.00000000E+00
  0.00000000E+00  0.00000000E+00  0.00000000E+00  0.00000000E+00  0.00000000E+00
  0.00000000E+00  0.00000000E+00  0.00000000E+00  0.00000000E+00  0.00000000E+00
  0.00000000E+00  0.00000000E+00  0.00000000E+00  0.00000000E+00  0.00000000E+00
  0.00000000E+00  0.00000000E+00  0.00000000E+00  0.00000000E+00  0.00000000E+00
  0.00000000E+00  0.00000000E+00  0.00000000E+00  0.00000000E+00  0.00000000E+00
  0.00000000E+00  0.00000000E+00  0.00000000E+00  0.00000000E+00  0.00000000E+00
  0.00000000E+00  0.00000000E+00  0.00000000E+00  0.00000000E+00  0.00000000E+00
  0.00000000E+00  0.00000000E+00  0.00000000E+00  0.00000000E+00  0.00000000E+00
  0.00000000E+00  0.00000000E+00  0.00000000E+00  0.00000000E+00  0.00000000E+00
  0.00000000E+00  0.00000000E+00  0.00000000E+00  0.00000000E+00  0.00000000E+00
  0.00000000E+00  0.00000000E+00  0.00000000E+00  0.00000000E+00  0.00000000E+00
  0.00000000E+00  0.00000000E+00  0.00000000E+00  0.00000000E+00  0.00000000E+00
  0.00000000E+00  0.00000000E+00  0.00000000E+00  0.00000000E+00  0.00000000E+00
  0.00000000E+00  0.00000000E+00  0.00000000E+00  0.00000000E+00  0.00000000E+00
  0.00000000E+00  0.00000000E+00  0.00000000E+00  0.00000000E+00  0.00000000E+00
  0.00000000E+00  0.00000000E+00  0.00000000E+00  0.00000000E+00  0.00000000E+00
  0.00000000E+00  0.00000000E+00  0.00000000E+00  0.00000000E+00  0.00000000E+00
  0.00000000E+00  0.00000000E+00  0.00000000E+00  0.00000000E+00  0.00000000E+00
  0.00000000E+00  0.00000000E+00  0.00000000E+00  0.00000000E+00  0.00000000E+00
  0.00000000E+00  0.00000000E+00  0.00000000E+00  0.00000000E+00  0.00000000E+00
  0.00000000E+00  0.00000000E+00  0.00000000E+00  0.00000000E+00  0.00000000E+00
  0.00000000E+00  0.00000000E+00  0.00000000E+00  0.00000000E+00  0.00000000E+00
  0.00000000E+00  0.00000000E+00  0.00000000E+00  0.00000000E+00  0.00000000E+00
  0.00000000E+00  0.00000000E+00  0.00000000E+00  0.00000000E+00  0.00000000E+00
  0.00000000E+00  0.00000000E+00  0.00000000E+00  0.00000000E+00  0.00000000E+00
  0.00000000E+00  0.00000000E+00  0.00000000E+00  0.00000000E+00  0.00000000E+00
  0.00000000E+00  0.00000000E+00  0.00000000E+00  0.00000000E+00  0.00000000E+00
  0.00000000E+00  0.00000000E+00  0.00000000E+00  0.00000000E+00  0.00000000E+00
  0.00000000E+00  0.00000000E+00  0.00000000E+00  0.00000000E+00  0.00000000E+00
  0.00000000E+00  0.00000000E+00  0.00000000E+00  0.00000000E+00  0.00000000E+00
  0.00000000E+00  0.00000000E+00  0.00000000E+00  0.00000000E+00  0.00000000E+00
  0.00000000E+00  0.00000000E+00  0.00000000E+00  0.00000000E+00  0.00000000E+00
  0.00000000E+00  0.00000000E+00  0.00000000E+00  0.00000000E+00  0.00000000E+00
  0.00000000E+00  0.00000000E+00  0.00000000E+00  0.00000000E+00  0.00000000E+00
  0.00000000E+00  0.00000000E+00  0.00000000E+00  0.00000000E+00  0.00000000E+00
  0.00000000E+00  0.00000000E+00  0.00000000E+00  0.00000000E+00  0.00000000E+00
  0.00000000E+00  0.00000000E+00  0.00000000E+00  0.00000000E+00  0.00000000E+00
  0.00000000E+00  0.00000000E+00  0.00000000E+00  0.00000000E+00  0.00000000E+00
  0.00000000E+00  0.00000000E+00  0.00000000E+00  0.00000000E+00  0.00000000E+00
  0.00000000E+00  0.00000000E+00  0.00000000E+00  0.00000000E+00  0.00000000E+00
  0.00000000E+00  0.00000000E+00  0.00000000E+00  0.00000000E+00  0.00000000E+00
  0.00000000E+00  0.00000000E+00  0.00000000E+00  0.00000000E+00  0.00000000E+00
  0.00000000E+00  0.00000000E+00  0.00000000E+00  0.00000000E+00  0.00000000E+00
  0.00000000E+00  0.00000000E+00  0.00000000E+00  0.00000000E+00  0.00000000E+00
  0.00000000E+00  0.00000000E+00  0.00000000E+00  0.00000000E+00  0.00000000E+00
  0.00000000E+00  0.00000000E+00  0.00000000E+00  0.00000000E+00  0.00000000E+00
  0.00000000E+00  0.00000000E+00  0.00000000E+00  0.00000000E+00  0.00000000E+00
  0.00000000E+00  0.00000000E+00  0.00000000E+00  0.00000000E+00  0.00000000E+00
  0.00000000E+00  0.00000000E+00  0.00000000E+00  0.00000000E+00  0.00000000E+00
  0.00000000E+00  0.00000000E+00  0.00000000E+00  0.00000000E+00  0.00000000E+00
  0.00000000E+00  0.00000000E+00  0.00000000E+00  0.00000000E+00  0.00000000E+00
  0.00000000E+00  0.00000000E+00  0.00000000E+00  0.00000000E+00  0.00000000E+00
  0.00000000E+00  0.00000000E+00  0.00000000E+00  0.00000000E+00  0.00000000E+00
  0.00000000E+00  0.00000000E+00  0.00000000E+00  0.00000000E+00  0.00000000E+00
  0.00000000E+00  0.00000000E+00  0.00000000E+00  0.00000000E+00  0.00000000E+00
  0.00000000E+00  0.00000000E+00  0.00000000E+00  0.00000000E+00  0.00000000E+00
  0.00000000E+00  0.00000000E+00  0.00000000E+00  0.00000000E+00  0.00000000E+00
  0.00000000E+00  0.00000000E+00  0.00000000E+00  0.00000000E+00  0.00000000E+00
  0.00000000E+00  0.00000000E+00  0.00000000E+00  0.00000000E+00  0.00000000E+00
  0.00000000E+00  0.00000000E+00  0.00000000E+00  0.00000000E+00  0.00000000E+00
  0.00000000E+00  0.00000000E+00  0.00000000E+00  0.00000000E+00  0.00000000E+00
  0.00000000E+00  0.00000000E+00  0.00000000E+00  0.00000000E+00  0.00000000E+00
  0.00000000E+00  0.00000000E+00  0.00000000E+00  0.00000000E+00  0.00000000E+00
  0.00000000E+00  0.00000000E+00  0.00000000E+00  0.00000000E+00  0.00000000E+00
  0.00000000E+00  0.00000000E+00  0.00000000E+00  0.00000000E+00  0.00000000E+00
  0.00000000E+00  0.00000000E+00  0.00000000E+00  0.00000000E+00  0.00000000E+00
  0.00000000E+00  0.00000000E+00  0.00000000E+00  0.00000000E+00  0.00000000E+00
  0.00000000E+00  0.00000000E+00  0.00000000E+00  0.00000000E+00  0.00000000E+00
  0.00000000E+00  0.00000000E+00  0.00000000E+00  0.00000000E+00  0.00000000E+00
  0.00000000E+00  0.00000000E+00  0.00000000E+00  0.00000000E+00  0.00000000E+00
  0.00000000E+00  0.00000000E+00  0.00000000E+00  0.00000000E+00  0.00000000E+00
  0.00000000E+00  0.00000000E+00  0.00000000E+00  0.00000000E+00  0.00000000E+00
  0.00000000E+00  0.00000000E+00  0.00000000E+00  0.00000000E+00  0.00000000E+00
  0.00000000E+00  0.00000000E+00  0.00000000E+00  0.00000000E+00  0.00000000E+00
  0.00000000E+00  0.00000000E+00  0.00000000E+00  0.00000000E+00  0.00000000E+00
  0.00000000E+00  0.00000000E+00  0.00000000E+00  0.00000000E+00  0.00000000E+00
  0.00000000E+00  0.00000000E+00  0.00000000E+00  0.00000000E+00  0.00000000E+00
  0.00000000E+00  0.00000000E+00  0.00000000E+00  0.00000000E+00  0.00000000E+00
  0.00000000E+00  0.00000000E+00  0.00000000E+00  0.00000000E+00  0.00000000E+00
  0.00000000E+00  0.00000000E+00  0.00000000E+00  0.00000000E+00  0.00000000E+00
  0.00000000E+00  0.00000000E+00  0.00000000E+00  0.00000000E+00  0.00000000E+00
  0.00000000E+00  0.00000000E+00  0.00000000E+00  0.00000000E+00  0.00000000E+00
  0.00000000E+00  0.00000000E+00  0.00000000E+00  0.00000000E+00  0.00000000E+00
  0.00000000E+00  0.00000000E+00  0.00000000E+00  0.00000000E+00  0.00000000E+00
  0.00000000E+00  0.00000000E+00  0.00000000E+00  0.00000000E+00  0.00000000E+00
  0.00000000E+00  0.00000000E+00  0.00000000E+00  0.00000000E+00  0.00000000E+00
  0.00000000E+00  0.00000000E+00  0.00000000E+00  0.00000000E+00  0.00000000E+00
  0.00000000E+00  0.00000000E+00  0.00000000E+00  0.00000000E+00  0.00000000E+00
  0.00000000E+00  0.00000000E+00  0.00000000E+00  0.00000000E+00  0.00000000E+00
  0.00000000E+00  0.00000000E+00  0.00000000E+00  0.00000000E+00  0.00000000E+00
  0.00000000E+00  0.00000000E+00  0.00000000E+00  0.00000000E+00  0.00000000E+00
  0.00000000E+00  0.00000000E+00  0.00000000E+00  0.00000000E+00  0.00000000E+00
  0.00000000E+00  0.00000000E+00  0.00000000E+00  0.00000000E+00  0.00000000E+00
  0.00000000E+00  0.00000000E+00  0.00000000E+00  0.00000000E+00  0.00000000E+00
  0.00000000E+00  0.00000000E+00  0.00000000E+00  0.00000000E+00  0.00000000E+00
  0.00000000E+00  0.00000000E+00  0.00000000E+00  0.00000000E+00  0.00000000E+00
  0.00000000E+00  0.00000000E+00  0.00000000E+00  0.00000000E+00  0.00000000E+00
  0.00000000E+00  0.00000000E+00  0.00000000E+00  0.00000000E+00  0.00000000E+00
  0.00000000E+00  0.00000000E+00  0.00000000E+00  0.00000000E+00  0.00000000E+00
  0.00000000E+00  0.00000000E+00  0.00000000E+00  0.00000000E+00  0.00000000E+00
  0.00000000E+00  0.00000000E+00  0.00000000E+00  0.00000000E+00  0.00000000E+00
  0.00000000E+00  0.00000000E+00  0.00000000E+00  0.00000000E+00  0.00000000E+00
  0.00000000E+00  0.00000000E+00  0.00000000E+00  0.00000000E+00  0.00000000E+00
  0.00000000E+00  0.00000000E+00  0.00000000E+00  0.00000000E+00  0.00000000E+00
  0.00000000E+00  0.00000000E+00  0.00000000E+00  0.00000000E+00  0.00000000E+00
  0.00000000E+00  0.00000000E+00  0.00000000E+00  0.00000000E+00  0.00000000E+00
  0.00000000E+00  0.00000000E+00  0.00000000E+00  0.00000000E+00  0.00000000E+00
  0.00000000E+00  0.00000000E+00  0.00000000E+00  0.00000000E+00  0.00000000E+00
  0.00000000E+00  0.00000000E+00  0.00000000E+00  0.00000000E+00  0.00000000E+00
  0.00000000E+00  0.00000000E+00  0.00000000E+00  0.00000000E+00  0.00000000E+00
  0.00000000E+00  0.00000000E+00  0.00000000E+00  0.00000000E+00  0.00000000E+00
  0.00000000E+00  0.00000000E+00  0.00000000E+00  0.00000000E+00  0.00000000E+00
  0.00000000E+00  0.00000000E+00  0.00000000E+00  0.00000000E+00  0.00000000E+00
  0.00000000E+00  0.00000000E+00  0.00000000E+00  0.00000000E+00  0.00000000E+00
  0.00000000E+00  0.00000000E+00  0.00000000E+00  0.00000000E+00  0.00000000E+00
  0.00000000E+00  0.00000000E+00  0.00000000E+00  0.00000000E+00  0.00000000E+00
  0.00000000E+00  0.00000000E+00  0.00000000E+00  0.00000000E+00  0.00000000E+00
  0.00000000E+00  0.00000000E+00  0.00000000E+00  0.00000000E+00  0.00000000E+00
  0.00000000E+00  0.00000000E+00  0.00000000E+00  0.00000000E+00  0.00000000E+00
  0.00000000E+00  0.00000000E+00  0.00000000E+00  0.00000000E+00  0.00000000E+00
  0.00000000E+00  0.00000000E+00  0.00000000E+00  0.00000000E+00  0.00000000E+00
  0.00000000E+00  0.00000000E+00  0.00000000E+00  0.00000000E+00  0.00000000E+00
  0.00000000E+00  0.00000000E+00  0.00000000E+00  0.00000000E+00  0.00000000E+00
  0.00000000E+00  0.00000000E+00  0.00000000E+00  0.00000000E+00  0.00000000E+00
  0.00000000E+00  0.00000000E+00  0.00000000E+00  0.00000000E+00  0.00000000E+00
  0.00000000E+00  0.00000000E+00  0.00000000E+00  0.00000000E+00  0.00000000E+00
  0.00000000E+00  0.00000000E+00  0.00000000E+00  0.00000000E+00  0.00000000E+00
  0.00000000E+00  0.00000000E+00  0.00000000E+00  0.00000000E+00  0.00000000E+00
  0.00000000E+00  0.00000000E+00  0.00000000E+00  0.00000000E+00  0.00000000E+00
  0.00000000E+00  0.00000000E+00  0.00000000E+00  0.00000000E+00  0.00000000E+00
  0.00000000E+00  0.00000000E+00  0.00000000E+00  0.00000000E+00  0.00000000E+00
  0.00000000E+00  0.00000000E+00  0.00000000E+00  0.00000000E+00  0.00000000E+00
  0.00000000E+00  0.00000000E+00  0.00000000E+00  0.00000000E+00  0.00000000E+00
  0.00000000E+00  0.00000000E+00  0.00000000E+00  0.00000000E+00  0.00000000E+00
  0.00000000E+00  0.00000000E+00  0.00000000E+00  0.00000000E+00  0.00000000E+00
  0.00000000E+00  0.00000000E+00  0.00000000E+00  0.00000000E+00  0.00000000E+00
  0.00000000E+00  0.00000000E+00  0.00000000E+00  0.00000000E+00  0.00000000E+00
  0.00000000E+00  0.00000000E+00  0.00000000E+00  0.00000000E+00  0.00000000E+00
  0.00000000E+00  0.00000000E+00  0.00000000E+00  0.00000000E+00  0.00000000E+00
  0.00000000E+00  0.00000000E+00  0.00000000E+00  0.00000000E+00  0.00000000E+00
  0.00000000E+00  0.00000000E+00  0.00000000E+00  0.00000000E+00  0.00000000E+00
  0.00000000E+00  0.00000000E+00  0.00000000E+00  0.00000000E+00  0.00000000E+00
  0.00000000E+00  0.00000000E+00  0.00000000E+00  0.00000000E+00  0.00000000E+00
  0.00000000E+00  0.00000000E+00  0.00000000E+00  0.00000000E+00  0.00000000E+00
  0.00000000E+00  0.00000000E+00  0.00000000E+00  0.00000000E+00  0.00000000E+00
  0.00000000E+00  0.00000000E+00  0.00000000E+00  0.00000000E+00  0.00000000E+00
  0.00000000E+00  0.00000000E+00  0.00000000E+00  0.00000000E+00  0.00000000E+00
  0.00000000E+00  0.00000000E+00  0.00000000E+00  0.00000000E+00  0.00000000E+00
  0.00000000E+00  0.00000000E+00  0.00000000E+00  0.00000000E+00  0.00000000E+00
  0.00000000E+00  0.00000000E+00  0.00000000E+00  0.00000000E+00  0.00000000E+00
  0.00000000E+00  0.00000000E+00  0.00000000E+00  0.00000000E+00  0.00000000E+00
  0.00000000E+00  0.00000000E+00  0.00000000E+00  0.00000000E+00  0.00000000E+00
  0.00000000E+00  0.00000000E+00  0.00000000E+00  0.00000000E+00  0.00000000E+00
  0.00000000E+00  0.00000000E+00  0.00000000E+00  0.00000000E+00  0.00000000E+00
  0.00000000E+00  0.00000000E+00  0.00000000E+00  0.00000000E+00  0.00000000E+00
  0.00000000E+00  0.00000000E+00  0.00000000E+00  0.00000000E+00  0.00000000E+00
  0.00000000E+00  0.00000000E+00  0.00000000E+00  0.00000000E+00  0.00000000E+00
  0.00000000E+00  0.00000000E+00  0.00000000E+00  0.00000000E+00  0.00000000E+00
  0.00000000E+00  0.00000000E+00  0.00000000E+00  0.00000000E+00  0.00000000E+00
  0.00000000E+00  0.00000000E+00  0.00000000E+00  0.00000000E+00  0.00000000E+00
  0.00000000E+00  0.00000000E+00  0.00000000E+00  0.00000000E+00  0.00000000E+00
  0.00000000E+00  0.00000000E+00  0.00000000E+00  0.00000000E+00  0.00000000E+00
  0.00000000E+00  0.00000000E+00  0.00000000E+00  0.00000000E+00  0.00000000E+00
  0.00000000E+00  0.00000000E+00  0.00000000E+00  0.00000000E+00  0.00000000E+00
  0.00000000E+00  0.00000000E+00  0.00000000E+00  0.00000000E+00  0.00000000E+00
  0.00000000E+00  0.00000000E+00  0.00000000E+00  0.00000000E+00  0.00000000E+00
  0.00000000E+00  0.00000000E+00  0.00000000E+00  0.00000000E+00  0.00000000E+00
  0.00000000E+00  0.00000000E+00  0.00000000E+00  0.00000000E+00  0.00000000E+00
  0.00000000E+00  0.00000000E+00  0.00000000E+00  0.00000000E+00  0.00000000E+00
  0.00000000E+00  0.00000000E+00  0.00000000E+00  0.00000000E+00  0.00000000E+00
  0.00000000E+00  0.00000000E+00  0.00000000E+00  0.00000000E+00  0.00000000E+00
  0.00000000E+00  0.00000000E+00  0.00000000E+00  0.00000000E+00  0.00000000E+00
  0.00000000E+00  0.00000000E+00  0.00000000E+00  0.00000000E+00  0.00000000E+00
  0.00000000E+00  0.00000000E+00  0.00000000E+00  0.00000000E+00  0.00000000E+00
  0.00000000E+00  0.00000000E+00  0.00000000E+00  0.00000000E+00  0.00000000E+00
  0.00000000E+00  0.00000000E+00  0.00000000E+00  0.00000000E+00  0.00000000E+00
  0.00000000E+00  0.00000000E+00  0.00000000E+00  0.00000000E+00  0.00000000E+00
  0.00000000E+00  0.00000000E+00  0.00000000E+00  0.00000000E+00  0.00000000E+00
  0.00000000E+00  0.00000000E+00  0.00000000E+00  0.00000000E+00  0.00000000E+00
  0.00000000E+00  0.00000000E+00  0.00000000E+00  0.00000000E+00  0.00000000E+00
  0.00000000E+00  0.00000000E+00  0.00000000E+00  0.00000000E+00  0.00000000E+00
  0.00000000E+00  0.00000000E+00  0.00000000E+00  0.00000000E+00  0.00000000E+00
  0.00000000E+00  0.00000000E+00  0.00000000E+00  0.00000000E+00  0.00000000E+00
  0.00000000E+00  0.00000000E+00  0.00000000E+00  0.00000000E+00  0.00000000E+00
  0.00000000E+00  0.00000000E+00  0.00000000E+00  0.00000000E+00  0.00000000E+00
  0.00000000E+00  0.00000000E+00  0.00000000E+00  0.00000000E+00  0.00000000E+00
  0.00000000E+00  0.00000000E+00  0.00000000E+00  0.00000000E+00  0.00000000E+00
  0.00000000E+00  0.00000000E+00  0.00000000E+00  0.00000000E+00  0.00000000E+00
  0.00000000E+00  0.00000000E+00  0.00000000E+00  0.00000000E+00  0.00000000E+00
  0.00000000E+00  0.00000000E+00  0.00000000E+00  0.00000000E+00  0.00000000E+00
  0.00000000E+00  0.00000000E+00  0.00000000E+00  0.00000000E+00  0.00000000E+00
  0.00000000E+00  0.00000000E+00  0.00000000E+00  0.00000000E+00  0.00000000E+00
  0.00000000E+00  0.00000000E+00  0.00000000E+00  0.00000000E+00  0.00000000E+00
  0.00000000E+00  0.00000000E+00  0.00000000E+00  0.00000000E+00  0.00000000E+00
  0.00000000E+00  0.00000000E+00  0.00000000E+00  0.00000000E+00  0.00000000E+00
  0.00000000E+00  0.00000000E+00  0.00000000E+00  0.00000000E+00  0.00000000E+00
  0.00000000E+00  0.00000000E+00  0.00000000E+00  0.00000000E+00  0.00000000E+00
  0.00000000E+00  0.00000000E+00  0.00000000E+00  0.00000000E+00  0.00000000E+00
  0.00000000E+00  0.00000000E+00  0.00000000E+00  0.00000000E+00  0.00000000E+00
  0.00000000E+00  0.00000000E+00  0.00000000E+00  0.00000000E+00  0.00000000E+00
  0.00000000E+00  0.00000000E+00  0.00000000E+00  0.00000000E+00  0.00000000E+00
  0.00000000E+00  0.00000000E+00  0.00000000E+00  0.00000000E+00  0.00000000E+00
  0.00000000E+00  0.00000000E+00  0.00000000E+00  0.00000000E+00  0.00000000E+00
  0.00000000E+00  0.00000000E+00  0.00000000E+00  0.00000000E+00  0.00000000E+00
  0.00000000E+00  0.00000000E+00  0.00000000E+00  0.00000000E+00  0.00000000E+00
  0.00000000E+00  0.00000000E+00  0.00000000E+00  0.00000000E+00  0.00000000E+00
  0.00000000E+00  0.00000000E+00  0.00000000E+00  0.00000000E+00  0.00000000E+00
  0.00000000E+00  0.00000000E+00  0.00000000E+00  0.00000000E+00  0.00000000E+00
  0.00000000E+00  0.00000000E+00  0.00000000E+00  0.00000000E+00  0.00000000E+00
  0.00000000E+00  0.00000000E+00  0.00000000E+00  0.00000000E+00  0.00000000E+00
  0.00000000E+00  0.00000000E+00  0.00000000E+00  0.00000000E+00  0.00000000E+00
  0.00000000E+00  0.00000000E+00  0.00000000E+00  0.00000000E+00  0.00000000E+00
  0.00000000E+00  0.00000000E+00  0.00000000E+00  0.00000000E+00  0.00000000E+00
  0.00000000E+00  0.00000000E+00  0.00000000E+00  0.00000000E+00  0.00000000E+00
  0.00000000E+00  0.00000000E+00  0.00000000E+00  0.00000000E+00  0.00000000E+00
  0.00000000E+00  0.00000000E+00  0.00000000E+00  0.00000000E+00  0.00000000E+00
  0.00000000E+00  0.00000000E+00  0.00000000E+00  0.00000000E+00  0.00000000E+00
  0.00000000E+00  0.00000000E+00  0.00000000E+00  0.00000000E+00  0.00000000E+00
  0.00000000E+00  0.00000000E+00  0.00000000E+00  0.00000000E+00  0.00000000E+00
  0.00000000E+00  0.00000000E+00  0.00000000E+00  0.00000000E+00  0.00000000E+00
  0.00000000E+00  0.00000000E+00  0.00000000E+00  0.00000000E+00  0.00000000E+00
  0.00000000E+00  0.00000000E+00  0.00000000E+00  0.00000000E+00  0.00000000E+00
  0.00000000E+00  0.00000000E+00  0.00000000E+00  0.00000000E+00  0.00000000E+00
  0.00000000E+00  0.00000000E+00  0.00000000E+00  0.00000000E+00  0.00000000E+00
  0.00000000E+00  0.00000000E+00  0.00000000E+00  0.00000000E+00  0.00000000E+00
  0.00000000E+00  0.00000000E+00  0.00000000E+00  0.00000000E+00  0.00000000E+00
  0.00000000E+00  0.00000000E+00  0.00000000E+00  0.00000000E+00  0.00000000E+00
  0.00000000E+00  0.00000000E+00  0.00000000E+00  0.00000000E+00  0.00000000E+00
  0.00000000E+00  0.00000000E+00  0.00000000E+00  0.00000000E+00  0.00000000E+00
  0.00000000E+00  0.00000000E+00  0.00000000E+00  0.00000000E+00  0.00000000E+00
  0.00000000E+00  0.00000000E+00  0.00000000E+00  0.00000000E+00  0.00000000E+00
  0.00000000E+00  0.00000000E+00  0.00000000E+00  0.00000000E+00  0.00000000E+00
  0.00000000E+00  0.00000000E+00  0.00000000E+00  0.00000000E+00  0.00000000E+00
  0.00000000E+00  0.00000000E+00  0.00000000E+00  0.00000000E+00  0.00000000E+00
  0.00000000E+00  0.00000000E+00  0.00000000E+00  0.00000000E+00  0.00000000E+00
  0.00000000E+00  0.00000000E+00  0.00000000E+00  0.00000000E+00  0.00000000E+00
  0.00000000E+00  0.00000000E+00  0.00000000E+00  0.00000000E+00  0.00000000E+00
  0.00000000E+00  0.00000000E+00  0.00000000E+00  0.00000000E+00  0.00000000E+00
  0.00000000E+00  0.00000000E+00  0.00000000E+00  0.00000000E+00  0.00000000E+00
  0.00000000E+00  0.00000000E+00  0.00000000E+00  0.00000000E+00  0.00000000E+00
  0.00000000E+00  0.00000000E+00  0.00000000E+00  0.00000000E+00  0.00000000E+00
  0.00000000E+00  0.00000000E+00  0.00000000E+00  0.00000000E+00  0.00000000E+00
  0.00000000E+00  0.00000000E+00  0.00000000E+00  0.00000000E+00  0.00000000E+00
  0.00000000E+00  0.00000000E+00  0.00000000E+00  0.00000000E+00  0.00000000E+00
  0.00000000E+00  0.00000000E+00  0.00000000E+00  0.00000000E+00  0.00000000E+00
  0.00000000E+00  0.00000000E+00  0.00000000E+00  0.00000000E+00  0.00000000E+00
  0.00000000E+00  0.00000000E+00  0.00000000E+00  0.00000000E+00  0.00000000E+00
  0.00000000E+00  0.00000000E+00  0.00000000E+00  0.00000000E+00  0.00000000E+00
  0.00000000E+00  0.00000000E+00  0.00000000E+00  0.00000000E+00  0.00000000E+00
  0.00000000E+00  0.00000000E+00  0.00000000E+00  0.00000000E+00  0.00000000E+00
  0.00000000E+00  0.00000000E+00  0.00000000E+00  0.00000000E+00  0.00000000E+00
  0.00000000E+00  0.00000000E+00  0.00000000E+00  0.00000000E+00  0.00000000E+00
  0.00000000E+00  0.00000000E+00  0.00000000E+00  0.00000000E+00  0.00000000E+00
  0.00000000E+00  0.00000000E+00  0.00000000E+00  0.00000000E+00  0.00000000E+00
  0.00000000E+00  0.00000000E+00  0.00000000E+00  0.00000000E+00  0.00000000E+00
  0.00000000E+00  0.00000000E+00  0.00000000E+00  0.00000000E+00  0.00000000E+00
  0.00000000E+00  0.00000000E+00  0.00000000E+00  0.00000000E+00  0.00000000E+00
  0.00000000E+00  0.00000000E+00  0.00000000E+00  0.00000000E+00  0.00000000E+00
  0.00000000E+00  0.00000000E+00  0.00000000E+00  0.00000000E+00  0.00000000E+00
  0.00000000E+00  0.00000000E+00  0.00000000E+00  0.00000000E+00  0.00000000E+00
  0.00000000E+00  0.00000000E+00  0.00000000E+00  0.00000000E+00  0.00000000E+00
  0.00000000E+00  0.00000000E+00  0.00000000E+00  0.00000000E+00  0.00000000E+00
  0.00000000E+00  0.00000000E+00  0.00000000E+00  0.00000000E+00  0.00000000E+00
  0.00000000E+00  0.00000000E+00  0.00000000E+00  0.00000000E+00  0.00000000E+00
  0.00000000E+00  0.00000000E+00  0.00000000E+00  0.00000000E+00  0.00000000E+00
  0.00000000E+00  0.00000000E+00  0.00000000E+00  0.00000000E+00  0.00000000E+00
  0.00000000E+00  0.00000000E+00  0.00000000E+00  0.00000000E+00  0.00000000E+00
  0.00000000E+00  0.00000000E+00  0.00000000E+00  0.00000000E+00  0.00000000E+00
  0.00000000E+00  0.00000000E+00  0.00000000E+00  0.00000000E+00  0.00000000E+00
  0.00000000E+00  0.00000000E+00  0.00000000E+00  0.00000000E+00  0.00000000E+00
  0.00000000E+00  0.00000000E+00  0.00000000E+00  0.00000000E+00  0.00000000E+00
  0.00000000E+00  0.00000000E+00  0.00000000E+00  0.00000000E+00  0.00000000E+00
  0.00000000E+00  0.00000000E+00  0.00000000E+00  0.00000000E+00  0.00000000E+00
  0.00000000E+00  0.00000000E+00  0.00000000E+00  0.00000000E+00  0.00000000E+00
  0.00000000E+00  0.00000000E+00  0.00000000E+00  0.00000000E+00  0.00000000E+00
  0.00000000E+00  0.00000000E+00  0.00000000E+00  0.00000000E+00  0.00000000E+00
  0.00000000E+00  0.00000000E+00  0.00000000E+00  0.00000000E+00  0.00000000E+00
  0.00000000E+00  0.00000000E+00  0.00000000E+00  0.00000000E+00  0.00000000E+00
  0.00000000E+00  0.00000000E+00  0.00000000E+00  0.00000000E+00  0.00000000E+00
  0.00000000E+00  0.00000000E+00  0.00000000E+00  0.00000000E+00  0.00000000E+00
  0.00000000E+00  0.00000000E+00  0.00000000E+00  0.00000000E+00  0.00000000E+00
  0.00000000E+00  0.00000000E+00  0.00000000E+00  0.00000000E+00  0.00000000E+00
  0.00000000E+00  0.00000000E+00  0.00000000E+00  0.00000000E+00  0.00000000E+00
  0.00000000E+00  0.00000000E+00  0.00000000E+00  0.00000000E+00  0.00000000E+00
  0.00000000E+00  0.00000000E+00  0.00000000E+00  0.00000000E+00  0.00000000E+00
  0.00000000E+00  0.00000000E+00  0.00000000E+00  0.00000000E+00  0.00000000E+00
  0.00000000E+00  0.00000000E+00  0.00000000E+00  0.00000000E+00  0.00000000E+00
  0.00000000E+00  0.00000000E+00  0.00000000E+00  0.00000000E+00  0.00000000E+00
  0.00000000E+00  0.00000000E+00  0.00000000E+00  0.00000000E+00  0.00000000E+00
  0.00000000E+00  0.00000000E+00  0.00000000E+00  0.00000000E+00  0.00000000E+00
  0.00000000E+00  0.00000000E+00  0.00000000E+00  0.00000000E+00  0.00000000E+00
  0.00000000E+00  0.00000000E+00  0.00000000E+00  0.00000000E+00  0.00000000E+00
  0.00000000E+00  0.00000000E+00  0.00000000E+00  0.00000000E+00  0.00000000E+00
  0.00000000E+00  0.00000000E+00  0.00000000E+00  0.00000000E+00  0.00000000E+00
  0.00000000E+00  0.00000000E+00  0.00000000E+00  0.00000000E+00  0.00000000E+00
  0.00000000E+00  0.00000000E+00  0.00000000E+00  0.00000000E+00  0.00000000E+00
  0.00000000E+00  0.00000000E+00  0.00000000E+00  0.00000000E+00  0.00000000E+00
  0.00000000E+00  0.00000000E+00  0.00000000E+00  0.00000000E+00  0.00000000E+00
  0.00000000E+00  0.00000000E+00  0.00000000E+00  0.00000000E+00  0.00000000E+00
  0.00000000E+00  0.00000000E+00  0.00000000E+00  0.00000000E+00  0.00000000E+00
  0.00000000E+00  0.00000000E+00  0.00000000E+00  0.00000000E+00  0.00000000E+00
  0.00000000E+00  0.00000000E+00  0.00000000E+00  0.00000000E+00  0.00000000E+00
  0.00000000E+00  0.00000000E+00  0.00000000E+00  0.00000000E+00  0.00000000E+00
  0.00000000E+00  0.00000000E+00  0.00000000E+00  0.00000000E+00  0.00000000E+00
  0.00000000E+00  0.00000000E+00  0.00000000E+00  0.00000000E+00  0.00000000E+00
  0.00000000E+00  0.00000000E+00  0.00000000E+00  0.00000000E+00  0.00000000E+00
  0.00000000E+00  0.00000000E+00  0.00000000E+00  0.00000000E+00  0.00000000E+00
  0.00000000E+00  0.00000000E+00  0.00000000E+00  0.00000000E+00  0.00000000E+00
  0.00000000E+00  0.00000000E+00  0.00000000E+00  0.00000000E+00  0.00000000E+00
  0.00000000E+00  0.00000000E+00  0.00000000E+00  0.00000000E+00  0.00000000E+00
  0.00000000E+00  0.00000000E+00  0.00000000E+00  0.00000000E+00  0.00000000E+00
  0.00000000E+00  0.00000000E+00  0.00000000E+00  0.00000000E+00  0.00000000E+00
  0.00000000E+00  0.00000000E+00  0.00000000E+00  0.00000000E+00  0.00000000E+00
  0.00000000E+00  0.00000000E+00  0.00000000E+00  0.00000000E+00  0.00000000E+00
  0.00000000E+00  0.00000000E+00  0.00000000E+00  0.00000000E+00  0.00000000E+00
  0.00000000E+00  0.00000000E+00  0.00000000E+00  0.00000000E+00  0.00000000E+00
  0.00000000E+00  0.00000000E+00  0.00000000E+00  0.00000000E+00  0.00000000E+00
  0.00000000E+00  0.00000000E+00  0.00000000E+00  0.00000000E+00  0.00000000E+00
  0.00000000E+00  0.00000000E+00  0.00000000E+00  0.00000000E+00  0.00000000E+00
  0.00000000E+00  0.00000000E+00  0.00000000E+00  0.00000000E+00  0.00000000E+00
  0.00000000E+00  0.00000000E+00  0.00000000E+00  0.00000000E+00  0.00000000E+00
Gaussian Version                           C   N=           2
AppleM1-GDVRevJ.32+     
