NNO DPCS3                                                               
Freq      RrevDSDPBEP86D4-FC                                          Gen                 
Number of atoms                            I                3
Info1-9                                    I   N=           9
          10           9           0           0           0         100
           6           2       -1701
Full Title                                 C   N=           1
NNO DPCS3   
Route                                      C   N=           8
#revdsdpbep86d4 geom=checkpoint chkbas guess=read freq=anhar
m symm=com output=pickett           
Point Group                                C   N=           2
C*V                     
Point Group NOp                            I                4
Point Group Abelian NOp                    I                4
Point Group NClass                         I                4
Point Group NIrrep                         I                4
Point Group NGen                           I                2
Point Group NOp symm assign                I                2
Point Group Irrep Names                    H   N=           4
A1      A2      B1      B2      
Point Group Class Names                    H   N=           4
E       C2      Sgm     Sgm'    
Point Group Generators                     I   N=           2
           2           3
Point Group Class of Operators             I   N=           4
           1           2           3           4
Point Group Rotations                      R   N=          48
  1.00000000E+00  0.00000000E+00  0.00000000E+00  0.00000000E+00  1.00000000E+00
  0.00000000E+00  0.00000000E+00  0.00000000E+00  1.00000000E+00  0.00000000E+00
  0.00000000E+00  0.00000000E+00 -1.00000000E+00 -1.22464680E-16  0.00000000E+00
  1.22464680E-16 -1.00000000E+00  3.95306463-100  0.00000000E+00 -3.95306463-100
  1.00000000E+00  0.00000000E+00  0.00000000E+00  0.00000000E+00 -1.00000000E+00
  0.00000000E+00  0.00000000E+00  0.00000000E+00  1.00000000E+00  0.00000000E+00
  0.00000000E+00  0.00000000E+00  1.00000000E+00  0.00000000E+00  0.00000000E+00
  0.00000000E+00  1.00000000E+00 -1.22464680E-16  0.00000000E+00 -1.22464680E-16
 -1.00000000E+00 -3.95306463-100  0.00000000E+00 -3.95306463-100  1.00000000E+00
  0.00000000E+00  0.00000000E+00  0.00000000E+00
Point Group Cell Trans                     I   N=          12
           0           0           0           0           0           0
           0           0           0           0           0           0
Point Group Char Table                     R   N=          16
  1.00000000E+00  1.00000000E+00  1.00000000E+00  1.00000000E+00  1.00000000E+00
  1.00000000E+00 -1.00000000E+00 -1.00000000E+00  1.00000000E+00 -1.00000000E+00
 -1.00000000E+00  1.00000000E+00  1.00000000E+00 -1.00000000E+00  1.00000000E+00
 -1.00000000E+00
Point Group Atom Permutations              I   N=          12
           1           2           3           1           2           3
           1           2           3           1           2           3
Charge                                     I                0
Multiplicity                               I                1
Number of electrons                        I               22
Number of alpha electrons                  I               11
Number of beta electrons                   I               11
Number of basis functions                  I               15
Number of independent functions            I               15
Number of point charges in /Mol/           I                0
Number of translation vectors              I                0
Atomic numbers                             I   N=           3
           7           7           8
Nuclear charges                            R   N=           3
  7.00000000E+00  7.00000000E+00  8.00000000E+00
Current cartesian coordinates              R   N=           9
  0.00000000E+00  0.00000000E+00 -2.47857494E+00  1.02951152E-83  0.00000000E+00
 -1.15543521E-01  0.00000000E+00  0.00000000E+00  2.27107388E+00
Number of symbols in /Mol/                 I                0
Int Atom Types                             I   N=           3
           0           0           0
Force Field                                I                0
Atom Types                                 C   N=           3
                                    
MM charges                                 R   N=           3
  0.00000000E+00  0.00000000E+00  0.00000000E+00
Integer atomic weights                     I   N=           3
          14          14          16
Real atomic weights                        R   N=           3
  1.40030740E+01  1.40030740E+01  1.59949146E+01
Atom fragment info                         I   N=           3
           0           0           0
Atom residue num                           I   N=           3
           0           0           0
Nuclear spins                              I   N=           3
           2           2           0
Nuclear ZEff                               R   N=           3
 -4.55000000E+00 -4.55000000E+00 -5.60000000E+00
Nuclear ZNuc                               R   N=           3
  7.00000000E+00  7.00000000E+00  8.00000000E+00
Nuclear QMom                               R   N=           3
  2.04400000E+00  2.04400000E+00  0.00000000E+00
Nuclear GFac                               R   N=           3
  4.03761000E-01  4.03761000E-01  0.00000000E+00
MicOpt                                     I   N=           3
          -1          -1          -1
Number of residues                         I                0
Number of secondary structures             I                0
Redundant internal dimensions              I   N=           4
           4           0           0           0
CrData-IFlags                              I   N=          16
          -2          64           1           4         132           3
           1           0           0           1           0          30
          30     1124138     1110000           0
CrData-InfCrd                              I   N=         640
         100          -1           1           4           1           0
           1          -1          -1           1          62          -1
           5           1           1           0           1          -1
          -1           2           2           0           6           3
           1           0         111           0           3           3
         100          -1           9           4           1           0
           1          -1          -1           1          62          -1
          13           1           1           0           1          -1
          -1           2           2           0          14           3
           1           0         111          10          13           3
          58          -1          17           0           1           1
           1          -1          -1           1          58          -1
          17           0           2           1           1          -1
          -1           1          58          -1          17           0
           3           1           1          -1          -1           1
         110          -1          17           3           4           0
           1          -1          -1           1         110          -1
          20           3           4           0           1          -1
          -1           1         110          -1          23           3
           4           0           1          -1          -1           1
          52          -1          26           2           4           0
           1          -1          -1           2          52          -1
          28           2           4           0           1          -1
          -1           2          50          -1          30           2
           4           0           1          -1          -1           3
          62          -1          32           1           4           0
           1          -1          -1           4         110          -1
          33           3           4           0           1          -1
          -1           1         110          -1          36           3
           4           0           1          -1          -1           1
         110          -1          39           3           4           0
           1          -1          -1           1          52          -1
          42           2           4           0           1          -1
          -1           2          52          -1          44           2
           4           0           1          -1          -1           2
          50          -1          46           2           4           0
           1          -1          -1           3          62          -1
          48           1           4           0           1          -1
          -1           4          52          -1          49           2
           4           0           1          -1          -1           2
          51          -1          51           2           4           0
           1          -1          -1           3          51          -1
          53           2           4           0           1          -1
          -1           2          52          -1          55           2
           4           0           1          -1          -1           2
          51          -1          57           2           4           0
           1          -1          -1           3          52          -1
          59           2           4           0           1          -1
          -1           4          52          -1          61           2
           4           0           1          -1          -1           3
          52          -1          63           2           4           0
           1          -1          -1           4          50          -1
          65           2           4           0           1          -1
          -1           5          50          -1          67           2
           4           0           1          -1          -1           6
          62          -1          69           1           4           0
           1          -1          -1           7          52          -1
          70           2           4           0           1          -1
          -1           4          52          -1          72           2
           4           0           1          -1          -1           4
          50          -1          74           2           4           0
           1          -1          -1           5          53          -1
          76           2           4           0           1          -1
          -1           8          53          -1          78           2
           4           0           1          -1          -1           9
          73          -1          80           1           4           0
           1          -1          -1          10          50          -1
          81           2           4           0           1          -1
          -1          11           5           0          83           6
           4           0         321          20          23          12
          52          -1          89           2           4           0
           1          -1          -1           2          50          -1
          91           2           4           0           1          -1
          -1           3          62          -1          93           1
           4           0           1          -1          -1           4
          52          -1          94           2           4           0
           1          -1          -1           2          50          -1
          96           2           4           0           1          -1
          -1           3          62          -1          98           1
           4           0           1          -1          -1           4
          52          -1          99           2           4           0
           1          -1          -1           2          51          -1
         101           2           4           0           1          -1
          -1           3          51          -1         103           2
           4           0           1          -1          -1           3
          52          -1         105           2           4           0
           1          -1          -1           4          52          -1
         107           2           4           0           1          -1
          -1           4          50          -1         109           2
           4           0           1          -1          -1           5
          50          -1         111           2           4           0
           1          -1          -1           6          62          -1
         113           1           4           0           1          -1
          -1           7          52          -1         114           2
           4           0           1          -1          -1           4
          52          -1         116           2           4           0
           1          -1          -1           4          50          -1
         118           2           4           0           1          -1
          -1           5          53          -1         120           2
           4           0           1          -1          -1           8
          53          -1         122           2           4           0
           1          -1          -1           9          73          -1
         124           1           4           0           1          -1
          -1          10          50          -1         125           2
           4           0           1          -1          -1          11
           5           0         127           6           4           0
         321          38          41          12
CrData-IVars                               I   N=         132
           1           2           1           2           1           2
           1           2           2           3           2           3
           4           5           2           3          -1           1
           2          -2           1           2          -3           1
           2          10          10          12          12          13
          14          15          -1           3           2          -2
           3           2          -3           3           2          17
          17          19          19          20          21          22
           9          12           8          24           8           8
           9          10          27           8          25          25
          26          26          28          28          29          30
          31          32          33          17          25          19
          28          35          36          37          34          38
          23          39           7          40          41           1
           2           3          -2          -1          11          11
          13          43          44          18          18          20
          46          47           9          11          49           8
           8          27          50          50          51          51
          52          53          30          54          55          17
          50          18          51          57          58          59
          56          60          48          61           7          62
          63           1           2           3          -3          -2
CrData-RVars                               R   N=           3
  1.57079633E+00  0.00000000E+00  1.00000000E+00
CrData-NCrdSt                              I   N=           1
           4
CrData-ICrdSt                              I   N=           4
           3           6          42          64
CrData-LabNumbers                          I   N=           3
     8000000     1000003          56
CrData-Labels                              H   N=           7
R1\R(1,2)\R2\R(2,3)\A1\L(1,2,3,-2,-1)\A2\L(1,2,3,-3,-2)\
Redundant internal coordinates             R   N=           4
  2.36303142E+00  2.38661740E+00  3.14159265E+00  3.14159265E+00
ZRed-IntVec                                I   N=           4
           0           0           0           0
ZRed-FPVec                                 R   N=           4
  0.00000000E+00  0.00000000E+00  0.00000000E+00  0.00000000E+00
ZRed-Constraint1                           R   N=           4
  2.36303142E+00  2.38661740E+00  3.14159265E+00  3.14159265E+00
ZRed-Constraint2                           R   N=           4
  2.36303142E+00  2.38661740E+00  3.14159265E+00  3.14159265E+00
SymInf integers                            I   N=          26
           1           4           1           1           1          -1
          -1           1          -1           1           1           1
          -1           1           0           0           0           0
           0           0           0           0           0           0
           0           0
RotTr to input orientation                 R   N=          12
 -1.13562614E-67  0.00000000E+00 -1.00000000E+00  0.00000000E+00  1.00000000E+00
  0.00000000E+00  1.00000000E+00  0.00000000E+00 -1.13562614E-67  7.32825223E-03
  1.11213454E-50 -2.12634248E-67
Number of contracted shells                I                6
Number of primitive shells                 I               18
Pure/Cartesian d shells                    I                0
Pure/Cartesian f shells                    I                0
Highest angular momentum                   I                1
Largest degree of contraction              I                3
Shell types                                I   N=           6
           0          -1           0          -1           0          -1
Number of primitives per shell             I   N=           6
           3           3           3           3           3           3
Shell to atom map                          I   N=           6
           1           1           2           2           3           3
Primitive exponents                        R   N=          18
  9.91061690E+01  1.80523124E+01  4.88566024E+00  3.78045588E+00  8.78496645E-01
  2.85714374E-01  9.91061690E+01  1.80523124E+01  4.88566024E+00  3.78045588E+00
  8.78496645E-01  2.85714374E-01  1.30709321E+02  2.38088661E+01  6.44360831E+00
  5.03315132E+00  1.16959612E+00  3.80388960E-01
Contraction coefficients                   R   N=          18
  1.54328967E-01  5.35328142E-01  4.44634542E-01 -9.99672292E-02  3.99512826E-01
  7.00115469E-01  1.54328967E-01  5.35328142E-01  4.44634542E-01 -9.99672292E-02
  3.99512826E-01  7.00115469E-01  1.54328967E-01  5.35328142E-01  4.44634542E-01
 -9.99672292E-02  3.99512826E-01  7.00115469E-01
P(S=P) Contraction coefficients            R   N=          18
  0.00000000E+00  0.00000000E+00  0.00000000E+00  1.55916275E-01  6.07683719E-01
  3.91957393E-01  0.00000000E+00  0.00000000E+00  0.00000000E+00  1.55916275E-01
  6.07683719E-01  3.91957393E-01  0.00000000E+00  0.00000000E+00  0.00000000E+00
  1.55916275E-01  6.07683719E-01  3.91957393E-01
Coordinates of each shell                  R   N=          18
  0.00000000E+00  3.21365403-117 -2.47857494E+00  0.00000000E+00  3.21365403-117
 -2.47857494E+00  0.00000000E+00  5.71307662-118 -1.15543521E-01  0.00000000E+00
  5.71307662-118 -1.15543521E-01  0.00000000E+00  4.82850931-117  2.27107388E+00
  0.00000000E+00  4.82850931-117  2.27107388E+00
Constraint Structure                       R   N=           9
 -3.29443686E-83  0.00000000E+00 -2.47857494E+00 -2.26492534E-83  0.00000000E+00
 -1.15543521E-01  0.00000000E+00  0.00000000E+00  2.27107388E+00
Constraint Force Constants                 R   N=           9
  0.00000000E+00  0.00000000E+00  0.00000000E+00  0.00000000E+00  0.00000000E+00
  0.00000000E+00  0.00000000E+00  0.00000000E+00  0.00000000E+00
Num ILSW                                   I              100
ILSW                                       I   N=         100
           0           0           0           1           2           0
           0           0           0           0       10004          -1
           5           0           0           0           2          -1
           0           0           0           0           1           0
           1           0           0           0           0           0
           0           0      100000           0          -1           0
           0           0           0           0           0           0
           0           0           0           1           1           0
           0 -2000000000           1           0           0           0
           0           0        1161          68           0           0
           0           0         117           0           0           0
           0           0           0           0           4           1
           0           0           0           0           0           0
           0           0           0           0           0           0
           0           0           0           0           0           0
           0           0           1           0           0           0
           0           0           0           0
Num RLSW                                   I               68
RLSW                                       R   N=          68
  3.10000000E-01  3.10000000E-01  4.21000000E-01  4.21000000E-01  6.90000000E-01
  0.00000000E+00  0.00000000E+00  1.00000000E+00  0.00000000E+00  0.00000000E+00
  0.00000000E+00  0.00000000E+00  1.00000000E+00  0.00000000E+00  0.00000000E+00
  0.00000000E+00  0.00000000E+00  1.00000000E+00  0.00000000E+00  0.00000000E+00
  0.00000000E+00  0.00000000E+00  1.00000000E+00  0.00000000E+00  0.00000000E+00
  0.00000000E+00  0.00000000E+00  1.00000000E+00  0.00000000E+00  0.00000000E+00
  0.00000000E+00  0.00000000E+00  1.00000000E+00  0.00000000E+00  0.00000000E+00
  0.00000000E+00  0.00000000E+00  0.00000000E+00  6.36000000E-02  5.92200000E-01
  0.00000000E+00  1.00000000E+00  0.00000000E+00  0.00000000E+00  0.00000000E+00
  0.00000000E+00  0.00000000E+00  0.00000000E+00  0.00000000E+00  0.00000000E+00
  0.00000000E+00  0.00000000E+00  6.36000000E-02  5.92200000E-01  6.36000000E-02
  5.92200000E-01  1.00000000E+00  1.00000000E+00  0.00000000E+00  0.00000000E+00
  0.00000000E+00  0.00000000E+00  0.00000000E+00  0.00000000E+00  0.00000000E+00
  0.00000000E+00  2.00000000E-10  3.00000000E-02
MxBond                                     I                2
NBond                                      I   N=           3
           1           2           1
IBond                                      I   N=           6
           2           0           1           3           2           0
RBond                                      R   N=           6
  3.00000000E+00  0.00000000E+00  3.00000000E+00  2.00000000E+00  2.00000000E+00
  0.00000000E+00
Virial Ratio                               R      2.015035287482420E+00
SCF Energy                                 R     -1.815460806301464E+02
MP2 Energy                                 R     -1.817144921836676E+02
Total Energy                               R     -1.817144921836676E+02
Post-SCF wavefunction norm                 R      1.624687416833791E+00
RMS Force                                  R      5.723551593788368E-07
RMS Density                                R      9.006728767971922E-10
NImag                                      I                0
Zero-point Energy                          R      9.468295172717711E-03
Job Status                                 I                1
Nuclear derivative order                   I                3
Energy with zero-point                     R     -1.817050238884948E+02
Thermal Energy                             R     -1.817020522668047E+02
Thermal Enthalpy                           R     -1.817011080819910E+02
Thermal Free Energy                        R     -1.817266603277908E+02
External E-field                           R   N=         105
  0.00000000E+00  0.00000000E+00  0.00000000E+00  0.00000000E+00  0.00000000E+00
  0.00000000E+00  0.00000000E+00  0.00000000E+00  0.00000000E+00  0.00000000E+00
  0.00000000E+00  0.00000000E+00  0.00000000E+00  0.00000000E+00  0.00000000E+00
  0.00000000E+00  0.00000000E+00  0.00000000E+00  0.00000000E+00  0.00000000E+00
  0.00000000E+00  0.00000000E+00  0.00000000E+00  0.00000000E+00  0.00000000E+00
  0.00000000E+00  0.00000000E+00  0.00000000E+00  0.00000000E+00  0.00000000E+00
  0.00000000E+00  0.00000000E+00  0.00000000E+00  0.00000000E+00  0.00000000E+00
  0.00000000E+00  0.00000000E+00  0.00000000E+00  0.00000000E+00  0.00000000E+00
  0.00000000E+00  0.00000000E+00  0.00000000E+00  0.00000000E+00  0.00000000E+00
  0.00000000E+00  0.00000000E+00  0.00000000E+00  0.00000000E+00  0.00000000E+00
  0.00000000E+00  0.00000000E+00  0.00000000E+00  0.00000000E+00  0.00000000E+00
  0.00000000E+00  0.00000000E+00  0.00000000E+00  0.00000000E+00  0.00000000E+00
  0.00000000E+00  0.00000000E+00  0.00000000E+00  0.00000000E+00  0.00000000E+00
  0.00000000E+00  0.00000000E+00  0.00000000E+00  0.00000000E+00  0.00000000E+00
  0.00000000E+00  0.00000000E+00  0.00000000E+00  0.00000000E+00  0.00000000E+00
  0.00000000E+00  0.00000000E+00  0.00000000E+00  0.00000000E+00  0.00000000E+00
  0.00000000E+00  0.00000000E+00  0.00000000E+00  0.00000000E+00  0.00000000E+00
  0.00000000E+00  0.00000000E+00  0.00000000E+00  0.00000000E+00  0.00000000E+00
  0.00000000E+00  0.00000000E+00  0.00000000E+00  0.00000000E+00  0.00000000E+00
  0.00000000E+00  0.00000000E+00  0.00000000E+00  0.00000000E+00  0.00000000E+00
  0.00000000E+00  0.00000000E+00  0.00000000E+00  0.00000000E+00  0.00000000E+00
IOpCl                                      I                0
IROHF                                      I                0
Alpha Orbital Energies                     R   N=          15
 -1.98170353E+01 -1.51499187E+01 -1.49785582E+01 -1.32515566E+00 -1.14737941E+00
 -6.60646251E-01 -5.59090890E-01 -5.59090890E-01 -5.01051729E-01 -2.94669131E-01
 -2.94669131E-01  1.31236404E-01  1.31236404E-01  3.41313614E-01  8.76850012E-01
Alpha MO coefficients                      R   N=         225
  2.00397140E-05 -7.35841956E-04  0.00000000E+00  0.00000000E+00 -5.64782867E-04
  4.47396168E-04 -5.19900309E-03  0.00000000E+00  0.00000000E+00 -5.69160381E-03
  9.94284585E-01  2.48267109E-02  0.00000000E+00  0.00000000E+00 -4.64911618E-03
 -2.22207835E-04 -6.26020177E-03  0.00000000E+00  0.00000000E+00 -4.28579577E-03
  9.93737900E-01  2.84527755E-02  0.00000000E+00  0.00000000E+00 -1.24552248E-03
  4.88133951E-04 -4.69057941E-03  0.00000000E+00  0.00000000E+00  2.90948550E-03
  9.93985997E-01  2.69542558E-02  0.00000000E+00  0.00000000E+00  6.42982001E-03
  1.16321737E-03 -7.47947207E-03  0.00000000E+00  0.00000000E+00  5.65296844E-03
  2.52870934E-05 -3.36710282E-04  0.00000000E+00  0.00000000E+00  2.42267206E-04
 -6.84539722E-02  2.06083764E-01  0.00000000E+00  0.00000000E+00  9.83776695E-02
 -1.72608372E-01  5.34948625E-01  0.00000000E+00  0.00000000E+00  7.91028076E-02
 -1.62384513E-01  5.54645843E-01  0.00000000E+00  0.00000000E+00 -1.51428076E-01
 -1.58468018E-01  4.89248058E-01  0.00000000E+00  0.00000000E+00  1.68793826E-01
 -7.94355494E-02  2.55416612E-01  0.00000000E+00  0.00000000E+00 -3.70045112E-01
  1.30669848E-01 -4.68817971E-01  0.00000000E+00  0.00000000E+00  5.88608745E-02
 -1.33930677E-01  5.63059938E-01  0.00000000E+00  0.00000000E+00 -1.32618205E-01
  1.35631699E-01 -5.87967006E-01  0.00000000E+00  0.00000000E+00 -2.00691529E-01
 -1.47161947E-01  6.81240141E-01  0.00000000E+00  0.00000000E+00  3.63650997E-01
  0.00000000E+00  0.00000000E+00  0.00000000E+00  3.55694317E-01  0.00000000E+00
  0.00000000E+00  0.00000000E+00  0.00000000E+00  6.93270491E-01  0.00000000E+00
  0.00000000E+00  0.00000000E+00  0.00000000E+00  4.36633956E-01  0.00000000E+00
  0.00000000E+00  0.00000000E+00  3.55694317E-01  0.00000000E+00  0.00000000E+00
  0.00000000E+00  0.00000000E+00  6.93270491E-01  0.00000000E+00  0.00000000E+00
  0.00000000E+00  0.00000000E+00  4.36633956E-01  0.00000000E+00  0.00000000E+00
 -1.36800001E-01  6.68479621E-01  0.00000000E+00  0.00000000E+00 -4.85093067E-01
  2.72248116E-02 -1.15798394E-01  0.00000000E+00  0.00000000E+00  4.60729050E-01
  6.13845399E-02 -3.14822595E-01  0.00000000E+00  0.00000000E+00 -3.49980390E-01
  0.00000000E+00  0.00000000E+00 -6.10997169E-01  0.00000000E+00  0.00000000E+00
  0.00000000E+00  0.00000000E+00 -1.48872205E-01  0.00000000E+00  0.00000000E+00
  0.00000000E+00  0.00000000E+00  7.80887857E-01  0.00000000E+00  0.00000000E+00
  0.00000000E+00  0.00000000E+00  0.00000000E+00 -6.10997169E-01  0.00000000E+00
  0.00000000E+00  0.00000000E+00  0.00000000E+00 -1.48872205E-01  0.00000000E+00
  0.00000000E+00  0.00000000E+00  0.00000000E+00  7.80887857E-01  0.00000000E+00
  0.00000000E+00  0.00000000E+00  0.00000000E+00 -7.38600609E-01  0.00000000E+00
  0.00000000E+00  0.00000000E+00  0.00000000E+00  7.55789603E-01  0.00000000E+00
  0.00000000E+00  0.00000000E+00  0.00000000E+00 -4.77380981E-01  0.00000000E+00
  0.00000000E+00  0.00000000E+00 -7.38600609E-01  0.00000000E+00  0.00000000E+00
  0.00000000E+00  0.00000000E+00  7.55789603E-01  0.00000000E+00  0.00000000E+00
  0.00000000E+00  0.00000000E+00 -4.77380981E-01  0.00000000E+00  0.00000000E+00
  6.50654890E-02 -3.91562505E-01  0.00000000E+00  0.00000000E+00 -7.27148781E-01
 -1.67825865E-01  1.07294594E+00  0.00000000E+00  0.00000000E+00  7.08800075E-02
  6.30743787E-02 -3.76635623E-01  0.00000000E+00  0.00000000E+00  7.99591706E-01
 -9.10072990E-02  7.03120547E-01  0.00000000E+00  0.00000000E+00  8.55000007E-01
  2.39589085E-02 -2.41293970E-01  0.00000000E+00  0.00000000E+00  1.28589748E+00
  7.16979491E-02 -4.97222666E-01  0.00000000E+00  0.00000000E+00  6.46317742E-01
Orthonormal basis                          R   N=         225
  1.37070447E-01  3.53453862E-01 -4.12881499E-17  1.68294024-102  3.21415146E-01
  1.77586875E-01  4.50355880E-01 -6.92833319E-18  1.26131244E-18 -2.14231122E-01
  3.28460377E-02  1.00370935E-01 -1.61330053E-18  3.23386977E-19 -1.21569492E-01
 -8.23173508E-02 -1.59524216E-01 -1.65203029E-16 -1.19028418-103 -7.05855672E-02
  8.81833375E-02  2.11053629E-01 -4.66639684E-17  7.02977795E-18  4.75934371E-01
  1.71169837E-01  3.92028051E-01 -1.20737258E-17  1.93753410E-18 -3.01350536E-01
  2.91816527E-18 -1.94757648E-17  5.15424717E-02  4.93194372E-01 -1.92690234E-16
  4.34602344E-16 -2.28548495E-17  6.50186509E-02  6.22143868E-01 -4.32220219E-17
 -1.10060597E-16 -1.79078352E-17  4.06222809E-02  3.88702358E-01  7.99422064E-17
 -1.34749764E-16  4.13911945E-17  4.93194372E-01 -5.15424717E-02  5.15569435E-16
 -1.82897786E-16 -1.22551177E-16  6.22143868E-01 -6.50186509E-02  3.22943504E-16
  8.45628558E-17 -3.33780857E-17  3.88702358E-01 -4.06222809E-02  8.13380465E-17
  4.35501790E-01  3.32287074E-01  0.00000000E+00  3.20485587E-18 -3.15695792E-01
 -2.17653649E-01 -1.13549722E-01  1.14700238E-16  4.46248194E-17 -1.23061961E-02
  4.38240727E-01  3.33728112E-01  1.16373054E-16  4.16422757E-17  2.99502720E-01
 -4.25207705E-01 -2.73864919E-01  0.00000000E+00 -1.04613589E-16  4.03937152E-01
  1.55319827E-03 -9.54322188E-03 -2.50419988E-16  1.08005955E-16 -1.94613812E-01
  4.20910968E-01  2.60656206E-01 -3.05801689E-16  1.36319073E-16  4.31089873E-01
 -3.23727436E-18  9.22660746E-18 -1.53916771E-01 -5.97369952E-01  2.51765338E-16
 -7.84963341E-16  3.02613296E-17 -1.16095295E-03 -4.50580145E-03  2.58703972E-19
  1.60552317E-17 -6.64490356E-17  1.97151273E-01  7.65168382E-01 -3.03314521E-16
 -3.32547195E-16 -1.57132920E-16 -5.97369952E-01  1.53916771E-01 -8.93624290E-16
  2.30309666E-15  1.88152734E-16 -4.50580145E-03  1.16095295E-03 -1.95093782E-16
 -7.49769921E-17  1.48893432E-16  7.65168382E-01 -1.97151273E-01  1.06882215E-15
  2.82190383E-03  1.16484627E-02  1.26062224E-15 -1.12528992E-15 -3.13174064E-01
  9.17379422E-01 -5.22217450E-02  5.69551287E-16 -3.54142814E-16  1.80560544E-02
 -2.20146924E-02  7.61498447E-03 -2.06402297E-15  1.02694748E-15  3.24212428E-01
 -5.02252169E-01  3.18780393E-01 -1.21707417E-16  2.09184623E-17 -3.38265797E-01
  4.84202334E-02 -3.07208136E-02  2.98695837E-16 -4.13242724E-17 -1.82932318E-01
  6.07958962E-01 -3.93435410E-01 -1.36267631E-16  2.64752040E-17 -4.15076682E-01
  6.13254508E-01 -4.45260859E-01  0.00000000E+00  1.53428583E-17  3.45562469E-01
  2.20693148E-01 -2.00158853E-01 -4.24762636E-16  1.34614135E-16  7.55376878E-04
  4.90297315E-01 -3.55127941E-01  3.95436394E-16 -1.25689843E-16 -2.70656916E-01
  4.23396633E-16 -6.48146050E-16 -6.20199251E-01  1.86829422E-01  4.44437011E-16
 -6.26196781E-16  4.39270652E-16  7.91254637E-01 -2.38358312E-01 -6.16531928E-17
  5.31934459E-17 -1.47832105E-16 -4.79532569E-01  1.44454855E-01  4.94805721E-17
 -1.61121448E-18  2.47983338E-17 -1.86829422E-01 -6.20199251E-01 -4.42178757E-17
  2.28222279E-16  3.48282684E-17  2.38358312E-01  7.91254637E-01  9.46666741E-17
 -5.43114452E-17 -2.42423898E-17 -1.44454855E-01 -4.79532569E-01  1.73109194E-16
  6.27935644E-02 -1.80220626E-01  3.19133312E-16  2.36395046E-17 -2.08182561E-01
 -2.67969557E-01  1.03339064E+00  3.35015274E-17  2.05358748E-17  5.98637352E-01
  2.28797924E-01 -8.57778057E-01  6.24183680E-18 -2.65250378E-18  7.31865192E-01
 -1.96754084E-01  1.01767906E+00 -5.82694135E-16  2.21978718E-16  9.00520804E-01
  1.42750894E-01 -7.43935557E-01 -2.33453049E-16 -9.53482282E-17  1.16329108E+00
  6.39186746E-02 -3.37940979E-01 -2.34004037E-16  4.35262828E-17  2.58751205E-01
Total SCF Density                          R   N=         120
  2.10882896E+00 -4.62748453E-01  2.09077412E+00  2.82222812E-16  1.87612651E-15
  9.96363277E-01  5.79865553E-16  8.28210938E-16  2.33787635E-15  9.96363277E-01
  1.14270334E-01 -5.94140014E-01 -5.53627399E-16  3.63770176E-16  5.87171456E-01
  7.07986732E-03  2.73904471E-02  1.08357412E-15  4.62708199E-16 -1.31770865E-01
  2.08555501E+00  1.95336604E-02 -3.45936505E-01 -4.12993783E-16 -9.20808638E-16
  4.57826666E-01 -3.34599687E-01  1.42326765E+00  7.32635758E-16 -2.33508263E-15
  6.75017928E-01 -1.86345578E-15  1.02485682E-16 -1.23318376E-15  7.68743700E-16
  1.00465231E+00 -1.97418685E-16 -7.15373875E-16 -1.09037871E-15  6.75017928E-01
  7.21415911E-16  1.15926089E-16 -4.88335253E-17 -3.76514840E-15  1.00465231E+00
  4.61812772E-02  5.89073474E-02 -1.55795735E-16 -6.36483714E-17 -5.04852003E-01
 -1.26879930E-03  3.08101355E-02 -1.45179839E-16 -4.86837052E-16  7.92743087E-01
  3.53324278E-03 -2.41924570E-02  6.77200527E-16  1.81912572E-16 -9.71997554E-03
  4.19449060E-04  4.19902893E-02 -7.69952992E-16  1.68695616E-16 -1.74160246E-02
  2.11502892E+00 -2.43564631E-02  1.16050878E-01 -1.45358214E-15 -1.46639338E-15
  7.66393330E-02  4.18231315E-02 -3.75787693E-01  1.02898051E-15  1.36931348E-15
 -1.31046768E-01 -4.92915077E-01  2.18388352E+00 -7.52711753E-16  9.75401420E-16
 -6.41834908E-01  1.25106225E-15 -9.09734856E-16  4.62913626E-16  1.58176940E-15
  3.72502921E-01  6.58429126E-15 -1.16793829E-16  5.14967297E-16 -7.58299075E-16
  1.60428546E+00 -5.34900994E-16 -3.72430758E-16  1.64229630E-15 -6.41834908E-01
 -4.50824203E-16 -4.22904445E-16  5.71448768E-16 -9.81141908E-16  3.72502921E-01
 -6.70350958E-16 -6.15420004E-16 -4.21993708E-17 -1.80156635E-15  1.60428546E+00
  6.31856019E-04 -6.21377140E-02 -6.18125679E-16 -1.08530233E-15  2.32992276E-01
  1.28133898E-01 -4.79498559E-01  2.06054604E-16  3.04744013E-16 -5.34234776E-01
 -9.43440751E-02  4.89819806E-01  3.48870601E-16  1.79992199E-15  5.56830588E-01
Total MP2 Density                          R   N=         120
  2.10982189E+00 -4.67959961E-01  2.11454312E+00  2.78238970E-16  1.85780801E-15
  1.02793111E+00  5.81563595E-16  8.30124282E-16  7.10084560E-16  1.02793111E+00
  1.05574587E-01 -5.47843567E-01 -6.00549140E-16  2.85330635E-16  5.97087774E-01
  5.67372100E-03  3.45232025E-02  1.07628952E-15  4.45091683E-16 -1.33381634E-01
  2.08405937E+00  2.95963316E-02 -3.97303738E-01 -3.98619255E-16 -8.17311321E-16
  4.59020894E-01 -3.29861981E-01  1.41869156E+00  6.99417329E-16 -2.20744727E-15
  5.51236318E-01 -7.72986045E-16  9.19369454E-17 -1.21991501E-15  7.14812579E-16
  1.11326640E+00 -2.06371328E-16 -7.17486310E-16 -2.06188845E-16  5.51236318E-01
  6.78478086E-16  1.08206358E-16 -2.50282475E-17 -3.15983083E-15  1.11326640E+00
  4.60253985E-02  4.58424764E-02 -1.77354952E-16 -3.29826650E-17 -4.55492597E-01
  8.56418379E-03 -2.24450565E-02 -2.33551776E-16 -6.15168331E-16  7.07644894E-01
  4.10098985E-03 -2.77572166E-02  6.64910206E-16  1.77724936E-16 -7.46940397E-03
  8.85240494E-04  4.09097258E-02 -7.80999549E-16  1.70096134E-16 -2.35240961E-02
  2.11476998E+00 -2.76198464E-02  1.38044997E-01 -1.38305748E-15 -1.43144202E-15
  5.83188306E-02  3.74432694E-02 -3.59973774E-01  1.06993607E-15  1.35078684E-15
 -8.43283209E-02 -4.90453369E-01  2.16272470E+00 -7.59820079E-16  1.03365670E-15
 -6.07040932E-01  1.30151125E-15 -8.17308550E-16  4.72926634E-16  1.48801261E-15
  3.75224937E-01  5.25229335E-15 -2.68679235E-17  5.43443878E-16 -8.83632173E-16
  1.51641959E+00 -5.53825966E-16 -2.37171803E-16  1.63832108E-15 -6.07040932E-01
 -3.16193673E-16 -3.97618326E-16  3.92433875E-16 -2.03773147E-15  3.75224937E-01
 -5.75987979E-16 -6.05835998E-16 -9.40551863E-17 -6.39633063E-16  1.51641959E+00
  7.96126092E-03 -9.72217665E-02 -6.23985778E-16 -1.01898475E-15  2.49344103E-01
  1.24046655E-01 -4.39161699E-01  2.47465537E-16  3.50244010E-16 -5.36437344E-01
 -8.90940829E-02  4.66368498E-01  1.50830254E-16  1.53833065E-15  6.67374744E-01
Grdnt Energy                               R     -1.817144921836676E+02
Grdnt NVar                                 I                4
Grdnt IGetFC                               I                4
Internal Forces                            R   N=           4
  7.96398792E-07  1.39743343E-06 -4.49701473E-90 -6.50966021-100
Internal Force Constants                   R   N=          10
  7.57318657E-01 -1.65081844E-02  8.70683834E-01 -3.04718190E-83  2.69944700E-83
  8.69177027E-02 -1.53335176E-99  1.27004274E-99  4.91939692E-33  8.69177027E-02
Quartic Cent Dist                          R   N=          10
  0.00000000E+00  0.00000000E+00  0.00000000E+00  0.00000000E+00  0.00000000E+00
  1.29243048E-07  0.00000000E+00  0.00000000E+00  0.00000000E+00  0.00000000E+00
Sextic Cent Dist                           R   N=          14
  0.00000000E+00  0.00000000E+00  0.00000000E+00  0.00000000E+00  0.00000000E+00
  0.00000000E+00  0.00000000E+00  5.63434933E-15  0.00000000E+00  0.00000000E+00
  0.00000000E+00  0.00000000E+00  0.00000000E+00  0.00000000E+00
Mulliken Charges                           R   N=           3
 -3.36292311E-02  5.06889034E-02 -1.70596723E-02
APT Charges                                R   N=           3
 -7.16285986E-02  1.55023273E-01 -8.33946747E-02
Optimization MaxStp                        I                2
Optimization MaxJob                        I                1
Optimization Job offset                    I                0
Optimization Num results per geometry      I                8
Optimization Num geometry variables        I                9
Optimization Reference Energy              R     -1.810000000000000E+02
Optimization Number of geometries          I   N=           1
           1
Opt point       1 Results for each geome   R   N=           8
 -7.14492184E-01  0.00000000E+00  1.39743343E-06  8.04218755E-07  1.44607547E-06
  9.65340295E-07  0.00000000E+00  0.00000000E+00
Opt point       1 Geometries               R   N=           9
  0.00000000E+00  3.21365403-117 -2.47857494E+00  0.00000000E+00  5.71307662-118
 -1.15543521E-01  0.00000000E+00  4.82850931-117  2.27107388E+00
Opt point       1 Gradient at each geome   R   N=           9
  0.00000000E+00  4.92435032-100  7.96398792E-07  0.00000000E+00  5.50782402-100
  6.01034637E-07  0.00000000E+00 -1.04321743E-99 -1.39743343E-06
ONIOM Charges                              I   N=          16
           0           0           0           0           0           0
           0           0           0           0           0           0
           0           0           0           0
ONIOM Multiplicities                       I   N=          16
           1           0           0           0           0           0
           0           0           0           0           0           0
           0           0           0           0
Atom Layers                                I   N=           3
           1           1           1
Atom Modifiers                             I   N=           3
           0           0           0
Int Atom Modified Types                    I   N=           3
           0           0           0
Atom Modified Types                        C   N=           3
                                    
Link Atoms                                 I   N=           3
           0           0           0
Atom Modified MM Charges                   R   N=           3
  0.00000000E+00  0.00000000E+00  0.00000000E+00
Link Distances                             R   N=          12
  0.00000000E+00  0.00000000E+00  0.00000000E+00  0.00000000E+00  0.00000000E+00
  0.00000000E+00  0.00000000E+00  0.00000000E+00  0.00000000E+00  0.00000000E+00
  0.00000000E+00  0.00000000E+00
Cartesian Gradient                         R   N=           9
  0.00000000E+00  4.92435032-100  7.96398792E-07  0.00000000E+00  5.50782402-100
  6.01034637E-07  0.00000000E+00 -1.04321743E-99 -1.39743343E-06
Cartesian Force Constants                  R   N=          45
  1.55665143E-02  0.00000000E+00  1.55665143E-02 -2.48521408E-84 -1.51844714E-99
  7.57318657E-01 -3.09780101E-02 -1.52654624E-32  0.00000000E+00  6.16481585E-02
  0.00000000E+00 -3.09780101E-02  1.40545273E-99  0.00000000E+00  6.16481585E-02
 -1.40858477E-84  1.41375920E-99 -7.73826842E-01  9.06875863E-84 -2.36291135E-99
  1.66101886E+00  1.54114958E-02 -1.76980051E-34  0.00000000E+00 -3.06701484E-02
 -4.51278013E-34  0.00000000E+00  1.52586527E-02  0.00000000E+00  1.54114958E-02
  1.12994411-100  0.00000000E+00 -3.06701484E-02  9.49152143-100  0.00000000E+00
  1.52586527E-02  2.30830800E-86  1.04687939-100  1.65081844E-02  5.25495361E-84
  9.57458615-100 -8.87192019E-01 -6.00043192E-84 -1.06214655E-99  8.70683834E-01
Cartesian 3rd/4th derivatives              R   N=         360
  1.88001512E-13 -6.74387062E-15  4.23003401E-13 -8.32429141E-02  4.74963759E-12
  8.22506613E-13 -6.11004913E-13 -9.34198905E-12  6.25822910E-02  4.52143635E-11
  9.36051318E-12 -7.99006424E-13 -1.92786121E-12 -1.34788077E-14  4.75643824E-11
  1.02422949E-01 -7.61070132E-12 -3.17252551E-13  1.29136140E-02  1.82974731E-12
  5.01259030E-11 -2.14439224E-13  9.05973533E-12  2.06606231E-02  8.46006802E-13
 -9.16537991E-12 -1.15336563E-01  4.74233813E-11 -9.06287101E-12  2.26189319E-13
 -2.20128390E-12  9.17244537E-12 -9.40007558E-14  4.98216005E-12 -2.23122313E-15
 -4.63893730E-11 -1.91800350E-02  2.96346646E-12  8.81257086E-14 -7.54959050E-02
  2.54149476E-13  9.40007558E-14  9.46759401E-02 -3.03931447E-12 -4.93738970E-11
  2.42521950E-11  1.78646020E-14  2.25131810E-11  5.40231355E-13 -8.32429141E-02
  2.37351908E-11 -1.88001512E-13 -1.17745851E-11 -2.00521120E-13  2.20901776E-11
  1.17437241E-11  1.22200983E-12  6.25822910E-02  3.92151979E-14 -2.06801663E-12
 -4.90749027E-13  1.02422949E-01  2.35001889E-13  3.08739846E-13  1.29136140E-02
  4.70473783E-11 -1.26313516E-13  1.17528464E-11  1.04699319E-12  7.52006046E-13
 -1.17799002E-11 -1.60720712E-12  8.46006802E-13 -1.17603502E-11 -4.15659592E-13
  2.06606231E-02  1.17356748E-11 -7.05005668E-13 -1.15336563E-01  2.55104891E-14
  5.17474161E-11 -6.75970892E-14 -1.91800350E-02  5.87504724E-14  1.08579879E-14
 -7.54959050E-02 -2.35001889E-13  4.59251977E-13  9.46759401E-02  9.40007558E-14
 -5.00073165E-02 -4.61666372E-14 -5.00073165E-02 -1.28258917E-14 -3.26711458E-14
  6.16044350E-01  3.88038370E-02  5.65817156E-14  1.20285242E-14 -7.75331178E-02
  5.53849763E-14  3.88038370E-02  3.80714039E-14 -1.04210012E-13 -7.75331178E-02
  9.69289677E-15  6.69996042E-15 -6.27642403E-01 -5.03551153E-14 -5.09819373E-14
  1.08841495E+00  1.12034795E-02 -1.02438913E-14  7.97367542E-16  3.87292808E-02
  4.87037833E-14  4.06622186E-14 -4.99327604E-02 -9.99694807E-15  1.12034795E-02
 -5.40025806E-15  4.76789377E-14  3.87292808E-02  4.42819768E-14 -3.78633863E-14
 -4.99327604E-02  3.13299492E-15  2.59711854E-14  1.15980530E-02  3.83265912E-14
  1.29105334E-14 -4.60772549E-01 -4.14595861E-14 -3.88817188E-14  4.49174496E-01
  1.00817068E-01 -3.71900305E-14  1.00817068E-01 -7.06485429E-14  4.96470607E-14
 -9.31880836E-01 -9.99918520E-02  6.04884160E-14  8.50646298E-14 -1.79839651E-02
  4.35019446E-14 -9.99918520E-02 -5.34904413E-14 -6.36625368E-14 -1.79839651E-02
  6.88381692E-14 -6.49915822E-14  8.10545994E-01 -9.67905133E-14  1.36903054E-13
  3.26436160E-01 -8.25215855E-04 -2.33476800E-14 -1.44160869E-14  1.17975817E-01
  2.01418290E-14  2.79523441E-14 -1.17150601E-01 -6.25321682E-15 -8.25215855E-04
  3.84338060E-15  2.85324071E-15  1.17975817E-01 -7.19114722E-14  3.47446418E-15
 -1.17150601E-01  1.81037372E-15  1.53445215E-14  1.21334842E-01  1.17258835E-14
 -8.34126130E-14 -1.13698215E+00 -1.35362573E-14  6.80680916E-14  1.01564731E+00
  3.44963515E-02  1.48067211E-12  1.03523966E-02 -4.56625726E-12 -6.57815149E-10
 -1.42783912E-01 -3.07618132E-02  8.62093667E-10  1.00263351E-11  6.19871437E-02
 -8.66658969E-10 -1.10440265E-02  4.99711073E-10  2.97019965E-12  2.56529597E-02
  1.25523497E-11  1.00652009E-09  1.66297688E-01 -3.12958642E-12 -5.42465704E-10
 -3.08920546E-01 -3.73453429E-03 -8.94100258E-10 -5.37279066E-12 -3.12253221E-02
  8.82953565E-10 -9.32682333E-12  3.49598594E-02  8.95590152E-10  6.91636932E-04
  9.29535601E-11 -8.84133450E-10 -1.46089245E-02 -3.79801806E-10 -1.95578083E-13
  1.39172822E-02 -7.87011440E-12 -3.60314425E-10 -2.35137688E-02 -6.89796309E-12
  3.21396108E-11  1.42622862E-01  1.48646247E-11  3.09072754E-10 -1.19109087E-01
  1.03523992E-02  6.05845647E-13  3.44963541E-02  4.66557646E-10  1.74295011E-11
 -1.42783910E-01 -1.10440266E-02 -5.74469034E-10 -3.59964089E-10  2.56529530E-02
  5.71909369E-10 -3.07618133E-02 -1.26300733E-12  2.22096526E-12  6.19871391E-02
 -3.75023392E-10 -2.09464907E-11  1.66297688E-01  4.32323206E-10  8.82769255E-12
 -3.08920546E-01  6.91636939E-04  5.73453165E-10  4.01688133E-11 -1.46089247E-02
 -5.73808697E-10 -2.46662313E-10  1.39172871E-02 -5.72487535E-10 -3.73453436E-03
 -1.61353740E-11  5.72256229E-10 -3.12253219E-02  1.20374314E-11  3.19691491E-13
  3.49598595E-02 -7.16316304E-11  3.49816596E-12 -2.35137687E-02 -6.97797940E-11
 -7.53918219E-12  1.42622862E-01  1.84011553E-10  3.83759918E-12 -1.19109082E-01
 -5.16567089E-02 -4.62307472E-12 -5.16567090E-02 -4.53884236E-12  1.25044220E-12
  3.96450004E-01  4.41268776E-02  6.76315090E-12  4.36889481E-12 -6.86366979E-02
  6.25003730E-12  4.41268776E-02 -4.22594056E-12 -1.08424070E-11 -6.86366980E-02
  4.73594803E-12 -2.24603004E-12 -4.15180133E-01 -3.93940800E-12  1.41820700E-11
  6.87113334E-01  7.52982915E-03 -2.10413617E-12  1.69947550E-13  2.45098249E-02
  4.48353255E-12 -7.96540032E-13 -3.20396458E-02 -1.52639398E-12  7.52982916E-03
  2.97549837E-12  4.00628090E-12  2.45098250E-02 -1.19360400E-11 -2.38733647E-12
 -3.20396454E-02 -1.97105672E-13  9.95587847E-13  1.87301254E-02 -4.29486810E-13
 -9.95612946E-12 -2.71933199E-01  6.26592483E-13  8.96054161E-12  2.53203090E-01
 -1.34878694E-01  9.88131828E-13 -1.34878694E-01 -7.28273828E-12  5.51736444E-12
  1.18375666E+00  1.32268018E-01 -2.25354496E-12  8.65221959E-12 -3.15587922E-01
 -3.97307547E-13  1.32268018E-01 -5.92225922E-12 -6.97732867E-13 -3.15587922E-01
  8.21249457E-12 -5.70760303E-12 -1.06543377E+00 -9.38306924E-12  4.08843858E-12
  1.59422087E+00  2.61068161E-03  1.24928931E-12 -1.36948131E-12  1.83319912E-01
  1.09382261E-12  1.17057467E-12 -1.85930601E-01 -6.20543474E-13  2.61068165E-03
  4.04894774E-13  2.99241073E-12  1.83319912E-01  1.61916445E-12 -2.35531582E-12
 -1.85930601E-01 -9.29756287E-13  1.90238584E-13 -1.18322881E-01  7.30849646E-13
  1.83382064E-12 -5.28787089E-01  1.98906642E-13 -2.02405922E-12  6.47109986E-01
Dipole Moment                              R   N=           3
  0.00000000E+00 -4.43867474-101  2.43834764E-01
Dipole Derivatives                         R   N=          27
 -7.20149883E-02  0.00000000E+00 -4.84891202E-85  0.00000000E+00 -7.20149883E-02
  5.24973131-101  0.00000000E+00  2.27021346-100 -5.94064858E-02  4.11513644E-02
  0.00000000E+00 -8.52697653E-85  0.00000000E+00  4.11513644E-02 -3.02556937-100
 -1.64721843E-83 -6.67040018-100  3.62490409E-01  3.08636239E-02  0.00000000E+00
 -1.71890551E-85  0.00000000E+00  3.08636239E-02  2.50059624-100  0.00000000E+00
  4.40018672-100 -3.03083923E-01
Polarizability                             R   N=           6
  2.94420528E+00  0.00000000E+00  2.94420528E+00  1.26595625E-82 -4.70299746-101
  2.07097247E+01
Quadrupole Moment                          R   N=           6
  7.66803691E-01  7.66803691E-01 -1.53360738E+00  0.00000000E+00  2.77162831E-84
  7.37762989-100
NDeriv for static properties               I                4
ND12 for static properties                 I               -2
Dipole Moment num derivs                   R   N=          24
 -1.40868580E-02  1.75202031E-35 -7.47887993E-86 -4.92035969E-18 -1.40868580E-02
  2.97587756-100  0.00000000E+00  1.99201243-101  4.00080065E-02 -2.05902304E-84
 -2.42473272-100  1.17379962E-01 -1.81958096E-14  2.61807428E-11 -1.39430296E-02
 -1.73072473E-11  5.57662571E-14 -1.39430296E-02 -1.57100588E-14 -1.89084147E-14
 -1.30493478E-02 -1.49012530E-14 -1.32094126E-14 -2.80949099E-01
Dipole Derivatives num derivs              R   N=         216
 -7.26302715E-13  2.41711085E-11 -7.37418120E-04 -2.42213826E-11 -8.81991466E-13
 -9.30662057E-12 -1.37042897E-01  7.83171750E-13 -9.50288891E-13 -1.99017225E-13
 -8.15932318E-11  4.40196685E-02  8.16006215E-11  8.26178518E-14  2.08839584E-11
  9.74262671E-02 -8.44167091E-12  2.57033317E-13  1.91489821E-13  5.74221233E-11
 -4.32822504E-02 -5.73792389E-11  1.18051730E-13 -1.15773378E-11  3.96166300E-02
  7.65849916E-12 -2.93752362E-14 -4.02440736E-13  2.38355109E-11 -5.83040589E-12
 -2.37340054E-11 -2.39408175E-13 -7.37418120E-04  4.01298711E-13 -1.37042897E-01
 -8.34256708E-13 -1.14930612E-13 -5.35871327E-11  2.85337353E-12  5.35771358E-11
 -3.01830552E-13  4.40196685E-02 -2.86612811E-12  9.74262671E-02  2.23251795E-13
  4.60824018E-14  2.97516218E-11  2.97703236E-12 -2.98431304E-11  1.63950537E-13
 -4.32822504E-02  2.46482940E-12  3.96166300E-02  2.12970462E-13 -6.42709502E-02
  2.68304650E-14 -4.98489848E-14  1.07230071E-14 -6.42709502E-02 -9.74389825E-14
 -7.40758244E-14 -8.06299302E-14 -1.13159059E-01  1.03033159E-01 -6.48644123E-14
  1.90721008E-13 -4.23351960E-14  1.03033159E-01  2.78243030E-13  6.69184834E-14
  6.22235508E-14  1.66503424E-01 -3.87622089E-02  3.81894166E-14 -1.40872023E-13
  3.21278042E-14 -3.87622089E-02 -1.80804048E-13  7.15734101E-15  1.84063794E-14
 -5.33443650E-02  2.74156073E-02  3.24840060E-14 -1.62210514E-14  7.39263047E-15
  2.74156073E-02  9.09218357E-14 -9.45855803E-15  1.30965921E-14  5.51368142E-01
 -9.81785978E-02 -5.32431488E-14  1.32894145E-13 -3.88200963E-14 -9.81785978E-02
 -2.40133134E-13 -4.59888007E-14 -4.08039555E-14 -8.68317985E-01  7.07629905E-02
  2.10500262E-14 -1.16673094E-13  3.14533267E-14  7.07629905E-02  1.49211299E-13
  5.54473588E-14  2.77073634E-14  3.16949843E-01  3.06571216E-02  6.10794762E-10
  5.85877523E-11 -6.08153479E-10  7.68487873E-03  1.20936582E-09  1.16913188E-11
 -3.03235762E-10  6.87842059E-04 -2.75133604E-02 -8.90629263E-10 -6.78496037E-11
  8.97645287E-10 -9.25386537E-03 -2.10379524E-09 -2.19490028E-11  7.78202575E-10
 -2.95432970E-02 -3.14376130E-03  2.79834501E-10  9.29312290E-12 -2.89491808E-10
  1.56898659E-03  8.94429423E-10  1.02825798E-11 -4.74966813E-10  2.88554549E-02
  7.68487864E-03 -2.19314368E-09 -4.39443614E-09  2.19647775E-09  3.06571216E-02
  6.81823575E-11  3.86530562E-10 -2.15670645E-11  6.87842152E-04 -9.25386528E-03
  4.52394878E-09  1.94496816E-09 -4.52439301E-09 -2.75133605E-02 -6.84808037E-11
 -1.68014422E-09  3.92600970E-11 -2.95432973E-02  1.56898669E-03 -2.33080510E-09
  2.44946798E-09  2.32791527E-09 -3.14376114E-03  2.61709691E-13  1.29361366E-09
 -1.76729943E-11  2.88554552E-02 -1.90315691E-02  2.90003544E-12  6.95444220E-12
  7.51655944E-13 -1.90315691E-02 -2.81381776E-12  5.09298956E-12 -7.36629230E-13
 -4.44138547E-03  3.83631246E-02 -5.60590250E-12 -1.05225419E-11 -2.48478989E-12
  3.83631246E-02 -2.62816300E-12 -1.12802956E-11 -4.40584746E-12  8.05817071E-02
 -1.93315556E-02  2.70256037E-12  3.56809967E-12  1.73759973E-12 -1.93315556E-02
  5.44198076E-12  6.18730603E-12  5.14247669E-12 -7.61403217E-02 -9.72613936E-03
  3.29791258E-13  2.76331592E-12  4.28165044E-12 -9.72613936E-03 -5.92342484E-12
 -6.78893095E-12 -1.11234724E-11  5.40305445E-02  1.10102135E-01 -1.93882973E-12
  3.67487742E-12 -7.08731287E-12  1.10102135E-01 -2.47529003E-12  1.93800233E-11
  1.55800652E-11  6.60414528E-01 -1.00375996E-01  1.57608222E-12 -6.43819334E-12
  2.81447038E-12 -1.00375996E-01  8.39871487E-12 -1.25910924E-11 -4.45659279E-12
 -7.14445073E-01
Polarizability num derivs                  R   N=          48
  1.29251039E-13 -5.43734747E-14 -1.17500945E-12 -3.32805801E-02 -5.28801685E-11
  1.50401209E-12  7.87256330E-13  1.38710736E-14  4.93503968E-13 -2.00793169E-11
 -3.32805801E-02  3.76003023E-13 -2.51350585E-01  2.16718125E-13 -2.51350585E-01
  4.31801780E-13  3.52227086E-13 -3.51484445E+00  1.60409177E-01 -1.74046301E-14
  1.60409177E-01 -2.27682529E-13 -1.14645087E-13 -1.53003351E+00  5.53972510E-01
  1.02950269E-11  4.32092768E-02  5.73265667E-11  4.63123712E-09  1.31603627E-01
  4.32092766E-02  1.20042539E-11  5.53972510E-01 -1.01406389E-08 -1.51476476E-10
  1.31603627E-01 -6.21136178E-02  8.95503807E-12 -6.21136177E-02 -3.09819813E-11
 -2.94044344E-11  2.91794777E-01 -4.09074368E-01 -1.41621484E-11 -4.09074368E-01
  1.11444231E-10  6.80899050E-11 -1.63859580E-01
Quadrupole Moment num derivs               R   N=          48
  1.55101247E-12  1.50401209E-12 -3.05502456E-12  3.03587734E-14  2.44556864E-02
  1.32311947E-13  1.41001134E-13  2.35001889E-13 -5.17004157E-13 -1.42963114E-14
  3.91964686E-14  2.44556864E-02  2.33101856E-01  2.33101856E-01 -4.66203712E-01
  1.63408148E-15  1.34562060E-13  1.96311147E-13 -9.78133772E-02 -9.78133772E-02
  1.95626754E-01 -1.62127299E-13 -4.85092687E-14  1.98948387E-14 -3.09384089E-02
 -5.27874357E-02  8.37258446E-02 -7.20805696E-13 -1.54032244E-11  1.39271744E-11
 -5.27874359E-02 -3.09384090E-02  8.37258449E-02 -5.76986568E-13 -4.79641840E-12
 -1.15437655E-11 -2.19533329E-02 -2.19533329E-02  4.39066657E-02 -1.29930778E-11
 -1.57591649E-11 -1.60331782E-11 -2.37788567E-02 -2.37788566E-02  4.75577133E-02
 -5.87826645E-12  3.84274890E-11  1.40423870E-11
QEq coupling tensors                       R   N=          18
  3.56343748E-01  0.00000000E+00  3.56343748E-01  8.22534799E-84  4.68212905-118
 -7.12687496E-01  4.11477251E-01  0.00000000E+00  4.11477251E-01  3.09698022E-84
 -1.36828423-117 -8.22954503E-01  1.11056649E+00  0.00000000E+00  1.11056649E+00
  1.42915005E-83  3.11184989-117 -2.22113299E+00
NDeriv for magnetic props                  I                4
ND12 for magnetic props                    I               -2
QEq coupling tensors num derivs            R   N=         144
 -2.00485987E-12 -1.36351583E-13  1.00316432E-12  3.69118909E-01 -7.87643645E-15
 -2.00632863E-12 -1.00169555E-12 -7.34666364E-16 -1.00169555E-12 -2.52305803E-02
  7.34603797E-15 -1.00463308E-12  1.00463308E-12  6.40776289E-16 -2.00339111E-12
 -7.33203464E-01 -3.40698054E-15  9.98758030E-13  0.00000000E+00  2.71344033E-13
  0.00000000E+00 -7.13088240E-15  3.69118909E-01 -4.52492748E-98  3.00802419E-12
 -3.09229595E-15 -3.00802419E-12 -7.13257433E-15 -2.52305803E-02  4.73149109E-98
 -5.01141529E-12 -5.53461681E-13 -2.00339111E-12  4.06627114E-13 -7.33203464E-01
 -5.01729034E-12 -6.00614850E-02 -2.41602868E-13 -6.00614850E-02 -4.07642738E-15
 -2.32069241E-13  1.20122970E-01 -8.22071088E-03  3.40246483E-13 -8.22071089E-03
  5.14598101E-14 -8.01722460E-15  1.64414218E-02 -4.89991988E-02 -8.25571683E-14
 -4.89991988E-02  2.09824035E-15 -1.13341983E-13  9.79983976E-02  2.25294758E-01
 -7.15650341E-14  2.25294758E-01 -1.23380771E-13 -8.50686653E-15 -4.50589517E-01
  1.26057947E-01  3.58630233E-13  1.26057947E-01 -1.17919440E-14  5.85978942E-15
 -2.52115893E-01 -5.01461155E-01  5.13239225E-13 -5.01461155E-01 -3.28427508E-13
 -1.73194199E-13  1.00292231E+00 -1.03559401E-01  1.44375376E-11 -7.73793964E-02
  1.46800313E-11 -3.27921132E-13  1.80938797E-01 -6.85351139E-02  9.57106462E-14
  5.07733202E-02 -1.75606596E-12  2.85210639E-13  1.77617934E-02 -3.68497844E-01
 -6.43722064E-14  9.36934643E-02  9.21509576E-12 -5.57516209E-13  2.74804381E-01
 -7.73793957E-02  2.87312027E-11 -1.03559401E-01  7.35947981E-13 -1.46581716E-11
  1.80938797E-01  5.07733204E-02  9.94681683E-14 -6.85351137E-02  1.12167107E-13
  8.23869394E-12  1.77617933E-02  9.36934627E-02 -5.79642404E-11 -3.68497843E-01
 -7.19690283E-12 -8.63702702E-12  2.74804381E-01  4.06858121E-03  7.02904852E-12
  4.06858153E-03  5.35700952E-13 -1.50676233E-12 -8.13716242E-03  1.43874329E-02
  1.40728984E-11  1.43874332E-02 -8.67654136E-12  8.65959539E-13 -2.87748660E-02
 -1.41000235E-02  4.52358948E-11 -1.41000228E-02  4.52763510E-12 -1.25419072E-11
  2.82000476E-02 -6.95159580E-02 -8.07341112E-12 -6.95159580E-02 -1.43977503E-11
 -8.60930885E-13  1.39031916E-01 -1.12394453E-01 -9.66809787E-12 -1.12394453E-01
  1.39909333E-12  1.23716839E-12  2.24788906E-01  3.26228812E-01  5.57399910E-11
  3.26228812E-01 -3.70942504E-11  1.74790624E-11 -6.52457624E-01
Number of Normal Modes                     I                4
Vib-LE2Fix                                 I               14
Vib-NDFDPol                                I                0
Vib-NumROA                                 I                0
Vib-NDim                                   I                3
Vib-NDim0                                  I                3
Vib-LFlags                                 I                8
Vib-IFlags                                 I   N=          32
           0           0           1           0           0           0
           0           0           0           0           2           0
           0           0           0           0           0           0
           3           0           0           0           0           0
           0           0           4           0           0           0
           0           0
Vib-AtMass                                 R   N=           3
  1.40030740E+01  1.40030740E+01  1.59949146E+01
Vib-E2                                     R   N=          56
  4.13420165E+02  4.13420165E+02  1.18505872E+03  2.14420213E+03  1.42650896E+01
  1.42650896E+01  1.48656498E+01  1.43069076E+01  1.43650790E+00  1.43650790E+00
  1.23002472E+01  3.87549714E+01  1.93454805E-01  1.93454805E-01  1.56043281E+00
  1.34319534E+01  0.00000000E+00  0.00000000E+00  0.00000000E+00  0.00000000E+00
  0.00000000E+00  0.00000000E+00  0.00000000E+00  0.00000000E+00  0.00000000E+00
  0.00000000E+00  0.00000000E+00  0.00000000E+00  0.00000000E+00  0.00000000E+00
  0.00000000E+00  0.00000000E+00  0.00000000E+00  0.00000000E+00  0.00000000E+00
  0.00000000E+00  0.00000000E+00  0.00000000E+00  0.00000000E+00  0.00000000E+00
  0.00000000E+00  0.00000000E+00  0.00000000E+00  0.00000000E+00  0.00000000E+00
  0.00000000E+00  0.00000000E+00  0.00000000E+00  0.00000000E+00  0.00000000E+00
  0.00000000E+00  0.00000000E+00  0.00000000E+00  0.00000000E+00  0.00000000E+00
  0.00000000E+00
Vib-Modes                                  R   N=          36
 -1.46147315E-16 -4.18415846E-01 -4.84581872E-99  2.90850314E-16  8.32696657E-01
 -3.22101887E-99 -1.26683190E-16 -3.62690579E-01  2.71100318E-99 -4.18415846E-01
  1.46147315E-16 -3.29215572E-84  8.32696657E-01 -2.90850314E-16 -3.98516514E-84
 -3.62690579E-01  1.26683190E-16  3.33170588E-84  0.00000000E+00 -1.53017827E-99
  7.52956653E-01  0.00000000E+00  3.04523440E-99 -1.28203035E-03  0.00000000E+00
 -1.32638677E-99 -6.58068868E-01  0.00000000E+00  7.89472147-100 -3.88476505E-01
  0.00000000E+00 -1.57114226E-99  8.34593862E-01  0.00000000E+00  6.84329031-100
 -3.90562532E-01
Anharmonic Number of Normal Modes          I               14
Anharmonic Vib-LE2Fix                      I               14
Anharmonic Vib-NDFDPol                     I                0
Anharmonic Vib-NumROA                      I                0
Anharmonic Vib-NDim                        I                3
Anharmonic Vib-NDim0                       I                3
Anharmonic Vib-LFlags                      I                8
Anharmonic Vib-IFlags                      I   N=         112
           1           0           4           0           0           0
           0           0           1           0           3           0
           0           0           0           0           1           0
           2           0           0           0           0           0
           1           0           1           0           0           0
           0           0           2           0           4           0
           0           0           0           0           3           0
           4           3           0           0           0           0
           2           0           3           0           0           0
           0           0           3           0           4           2
           0           0           0           0           3           0
           3           2           0           0           0           0
           2           0           2           0           0           0
           0           0           3           0           4           1
           0           0           0           0           3           0
           3           1           0           0           0           0
           3           0           2           1           0           0
           0           0           2           0           1           0
           0           0           0           0
Anharmonic Vib-AtMass                      R   N=           3
  1.40030740E+01  1.40030740E+01  1.59949146E+01
Anharmonic Vib-E2                          R   N=         196
  4.17019379E+02  4.17019378E+02  1.17699779E+03  2.09728208E+03  8.38316902E+02
  8.40668723E+02  8.37066807E+02  1.59880724E+03  1.59880724E+03  2.34944667E+03
  2.50277364E+03  2.50277364E+03  3.25767565E+03  4.16747401E+03  0.00000000E+00
  0.00000000E+00  0.00000000E+00  0.00000000E+00  0.00000000E+00  0.00000000E+00
  0.00000000E+00  0.00000000E+00  0.00000000E+00  0.00000000E+00  0.00000000E+00
  0.00000000E+00  0.00000000E+00  0.00000000E+00  0.00000000E+00  0.00000000E+00
  0.00000000E+00  0.00000000E+00  0.00000000E+00  0.00000000E+00  0.00000000E+00
  0.00000000E+00  0.00000000E+00  0.00000000E+00  0.00000000E+00  0.00000000E+00
  0.00000000E+00  0.00000000E+00  1.89824423E-01  1.89824423E-01  1.87030307E+00
  1.30323113E+01  5.12543436E-04  7.52183086E-20  1.50322255E-16  1.99647710E-01
  1.99647710E-01  1.10674100E-01  1.64714070E-01  1.64714069E-01  8.58370975E-01
  1.88325836E+00  0.00000000E+00  0.00000000E+00  0.00000000E+00  0.00000000E+00
  0.00000000E+00  0.00000000E+00  0.00000000E+00  0.00000000E+00  0.00000000E+00
  0.00000000E+00  0.00000000E+00  0.00000000E+00  0.00000000E+00  0.00000000E+00
  0.00000000E+00  0.00000000E+00  0.00000000E+00  0.00000000E+00  0.00000000E+00
  0.00000000E+00  0.00000000E+00  0.00000000E+00  0.00000000E+00  0.00000000E+00
  0.00000000E+00  0.00000000E+00  0.00000000E+00  0.00000000E+00  0.00000000E+00
  0.00000000E+00  0.00000000E+00  0.00000000E+00  0.00000000E+00  0.00000000E+00
  0.00000000E+00  0.00000000E+00  0.00000000E+00  0.00000000E+00  0.00000000E+00
  0.00000000E+00  0.00000000E+00  0.00000000E+00  1.81594736E+00  1.81594736E+00
  6.33933560E+00  2.47897419E+01  2.43910141E-03  3.56948924E-19  7.16424725E-16
  4.98167773E-01  4.98167773E-01  1.87926407E-01  2.62552724E-01  2.62552724E-01
  1.05117394E+00  1.80278695E+00  0.00000000E+00  0.00000000E+00  0.00000000E+00
  0.00000000E+00  0.00000000E+00  0.00000000E+00  0.00000000E+00  0.00000000E+00
  0.00000000E+00  0.00000000E+00  0.00000000E+00  0.00000000E+00  0.00000000E+00
  0.00000000E+00  0.00000000E+00  0.00000000E+00  0.00000000E+00  0.00000000E+00
  0.00000000E+00  0.00000000E+00  0.00000000E+00  0.00000000E+00  0.00000000E+00
  0.00000000E+00  0.00000000E+00  0.00000000E+00  0.00000000E+00  0.00000000E+00
  0.00000000E+00  0.00000000E+00  0.00000000E+00  0.00000000E+00  0.00000000E+00
  0.00000000E+00  0.00000000E+00  0.00000000E+00  0.00000000E+00  0.00000000E+00
  0.00000000E+00  0.00000000E+00  0.00000000E+00  0.00000000E+00  0.00000000E+00
  0.00000000E+00  0.00000000E+00  0.00000000E+00  0.00000000E+00  0.00000000E+00
  0.00000000E+00  0.00000000E+00  0.00000000E+00  0.00000000E+00  0.00000000E+00
  0.00000000E+00  0.00000000E+00  0.00000000E+00  0.00000000E+00  0.00000000E+00
  0.00000000E+00  0.00000000E+00  0.00000000E+00  0.00000000E+00  0.00000000E+00
  0.00000000E+00  0.00000000E+00  0.00000000E+00  0.00000000E+00  0.00000000E+00
  0.00000000E+00  0.00000000E+00  0.00000000E+00  0.00000000E+00  0.00000000E+00
  0.00000000E+00  0.00000000E+00  0.00000000E+00  0.00000000E+00  0.00000000E+00
  0.00000000E+00  0.00000000E+00  0.00000000E+00  0.00000000E+00  0.00000000E+00
  0.00000000E+00
Anharmonic Vib-Modes                       R   N=         126
  1.10782426E-01  6.44282603E-33  2.47832952E-18 -2.20470034E-01 -1.18425846E-32
 -4.93216670E-18  9.60282520E-02  5.10931923E-34  2.14826177E-18  3.86948874E-17
  1.10782426E-01  8.65648867E-34 -7.70073689E-17 -2.20470034E-01 -1.72274288E-33
  3.35414427E-17  9.60282520E-02  7.50360418E-34 -4.37306991E-18 -3.97255847-100
  1.95478160E-01  1.65247413E-20  7.90585775-100 -7.38663249E-04  3.81402626E-18
 -3.44348702-100 -1.70488662E-01  2.19858085E-18  1.99722189-100 -9.82775368E-02
 -4.93600555E-18 -3.97470604-100  2.20641633E-01  2.39653425E-18  1.73122880-100
 -1.07126142E-01 -1.56670094E-01 -1.56669925E-01 -3.16054415E-02  3.11791881E-01
  3.11791543E-01 -7.04210310E-04 -1.35804530E-01 -1.35804383E-01  2.82861431E-02
 -1.10782426E-01 -1.10782426E-01 -2.47832952E-18  2.20470034E-01  2.20470034E-01
  4.93216670E-18 -9.60282520E-02 -9.60282520E-02 -2.14826177E-18  1.56669925E-01
 -1.56670094E-01 -1.71271024E-08 -3.11791543E-01  3.11791881E-01 -3.81614108E-10
  1.35804383E-01 -1.35804530E-01  1.53283627E-08  1.05302332E-01  6.12411761E-33
  1.95289110E-01 -2.09564004E-01 -1.12567654E-32 -3.32511260E-04  9.12780053E-02
  4.85657562E-34 -1.70678728E-01  3.24119199E-17  1.05302332E-01  1.95289110E-01
 -7.31905930E-17 -2.09564004E-01 -3.32511260E-04  3.57005205E-17  9.12780053E-02
 -1.70678728E-01 -9.16424323E-18 -8.32492797-100  4.09645728E-01  4.27374853E-19
  1.65675840E-99 -1.91038450E-02  7.64886948E-18 -7.21620124-100 -3.41907851E-01
  1.10548416E-01  6.42921658E-33 -1.02705067E-01 -2.20004326E-01 -1.18175691E-32
  2.20649171E-01  9.58254075E-02  5.09852660E-34 -1.03256569E-01  4.09107804E-17
  1.10548416E-01 -1.02705067E-01 -8.17808773E-17 -2.20004326E-01  2.20649171E-01
  3.57805593E-17  9.58254075E-02 -1.03256569E-01 -2.01686444E-18 -1.83214814-100
  9.01547330E-02 -4.92882808E-18  3.64618990-100  2.20320796E-01  6.08074807E-18
 -1.58813983-100 -2.71812130E-01  4.43769206E-18  4.03126214-100 -1.98366799E-01
 -9.87208011E-18 -8.02268494-100  4.41286350E-01  4.75764578E-18  3.49437244-100
 -2.12668872E-01
Anharmonic number of displacements         I                4
Anharmonic displacement N1                 I                0
Anharmonic displacement flags              I   N=           4
           1           2           3           4
Anharmonic displacements                   R   N=          36
  1.10782426E-01 -9.49472108E-34 -2.33900651E-85 -2.20470034E-01  2.83405424E-33
 -4.11926653E-86  9.60282520E-02 -5.42649232E-33  9.23555769E-86  3.86948874E-17
  1.10782426E-01  5.03695184-100 -7.70073689E-17 -2.20470034E-01  2.59348074-101
  3.35414427E-17  9.60282520E-02 -7.07174692-100  0.00000000E+00 -3.96871653-100
  1.95289110E-01  0.00000000E+00  7.89821184-100 -3.32511260E-04  0.00000000E+00
 -3.44015675-100 -1.70678728E-01  0.00000000E+00  2.08719933-100 -1.02705067E-01
  0.00000000E+00 -4.15377171-100  2.20649171E-01  0.00000000E+00  1.80922291-100
 -1.03256569E-01
ClPar MaxAn                                I              200
ClPar NIntPar                              I               12
ClPar NRealPar                             I               16
ClPar NBits                                I               30
ClPar LenBitVec                            I                1
ClPar Read BitMap                          I   N=         200
           0           0           0           0           0           0
           0           0           0           0           0           0
           0           0           0           0           0           0
           0           0           0           0           0           0
           0           0           0           0           0           0
           0           0           0           0           0           0
           0           0           0           0           0           0
           0           0           0           0           0           0
           0           0           0           0           0           0
           0           0           0           0           0           0
           0           0           0           0           0           0
           0           0           0           0           0           0
           0           0           0           0           0           0
           0           0           0           0           0           0
           0           0           0           0           0           0
           0           0           0           0           0           0
           0           0           0           0           0           0
           0           0           0           0           0           0
           0           0           0           0           0           0
           0           0           0           0           0           0
           0           0           0           0           0           0
           0           0           0           0           0           0
           0           0           0           0           0           0
           0           0           0           0           0           0
           0           0           0           0           0           0
           0           0           0           0           0           0
           0           0           0           0           0           0
           0           0           0           0           0           0
           0           0           0           0           0           0
           0           0           0           0           0           0
           0           0           0           0           0           0
           0           0           0           0           0           0
           0           0           0           0           0           0
           0           0
ClPar Default BitMap                       I   N=         200
      516096      516096      516096      516096      516096      516096
      516096      516096      516096      516096      516096      516096
      516096      516096      516096      516096      516096      516096
      516096      516096      516096      516096      516096      516096
      516096      516096      516096      516096      516096      516096
      516096      516096      516096      516096      516096      516096
      516096      516096      516096      516096      516096      516096
      516096      516096      516096      516096      516096      516096
      516096      516096      516096      516096      516096      516096
      516096      516096      516096      516096      516096      516096
      516096      516096      516096      516096      516096      516096
      516096      516096      516096      516096      516096      516096
      516096      516096      516096      516096      516096      516096
      516096      516096      516096      516096      516096      516096
      516096      516096      122880      122880      122880      122880
      122880      122880      122880      122880      122880      122880
      122880      122880      122880      122880      122880      122880
      122880      122880      122880      122880      122880      122880
      122880      122880      122880      122880      122880      122880
      122880      122880      122880      122880      122880      122880
      122880      122880      122880      122880      122880      122880
      122880      122880      122880      122880      122880      122880
      122880      122880      122880      122880      122880      122880
      122880      122880      122880      122880      122880      122880
      122880      122880      122880      122880      122880      122880
      122880      122880      122880      122880      122880      122880
      122880      122880      122880      122880      122880      122880
      122880      122880      122880      122880      122880      122880
      122880      122880      122880      122880      122880      122880
      122880      122880      122880      122880      122880      122880
      122880      122880      122880      122880      122880      122880
      122880      122880      122880      122880      122880      122880
      122880      122880      122880      122880      122880      122880
      122880      122880
ClPar Int Params                           I   N=        2400
           0           0           0           0           0           0
           0           0           0           0           0           0
           0           0           0           0           0           0
           0           0           0           0           0           0
           0           0           0           0           0           0
           0           0           0           0           0           0
           0           0           0           0           0           0
           0           0           0           0           0           0
           0           0           0           0           0           0
           0           0           0           0           0           0
           0           0           0           0           0           0
           0           0           0           0           0           0
           0           0           0           0           0           0
           0           0           0           0           0           0
           0           0           0           0           0           0
           0           0           0           0           0           0
           0           0           0           0           0           0
           0           0           0           0           0           0
           0           0           0           0           0           0
           0           0           0           0           0           0
           0           0           0           0           0           0
           0           0           0           0           0           0
           0           0           0           0           0           0
           0           0           0           0           0           0
           0           0           0           0           0           0
           0           0           0           0           0           0
           0           0           0           0           0           0
           0           0           0           0           0           0
           0           0           0           0           0           0
           0           0           0           0           0           0
           0           0           0           0           0           0
           0           0           0           0           0           0
           0           0           0           0           0           0
           0           0           0           0           0           0
           0           0           0           0           0           0
           0           0           0           0           0           0
           0           0           0           0           0           0
           0           0           0           0           0           0
           0           0           0           0           0           0
           0           0           0           0           0           0
           0           0           0           0           0           0
           0           0           0           0           0           0
           0           0           0           0           0           0
           0           0           0           0           0           0
           0           0           0           0           0           0
           0           0           0           0           0           0
           0           0           0           0           0           0
           0           0           0           0           0           0
           0           0           0           0           0           0
           0           0           0           0           0           0
           0           0           0           0           0           0
           0           0           0           0           0           0
           0           0           0           0           0           0
           0           0           0           0           0           0
           0           0           0           0           0           0
           0           0           0           0           0           0
           0           0           0           0           0           0
           0           0           0           0           0           0
           0           0           0           0           0           0
           0           0           0           0           0           0
           0           0           0           0           0           0
           0           0           0           0           0           0
           0           0           0           0           0           0
           0           0           0           0           0           0
           0           0           0           0           0           0
           0           0           0           0           0           0
           0           0           0           0           0           0
           0           0           0           0           0           0
           0           0           0           0           0           0
           0           0           0           0           0           0
           0           0           0           0           0           0
           0           0           0           0           0           0
           0           0           0           0           0           0
           0           0           0           0           0           0
           0           0           0           0           0           0
           0           0           0           0           0           0
           0           0           0           0           0           0
           0           0           0           0           0           0
           0           0           0           0           0           0
           0           0           0           0           0           0
           0           0           0           0           0           0
           0           0           0           0           0           0
           0           0           0           0           0           0
           0           0           0           0           0           0
           0           0           0           0           0           0
           0           0           0           0           0           0
           0           0           0           0           0           0
           0           0           0           0           0           0
           0           0           0           0           0           0
           0           0           0           0           0           0
           0           0           0           0           0           0
           0           0           0           0           0           0
           0           0           0           0           0           0
           0           0           0           0           0           0
           0           0           0           0           0           0
           0           0           0           0           0           0
           0           0           0           0           0           0
           0           0           0           0           0           0
           0           0           0           0           0           0
           0           0           0           0           0           0
           0           0           0           0           0           0
           0           0           0           0           0           0
           0           0           0           0           0           0
           0           0           0           0           0           0
           0           0           0           0           0           0
           0           0           0           0           0           0
           0           0           0           0           0           0
           0           0           0           0           0           0
           0           0           0           0           0           0
           0           0           0           0           0           0
           0           0           0           0           0           0
           0           0           0           0           0           0
           0           0           0           0           0           0
           0           0           0           0           0           0
           0           0           0           0           0           0
           0           0           0           0           0           0
           0           0           0           0           0           0
           0           0           0           0           0           0
           0           0           0           0           0           0
           0           0           0           0           0           0
           0           0           0           0           0           0
           0           0           0           0           0           0
           0           0           0           0           0           0
           0           0           0           0           0           0
           0           0           0           0           0           0
           0           0           0           0           0           0
           0           0           0           0           0           0
           0           0           0           0           0           0
           0           0           0           0           0           0
           0           0           0           0           0           0
           0           0           0           0           0           0
           0           0           0           0           0           0
           0           0           0           0           0           0
           0           0           0           0           0           0
           0           0           0           0           0           0
           0           0           0           0           0           0
           0           0           0           0           0           0
           0           0           0           0           0           0
           0           0           0           0           0           0
           0           0           0           0           0           0
           0           0           0           0           0           0
           0           0           0           0           0           0
           0           0           0           0           0           0
           0           0           0           0           0           0
           0           0           0           0           0           0
           0           0           0           0           0           0
           0           0           0           0           0           0
           0           0           0           0           0           0
           0           0           0           0           0           0
           0           0           0           0           0           0
           0           0           0           0           0           0
           0           0           0           0           0           0
           0           0           0           0           0           0
           0           0           0           0           0           0
           0           0           0           0           0           0
           0           0           0           0           0           0
           0           0           0           0           0           0
           0           0           0           0           0           0
           0           0           0           0           0           0
           0           0           0           0           0           0
           0           0           0           0           0           0
           0           0           0           0           0           0
           0           0           0           0           0           0
           0           0           0           0           0           0
           0           0           0           0           0           0
           0           0           0           0           0           0
           0           0           0           0           0           0
           0           0           0           0           0           0
           0           0           0           0           0           0
           0           0           0           0           0           0
           0           0           0           0           0           0
           0           0           0           0           0           0
           0           0           0           0           0           0
           0           0           0           0           0           0
           0           0           0           0           0           0
           0           0           0           0           0           0
           0           0           0           0           0           0
           0           0           0           0           0           0
           0           0           0           0           0           0
           0           0           0           0           0           0
           0           0           0           0           0           0
           0           0           0           0           0           0
           0           0           0           0           0           0
           0           0           0           0           0           0
           0           0           0           0           0           0
           0           0           0           0           0           0
           0           0           0           0           0           0
           0           0           0           0           0           0
           0           0           0           0           0           0
           0           0           0           0           0           0
           0           0           0           0           0           0
           0           0           0           0           0           0
           0           0           0           0           0           0
           0           0           0           0           0           0
           0           0           0           0           0           0
           0           0           0           0           0           0
           0           0           0           0           0           0
           0           0           0           0           0           0
           0           0           0           0           0           0
           0           0           0           0           0           0
           0           0           0           0           0           0
           0           0           0           0           0           0
           0           0           0           0           0           0
           0           0           0           0           0           0
           0           0           0           0           0           0
           0           0           0           0           0           0
           0           0           0           0           0           0
           0           0           0           0           0           0
           0           0           0           0           0           0
           0           0           0           0           0           0
           0           0           0           0           0           0
           0           0           0           0           0           0
           0           0           0           0           0           0
           0           0           0           0           0           0
           0           0           0           0           0           0
           0           0           0           0           0           0
           0           0           0           0           0           0
           0           0           0           0           0           0
           0           0           0           0           0           0
           0           0           0           0           0           0
           0           0           0           0           0           0
           0           0           0           0           0           0
           0           0           0           0           0           0
           0           0           0           0           0           0
           0           0           0           0           0           0
           0           0           0           0           0           0
           0           0           0           0           0           0
           0           0           0           0           0           0
           0           0           0           0           0           0
           0           0           0           0           0           0
           0           0           0           0           0           0
           0           0           0           0           0           0
           0           0           0           0           0           0
           0           0           0           0           0           0
           0           0           0           0           0           0
           0           0           0           0           0           0
           0           0           0           0           0           0
           0           0           0           0           0           0
           0           0           0           0           0           0
           0           0           0           0           0           0
           0           0           0           0           0           0
           0           0           0           0           0           0
           0           0           0           0           0           0
           0           0           0           0           0           0
           0           0           0           0           0           0
           0           0           0           0           0           0
           0           0           0           0           0           0
           0           0           0           0           0           0
           0           0           0           0           0           0
           0           0           0           0           0           0
           0           0           0           0           0           0
           0           0           0           0           0           0
           0           0           0           0           0           0
           0           0           0           0           0           0
           0           0           0           0           0           0
           0           0           0           0           0           0
           0           0           0           0           0           0
           0           0           0           0           0           0
           0           0           0           0           0           0
           0           0           0           0           0           0
           0           0           0           0           0           0
           0           0           0           0           0           0
           0           0           0           0           0           0
           0           0           0           0           0           0
           0           0           0           0           0           0
           0           0           0           0           0           0
           0           0           0           0           0           0
           0           0           0           0           0           0
           0           0           0           0           0           0
           0           0           0           0           0           0
           0           0           0           0           0           0
           0           0           0           0           0           0
           0           0           0           0           0           0
           0           0           0           0           0           0
           0           0           0           0           0           0
           0           0           0           0           0           0
           0           0           0           0           0           0
           0           0           0           0           0           0
           0           0           0           0           0           0
           0           0           0           0           0           0
           0           0           0           0           0           0
           0           0           0           0           0           0
           0           0           0           0           0           0
           0           0           0           0           0           0
           0           0           0           0           0           0
           0           0           0           0           0           0
           0           0           0           0           0           0
           0           0           0           0           0           0
           0           0           0           0           0           0
           0           0           0           0           0           0
           0           0           0           0           0           0
           0           0           0           0           0           0
           0           0           0           0           0           0
           0           0           0           0           0           0
           0           0           0           0           0           0
           0           0           0           0           0           0
           0           0           0           0           0           0
           0           0           0           0           0           0
           0           0           0           0           0           0
           0           0           0           0           0           0
           0           0           0           0           0           0
           0           0           0           0           0           0
           0           0           0           0           0           0
           0           0           0           0           0           0
           0           0           0           0           0           0
           0           0           0           0           0           0
           0           0           0           0           0           0
           0           0           0           0           0           0
           0           0           0           0           0           0
           0           0           0           0           0           0
           0           0           0           0           0           0
           0           0           0           0           0           0
           0           0           0           0           0           0
           0           0           0           0           0           0
           0           0           0           0           0           0
           0           0           0           0           0           0
           0           0           0           0           0           0
           0           0           0           0           0           0
           0           0           0           0           0           0
           0           0           0           0           0           0
           0           0           0           0           0           0
           0           0           0           0           0           0
           0           0           0           0           0           0
           0           0           0           0           0           0
           0           0           0           0           0           0
           0           0           0           0           0           0
           0           0           0           0           0           0
           0           0           0           0           0           0
           0           0           0           0           0           0
           0           0           0           0           0           0
           0           0           0           0           0           0
           0           0           0           0           0           0
           0           0           0           0           0           0
           0           0           0           0           0           0
           0           0           0           0           0           0
           0           0           0           0           0           0
           0           0           0           0           0           0
           0           0           0           0           0           0
           0           0           0           0           0           0
           0           0           0           0           0           0
           0           0           0           0           0           0
           0           0           0           0           0           0
           0           0           0           0           0           0
           0           0           0           0           0           0
           0           0           0           0           0           0
           0           0           0           0           0           0
           0           0           0           0           0           0
           0           0           0           0           0           0
           0           0           0           0           0           0
           0           0           0           0           0           0
           0           0           0           0           0           0
           0           0           0           0           0           0
           0           0           0           0           0           0
           0           0           0           0           0           0
           0           0           0           0           0           0
           0           0           0           0           0           0
           0           0           0           0           0           0
           0           0           0           0           0           0
           0           0           0           0           0           0
           0           0           0           0           0           0
           0           0           0           0           0           0
           0           0           0           0           0           0
           0           0           0           0           0           0
           0           0           0           0           0           0
           0           0           0           0           0           0
           0           0           0           0           0           0
           0           0           0           0           0           0
           0           0           0           0           0           0
           0           0           0           0           0           0
           0           0           0           0           0           0
           0           0           0           0           0           0
           0           0           0           0           0           0
           0           0           0           0           0           0
           0           0           0           0           0           0
           0           0           0           0           0           0
           0           0           0           0           0           0
           0           0           0           0           0           0
           0           0           0           0           0           0
           0           0           0           0           0           0
           0           0           0           0           0           0
           0           0           0           0           0           0
           0           0           0           0           0           0
           0           0           0           0           0           0
           0           0           0           0           0           0
           0           0           0           0           0           0
           0           0           0           0           0           0
           0           0           0           0           0           0
           0           0           0           0           0           0
           0           0           0           0           0           0
           0           0           0           0           0           0
           0           0           0           0           0           0
           0           0           0           0           0           0
           0           0           0           0           0           0
           0           0           0           0           0           0
           0           0           0           0           0           0
           0           0           0           0           0           0
           0           0           0           0           0           0
           0           0           0           0           0           0
           0           0           0           0           0           0
           0           0           0           0           0           0
ClPar Real Params                          R   N=        3200
  0.00000000E+00  0.00000000E+00  0.00000000E+00  0.00000000E+00  0.00000000E+00
  0.00000000E+00  0.00000000E+00  0.00000000E+00  0.00000000E+00  0.00000000E+00
  0.00000000E+00  0.00000000E+00  0.00000000E+00  0.00000000E+00  0.00000000E+00
  0.00000000E+00  0.00000000E+00  0.00000000E+00  0.00000000E+00  0.00000000E+00
  0.00000000E+00  0.00000000E+00  0.00000000E+00  0.00000000E+00  0.00000000E+00
  0.00000000E+00  0.00000000E+00  0.00000000E+00  0.00000000E+00  0.00000000E+00
  0.00000000E+00  0.00000000E+00  0.00000000E+00  0.00000000E+00  0.00000000E+00
  0.00000000E+00  0.00000000E+00  0.00000000E+00  0.00000000E+00  0.00000000E+00
  0.00000000E+00  0.00000000E+00  0.00000000E+00  0.00000000E+00  0.00000000E+00
  0.00000000E+00  0.00000000E+00  0.00000000E+00  0.00000000E+00  0.00000000E+00
  0.00000000E+00  0.00000000E+00  0.00000000E+00  0.00000000E+00  0.00000000E+00
  0.00000000E+00  0.00000000E+00  0.00000000E+00  0.00000000E+00  0.00000000E+00
  0.00000000E+00  0.00000000E+00  0.00000000E+00  0.00000000E+00  0.00000000E+00
  0.00000000E+00  0.00000000E+00  0.00000000E+00  0.00000000E+00  0.00000000E+00
  0.00000000E+00  0.00000000E+00  0.00000000E+00  0.00000000E+00  0.00000000E+00
  0.00000000E+00  0.00000000E+00  0.00000000E+00  0.00000000E+00  0.00000000E+00
  0.00000000E+00  0.00000000E+00  0.00000000E+00  0.00000000E+00  0.00000000E+00
  0.00000000E+00  0.00000000E+00  0.00000000E+00  0.00000000E+00  0.00000000E+00
  0.00000000E+00  0.00000000E+00  0.00000000E+00  0.00000000E+00  0.00000000E+00
  0.00000000E+00  0.00000000E+00  0.00000000E+00  0.00000000E+00  0.00000000E+00
  0.00000000E+00  0.00000000E+00  0.00000000E+00  0.00000000E+00  0.00000000E+00
  0.00000000E+00  0.00000000E+00  0.00000000E+00  0.00000000E+00  0.00000000E+00
  0.00000000E+00  0.00000000E+00  0.00000000E+00  0.00000000E+00  0.00000000E+00
  0.00000000E+00  0.00000000E+00  0.00000000E+00  0.00000000E+00  0.00000000E+00
  0.00000000E+00  0.00000000E+00  0.00000000E+00  0.00000000E+00  0.00000000E+00
  0.00000000E+00  0.00000000E+00  0.00000000E+00  0.00000000E+00  0.00000000E+00
  0.00000000E+00  0.00000000E+00  0.00000000E+00  0.00000000E+00  0.00000000E+00
  0.00000000E+00  0.00000000E+00  0.00000000E+00  0.00000000E+00  0.00000000E+00
  0.00000000E+00  0.00000000E+00  0.00000000E+00  0.00000000E+00  0.00000000E+00
  0.00000000E+00  0.00000000E+00  0.00000000E+00  0.00000000E+00  0.00000000E+00
  0.00000000E+00  0.00000000E+00  0.00000000E+00  0.00000000E+00  0.00000000E+00
  0.00000000E+00  0.00000000E+00  0.00000000E+00  0.00000000E+00  0.00000000E+00
  0.00000000E+00  0.00000000E+00  0.00000000E+00  0.00000000E+00  0.00000000E+00
  0.00000000E+00  0.00000000E+00  0.00000000E+00  0.00000000E+00  0.00000000E+00
  0.00000000E+00  0.00000000E+00  0.00000000E+00  0.00000000E+00  0.00000000E+00
  0.00000000E+00  0.00000000E+00  0.00000000E+00  0.00000000E+00  0.00000000E+00
  0.00000000E+00  0.00000000E+00  0.00000000E+00  0.00000000E+00  0.00000000E+00
  0.00000000E+00  0.00000000E+00  0.00000000E+00  0.00000000E+00  0.00000000E+00
  0.00000000E+00  0.00000000E+00  0.00000000E+00  0.00000000E+00  0.00000000E+00
  0.00000000E+00  0.00000000E+00  0.00000000E+00  0.00000000E+00  0.00000000E+00
  2.26000000E-01  4.43000000E-01  1.01000000E-01  1.47000000E-01  1.92000000E-01
  2.40000000E-01  2.75000000E-01  3.03000000E-01  3.25000000E-01  4.13000000E-01
  9.60000000E-02  1.35000000E-01  1.73000000E-01  2.11000000E-01  2.48000000E-01
  2.86000000E-01  3.23000000E-01  3.60000000E-01  8.20000000E-02  1.04000000E-01
  1.17000000E-01  1.23000000E-01  1.29000000E-01  1.34000000E-01  1.40000000E-01
  1.44000000E-01  1.48000000E-01  1.52000000E-01  1.55000000E-01  1.76000000E-01
  1.98000000E-01  2.19000000E-01  2.39000000E-01  2.60000000E-01  2.80000000E-01
  3.00000000E-01  7.90000000E-02  9.90000000E-02  1.19000000E-01  1.26000000E-01
  1.33000000E-01  1.40000000E-01  1.47000000E-01  1.53000000E-01  1.58000000E-01
  1.63000000E-01  1.57000000E-01  1.70000000E-01  1.87000000E-01  2.03000000E-01
  2.19000000E-01  2.34000000E-01  2.50000000E-01  2.65000000E-01  7.40000000E-02
  9.20000000E-02  1.05000000E-01  1.06000000E-01  1.07000000E-01  1.08000000E-01
  1.09000000E-01  1.10000000E-01  1.11000000E-01  1.12000000E-01  1.13000000E-01
  1.14000000E-01  1.15000000E-01  1.16000000E-01  1.17000000E-01  1.17000000E-01
  1.26000000E-01  1.36000000E-01  1.46000000E-01  1.55000000E-01  1.65000000E-01
  1.73000000E-01  1.82000000E-01  1.90000000E-01  1.62000000E-01  1.78000000E-01
  1.10000000E-01  1.35000000E-01  1.59000000E-01  1.83000000E-01  2.07000000E-01
  2.31000000E-01  6.90000000E-02  9.40000000E-02  1.02000000E-01  1.03000000E-01
  1.05000000E-01  1.07000000E-01  1.09000000E-01  1.11000000E-01  1.13000000E-01
  1.15000000E-01  1.17000000E-01  1.19000000E-01  1.20000000E-01  1.22000000E-01
  1.24000000E-01  1.26000000E-01  1.28000000E-01  1.28000000E-01  1.28000000E-01
  1.28000000E-01  1.28000000E-01  1.28000000E-01  1.28000000E-01  1.28000000E-01
  1.28000000E-01  1.28000000E-01  1.28000000E-01  1.28000000E-01  1.28000000E-01
  1.28000000E-01  1.28000000E-01  1.28000000E-01  1.28000000E-01  1.28000000E-01
  1.28000000E-01  1.28000000E-01  1.28000000E-01  1.28000000E-01  1.28000000E-01
  1.28000000E-01  1.28000000E-01  1.28000000E-01  1.28000000E-01  1.28000000E-01
  1.28000000E-01  1.28000000E-01  1.28000000E-01  1.28000000E-01  1.28000000E-01
  1.28000000E-01  1.28000000E-01  1.28000000E-01  1.28000000E-01  1.28000000E-01
  1.28000000E-01  1.28000000E-01  1.28000000E-01  1.28000000E-01  1.28000000E-01
  1.28000000E-01  1.28000000E-01  1.28000000E-01  1.28000000E-01  1.28000000E-01
  1.28000000E-01  1.28000000E-01  1.28000000E-01  1.28000000E-01  1.28000000E-01
  1.28000000E-01  1.28000000E-01  1.28000000E-01  1.28000000E-01  1.28000000E-01
  1.28000000E-01  1.28000000E-01  1.28000000E-01  1.28000000E-01  1.28000000E-01
  1.28000000E-01  1.28000000E-01  1.28000000E-01  1.28000000E-01  1.28000000E-01
  1.28000000E-01  1.28000000E-01  1.28000000E-01  1.28000000E-01  1.28000000E-01
  1.28000000E-01  1.28000000E-01  1.28000000E-01  1.28000000E-01  1.28000000E-01
  1.28000000E-01  1.28000000E-01  1.28000000E-01  1.28000000E-01  1.28000000E-01
  1.28000000E-01  1.28000000E-01  1.28000000E-01  1.28000000E-01  1.28000000E-01
  1.28000000E-01  1.28000000E-01  1.28000000E-01  1.28000000E-01  1.28000000E-01
  1.28000000E-01  1.28000000E-01  1.28000000E-01  1.28000000E-01  1.28000000E-01
  5.47000000E-01  5.92000000E-01  5.99000000E-01  6.68000000E-01  6.98000000E-01
  7.18000000E-01  7.26000000E-01  7.36000000E-01  7.43000000E-01  7.45000000E-01
  6.07000000E-01  6.66000000E-01  6.93000000E-01  7.09000000E-01  7.20000000E-01
  7.29000000E-01  7.35000000E-01  7.40000000E-01  6.08000000E-01  7.34000000E-01
  7.46000000E-01  7.55000000E-01  7.61000000E-01  7.65000000E-01  7.67000000E-01
  7.60000000E-01  7.49000000E-01  7.33000000E-01  7.08000000E-01  6.48000000E-01
  6.88000000E-01  7.09000000E-01  7.22000000E-01  7.31000000E-01  7.38000000E-01
  7.44000000E-01  6.09000000E-01  7.30000000E-01  7.41000000E-01  7.52000000E-01
  7.58000000E-01  7.63000000E-01  7.66000000E-01  7.58000000E-01  7.48000000E-01
  7.33000000E-01  7.01000000E-01  6.45000000E-01  6.86000000E-01  7.08000000E-01
  7.22000000E-01  7.31000000E-01  7.38000000E-01  7.44000000E-01  6.08000000E-01
  7.28000000E-01  7.32000000E-01  7.32000000E-01  7.32000000E-01  7.32000000E-01
  7.32000000E-01  7.32000000E-01  7.32000000E-01  7.32000000E-01  7.32000000E-01
  7.31000000E-01  7.31000000E-01  7.31000000E-01  7.31000000E-01  7.46000000E-01
  7.37000000E-01  7.46000000E-01  7.51000000E-01  7.55000000E-01  7.58000000E-01
  7.47000000E-01  7.32000000E-01  7.11000000E-01  7.41000000E-01  7.07000000E-01
  7.47000000E-01  7.43000000E-01  7.42000000E-01  7.42000000E-01  7.43000000E-01
  7.44000000E-01  6.05000000E-01  7.24000000E-01  7.26000000E-01  7.26000000E-01
  7.27000000E-01  7.27000000E-01  7.27000000E-01  7.28000000E-01  7.28000000E-01
  7.28000000E-01  7.28000000E-01  7.28000000E-01  7.29000000E-01  7.29000000E-01
  7.29000000E-01  7.29000000E-01  7.29000000E-01  7.29000000E-01  7.29000000E-01
  7.29000000E-01  7.29000000E-01  7.29000000E-01  7.29000000E-01  7.29000000E-01
  7.29000000E-01  7.29000000E-01  7.29000000E-01  7.29000000E-01  7.29000000E-01
  7.29000000E-01  7.29000000E-01  7.29000000E-01  7.29000000E-01  7.29000000E-01
  7.29000000E-01  7.29000000E-01  7.29000000E-01  7.29000000E-01  7.29000000E-01
  7.29000000E-01  7.29000000E-01  7.29000000E-01  7.29000000E-01  7.29000000E-01
  7.29000000E-01  7.29000000E-01  7.29000000E-01  7.29000000E-01  7.29000000E-01
  7.29000000E-01  7.29000000E-01  7.29000000E-01  7.29000000E-01  7.29000000E-01
  7.29000000E-01  7.29000000E-01  7.29000000E-01  7.29000000E-01  7.29000000E-01
  7.29000000E-01  7.29000000E-01  7.29000000E-01  7.29000000E-01  7.29000000E-01
  7.29000000E-01  7.29000000E-01  7.29000000E-01  7.29000000E-01  7.29000000E-01
  7.29000000E-01  7.29000000E-01  7.29000000E-01  7.29000000E-01  7.29000000E-01
  7.29000000E-01  7.29000000E-01  7.29000000E-01  7.29000000E-01  7.29000000E-01
  7.29000000E-01  7.29000000E-01  7.29000000E-01  7.29000000E-01  7.29000000E-01
  7.29000000E-01  7.29000000E-01  7.29000000E-01  7.29000000E-01  7.29000000E-01
  7.29000000E-01  7.29000000E-01  7.29000000E-01  7.29000000E-01  7.29000000E-01
  7.29000000E-01  7.29000000E-01  7.29000000E-01  7.29000000E-01  7.29000000E-01
  7.29000000E-01  7.29000000E-01  7.29000000E-01  7.29000000E-01  7.29000000E-01
  7.29000000E-01  7.29000000E-01  7.29000000E-01  7.29000000E-01  7.29000000E-01
  7.29000000E-01  7.29000000E-01  7.29000000E-01  7.29000000E-01  7.29000000E-01
  1.00000000E+00  1.70400000E+00  3.23000000E-01  3.89000000E-01  4.67000000E-01
  5.67000000E-01  6.36000000E-01  6.64000000E-01  6.96000000E-01  8.79000000E-01
  3.07000000E-01  3.48000000E-01  4.00000000E-01  4.54000000E-01  5.09000000E-01
  5.65000000E-01  6.21000000E-01  6.77000000E-01  2.56000000E-01  3.50000000E-01
  3.64000000E-01  3.62000000E-01  3.62000000E-01  3.62000000E-01  3.62000000E-01
  3.65000000E-01  3.69000000E-01  3.75000000E-01  3.86000000E-01  4.46000000E-01
  4.55000000E-01  4.74000000E-01  4.96000000E-01  5.20000000E-01  5.45000000E-01
  5.70000000E-01  2.45000000E-01  3.22000000E-01  3.55000000E-01  3.59000000E-01
  3.64000000E-01  3.70000000E-01  3.76000000E-01  3.85000000E-01  3.95000000E-01
  4.08000000E-01  3.76000000E-01  4.23000000E-01  4.22000000E-01  4.32000000E-01
  4.45000000E-01  4.59000000E-01  4.75000000E-01  4.91000000E-01  2.28000000E-01
  2.92000000E-01  2.89000000E-01  2.92000000E-01  2.95000000E-01  2.98000000E-01
  3.00000000E-01  3.03000000E-01  3.06000000E-01  3.09000000E-01  3.12000000E-01
  3.15000000E-01  3.18000000E-01  3.21000000E-01  3.24000000E-01  3.61000000E-01
  3.69000000E-01  3.70000000E-01  3.72000000E-01  3.75000000E-01  3.78000000E-01
  3.85000000E-01  3.94000000E-01  4.07000000E-01  5.26000000E-01  6.21000000E-01
  3.36000000E-01  3.54000000E-01  3.71000000E-01  3.86000000E-01  4.02000000E-01
  4.17000000E-01  2.09000000E-01  2.94000000E-01  2.65000000E-01  2.72000000E-01
  2.78000000E-01  2.84000000E-01  2.91000000E-01  2.97000000E-01  3.03000000E-01
  3.10000000E-01  3.16000000E-01  3.22000000E-01  3.29000000E-01  3.35000000E-01
  3.41000000E-01  3.48000000E-01  3.54000000E-01  3.54000000E-01  3.54000000E-01
  3.54000000E-01  3.54000000E-01  3.54000000E-01  3.54000000E-01  3.54000000E-01
  3.54000000E-01  3.54000000E-01  3.54000000E-01  3.54000000E-01  3.54000000E-01
  3.54000000E-01  3.54000000E-01  3.54000000E-01  3.54000000E-01  3.54000000E-01
  3.54000000E-01  3.54000000E-01  3.54000000E-01  3.54000000E-01  3.54000000E-01
  3.54000000E-01  3.54000000E-01  3.54000000E-01  3.54000000E-01  3.54000000E-01
  3.54000000E-01  3.54000000E-01  3.54000000E-01  3.54000000E-01  3.54000000E-01
  3.54000000E-01  3.54000000E-01  3.54000000E-01  3.54000000E-01  3.54000000E-01
  3.54000000E-01  3.54000000E-01  3.54000000E-01  3.54000000E-01  3.54000000E-01
  3.54000000E-01  3.54000000E-01  3.54000000E-01  3.54000000E-01  3.54000000E-01
  3.54000000E-01  3.54000000E-01  3.54000000E-01  3.54000000E-01  3.54000000E-01
  3.54000000E-01  3.54000000E-01  3.54000000E-01  3.54000000E-01  3.54000000E-01
  3.54000000E-01  3.54000000E-01  3.54000000E-01  3.54000000E-01  3.54000000E-01
  3.54000000E-01  3.54000000E-01  3.54000000E-01  3.54000000E-01  3.54000000E-01
  3.54000000E-01  3.54000000E-01  3.54000000E-01  3.54000000E-01  3.54000000E-01
  3.54000000E-01  3.54000000E-01  3.54000000E-01  3.54000000E-01  3.54000000E-01
  3.54000000E-01  3.54000000E-01  3.54000000E-01  3.54000000E-01  3.54000000E-01
  3.54000000E-01  3.54000000E-01  3.54000000E-01  3.54000000E-01  3.54000000E-01
  3.54000000E-01  3.54000000E-01  3.54000000E-01  3.54000000E-01  3.54000000E-01
  3.54000000E-01  3.54000000E-01  3.54000000E-01  3.54000000E-01  3.54000000E-01
  2.74000000E-01  2.96000000E-01  5.80000000E-02  4.40000000E-02  3.90000000E-02
  3.90000000E-02  3.60000000E-02  3.20000000E-02  2.90000000E-02  3.30000000E-02
  5.50000000E-02  3.90000000E-02  3.30000000E-02  3.00000000E-02  2.80000000E-02
  2.60000000E-02  2.50000000E-02  2.50000000E-02  4.50000000E-02  4.40000000E-02
  3.30000000E-02  2.50000000E-02  2.10000000E-02  1.80000000E-02  1.50000000E-02
  1.80000000E-02  2.10000000E-02  2.50000000E-02  3.30000000E-02  5.00000000E-02
  3.80000000E-02  3.10000000E-02  2.70000000E-02  2.40000000E-02  2.20000000E-02
  2.10000000E-02  4.30000000E-02  4.00000000E-02  3.20000000E-02  2.50000000E-02
  2.10000000E-02  1.80000000E-02  1.60000000E-02  1.90000000E-02  2.20000000E-02
  2.80000000E-02  3.10000000E-02  4.70000000E-02  3.40000000E-02  2.80000000E-02
  2.40000000E-02  2.10000000E-02  1.90000000E-02  1.80000000E-02  3.90000000E-02
  3.60000000E-02  2.50000000E-02  2.50000000E-02  2.50000000E-02  2.60000000E-02
  2.60000000E-02  2.60000000E-02  2.70000000E-02  2.70000000E-02  2.70000000E-02
  2.70000000E-02  2.80000000E-02  2.80000000E-02  2.80000000E-02  3.30000000E-02
  3.30000000E-02  2.60000000E-02  2.10000000E-02  1.80000000E-02  1.60000000E-02
  1.80000000E-02  2.20000000E-02  2.60000000E-02  4.90000000E-02  8.20000000E-02
  3.00000000E-02  2.40000000E-02  2.10000000E-02  1.80000000E-02  1.60000000E-02
  1.50000000E-02  3.50000000E-02  3.60000000E-02  2.20000000E-02  2.30000000E-02
  2.40000000E-02  2.40000000E-02  2.50000000E-02  2.50000000E-02  2.60000000E-02
  2.70000000E-02  2.70000000E-02  2.80000000E-02  2.80000000E-02  2.90000000E-02
  3.00000000E-02  3.00000000E-02  3.10000000E-02  3.10000000E-02  3.10000000E-02
  3.10000000E-02  3.10000000E-02  3.10000000E-02  3.10000000E-02  3.10000000E-02
  3.10000000E-02  3.10000000E-02  3.10000000E-02  3.10000000E-02  3.10000000E-02
  3.10000000E-02  3.10000000E-02  3.10000000E-02  3.10000000E-02  3.10000000E-02
  3.10000000E-02  3.10000000E-02  3.10000000E-02  3.10000000E-02  3.10000000E-02
  3.10000000E-02  3.10000000E-02  3.10000000E-02  3.10000000E-02  3.10000000E-02
  3.10000000E-02  3.10000000E-02  3.10000000E-02  3.10000000E-02  3.10000000E-02
  3.10000000E-02  3.10000000E-02  3.10000000E-02  3.10000000E-02  3.10000000E-02
  3.10000000E-02  3.10000000E-02  3.10000000E-02  3.10000000E-02  3.10000000E-02
  3.10000000E-02  3.10000000E-02  3.10000000E-02  3.10000000E-02  3.10000000E-02
  3.10000000E-02  3.10000000E-02  3.10000000E-02  3.10000000E-02  3.10000000E-02
  3.10000000E-02  3.10000000E-02  3.10000000E-02  3.10000000E-02  3.10000000E-02
  3.10000000E-02  3.10000000E-02  3.10000000E-02  3.10000000E-02  3.10000000E-02
  3.10000000E-02  3.10000000E-02  3.10000000E-02  3.10000000E-02  3.10000000E-02
  3.10000000E-02  3.10000000E-02  3.10000000E-02  3.10000000E-02  3.10000000E-02
  3.10000000E-02  3.10000000E-02  3.10000000E-02  3.10000000E-02  3.10000000E-02
  3.10000000E-02  3.10000000E-02  3.10000000E-02  3.10000000E-02  3.10000000E-02
  3.10000000E-02  3.10000000E-02  3.10000000E-02  3.10000000E-02  3.10000000E-02
  3.10000000E-02  3.10000000E-02  3.10000000E-02  3.10000000E-02  3.10000000E-02
  3.10000000E-02  3.10000000E-02  3.10000000E-02  3.10000000E-02  3.10000000E-02
 -5.92770000E-01 -9.17860000E-01 -2.48668000E+00 -8.36430000E-01 -3.18470000E-01
 -4.55790000E-01 -5.70730000E-01 -6.77940000E-01 -7.69860000E-01 -8.51140000E-01
 -1.51908000E+00 -3.18830000E-01 -2.17900000E-01 -3.01260000E-01 -3.72750000E-01
 -4.15890000E-01 -4.45930000E-01 -5.91320000E-01 -9.56370000E-01 -2.88450000E-01
 -4.87320000E-01 -6.34280000E-01 -7.17490000E-01 -7.91980000E-01 -8.68490000E-01
 -9.17520000E-01 -9.54890000E-01 -9.88460000E-01 -1.50055000E+00 -2.92560000E-01
 -2.14960000E-01 -2.91180000E-01 -3.42080000E-01 -3.84480000E-01 -4.34940000E-01
 -5.24310000E-01 -8.10070000E-01 -2.58460000E-01 -4.35550000E-01 -5.32740000E-01
 -6.08450000E-01 -6.10260000E-01 -7.58920000E-01 -8.90130000E-01 -8.45780000E-01
 -8.69340000E-01 -1.38234000E+00 -2.64850000E-01 -1.97280000E-01 -2.65040000E-01
 -2.94470000E-01 -3.16570000E-01 -3.63590000E-01 -4.57840000E-01 -8.61830000E-01
 -1.33004000E+00 -6.82880000E-01 -6.25540000E-01 -6.35430000E-01 -8.79690000E-01
 -9.02690000E-01 -9.59650000E-01 -1.01869000E+00 -6.81170000E-01 -7.96500000E-01
 -9.04950000E-01 -8.34790000E-01 -9.01560000E-01 -9.74130000E-01 -1.03326000E+00
 -7.15490000E-01 -7.83960000E-01 -8.28380000E-01 -5.61040000E-01 -1.03841000E+00
 -8.62500000E-01 -9.59300000E-01 -1.01755000E+00 -7.64900000E-01 -1.29467000E+00
 -1.92740000E-01 -2.56010000E-01 -3.19820000E-01 -1.94660000E-01 -2.60090000E-01
 -4.27990000E-01  0.00000000E+00  0.00000000E+00  0.00000000E+00  0.00000000E+00
  0.00000000E+00  0.00000000E+00  0.00000000E+00  0.00000000E+00  0.00000000E+00
  0.00000000E+00  0.00000000E+00  0.00000000E+00  0.00000000E+00  0.00000000E+00
  0.00000000E+00  0.00000000E+00  0.00000000E+00  0.00000000E+00  0.00000000E+00
  0.00000000E+00  0.00000000E+00  0.00000000E+00  0.00000000E+00  0.00000000E+00
  0.00000000E+00  0.00000000E+00  0.00000000E+00  0.00000000E+00  0.00000000E+00
  0.00000000E+00  0.00000000E+00  0.00000000E+00  0.00000000E+00  0.00000000E+00
  0.00000000E+00  0.00000000E+00  0.00000000E+00  0.00000000E+00  0.00000000E+00
  0.00000000E+00  0.00000000E+00  0.00000000E+00  0.00000000E+00  0.00000000E+00
  0.00000000E+00  0.00000000E+00  0.00000000E+00  0.00000000E+00  0.00000000E+00
  0.00000000E+00  0.00000000E+00  0.00000000E+00  0.00000000E+00  0.00000000E+00
  0.00000000E+00  0.00000000E+00  0.00000000E+00  0.00000000E+00  0.00000000E+00
  0.00000000E+00  0.00000000E+00  0.00000000E+00  0.00000000E+00  0.00000000E+00
  0.00000000E+00  0.00000000E+00  0.00000000E+00  0.00000000E+00  0.00000000E+00
  0.00000000E+00  0.00000000E+00  0.00000000E+00  0.00000000E+00  0.00000000E+00
  0.00000000E+00  0.00000000E+00  0.00000000E+00  0.00000000E+00  0.00000000E+00
  0.00000000E+00  0.00000000E+00  0.00000000E+00  0.00000000E+00  0.00000000E+00
  0.00000000E+00  0.00000000E+00  0.00000000E+00  0.00000000E+00  0.00000000E+00
  0.00000000E+00  0.00000000E+00  0.00000000E+00  0.00000000E+00  0.00000000E+00
  0.00000000E+00  0.00000000E+00  0.00000000E+00  0.00000000E+00  0.00000000E+00
  0.00000000E+00  0.00000000E+00  0.00000000E+00  0.00000000E+00  0.00000000E+00
  0.00000000E+00  0.00000000E+00  0.00000000E+00  0.00000000E+00  0.00000000E+00
  0.00000000E+00  0.00000000E+00  0.00000000E+00  0.00000000E+00  0.00000000E+00
  1.90440000E+00  1.36430000E+00  4.84000000E-01  7.31600000E+00  9.24030000E+00
  8.78200000E+00  5.61290000E+00  4.83340000E+00  3.24870000E+00  2.71090000E+00
  2.01130000E+00  1.50282000E+01  1.46788000E+01  2.13546000E+01  2.38290000E+01
  1.98022000E+01  1.50468000E+01  1.09745000E+01  1.27219000E+01  1.51949000E+01
  1.57342000E+01  2.79222000E+01  1.61366000E+01  2.21252000E+01  2.45676000E+01
  1.96016000E+01  1.79818000E+01  1.72396000E+01  5.01500000E+00  1.92898000E+01
  2.34477000E+01  2.23993000E+01  2.96586000E+01  2.60081000E+01  2.15580000E+01
  1.69594000E+01  1.56479000E+01  1.86897000E+01  1.93530000E+01  3.43444000E+01
  1.98480000E+01  2.72140000E+01  3.02182000E+01  2.41099000E+01  2.21176000E+01
  2.12047000E+01  7.56690000E+00  2.37264000E+01  2.93879000E+01  3.01278000E+01
  4.19382000E+01  3.85203000E+01  3.39511000E+01  2.75774000E+01  1.56460000E+01
  1.04460000E+01  2.01830000E+01  4.99540000E+01  4.76430000E+01  1.18690000E+01
  1.08670000E+01  9.96100000E+00  9.18700000E+00  3.67980000E+01  1.34070000E+01
  9.38200000E+00  9.81700000E+00  8.90800000E+00  8.40700000E+00  8.05800000E+00
  1.29600000E+01  2.67920000E+01  2.49300000E+01  3.45630000E+01  1.11860000E+01
  1.09440000E+01  1.01270000E+01  9.40400000E+00  1.36660000E+01  7.81000000E+00
  6.93600000E+01  5.86630000E+01  4.79690000E+01  4.52740000E+01  3.92290000E+01
  3.30660000E+01  0.00000000E+00  0.00000000E+00  0.00000000E+00  0.00000000E+00
  0.00000000E+00  0.00000000E+00  0.00000000E+00  0.00000000E+00  0.00000000E+00
  0.00000000E+00  0.00000000E+00  0.00000000E+00  0.00000000E+00  0.00000000E+00
  0.00000000E+00  0.00000000E+00  0.00000000E+00  0.00000000E+00  0.00000000E+00
  0.00000000E+00  0.00000000E+00  0.00000000E+00  0.00000000E+00  0.00000000E+00
  0.00000000E+00  0.00000000E+00  0.00000000E+00  0.00000000E+00  0.00000000E+00
  0.00000000E+00  0.00000000E+00  0.00000000E+00  0.00000000E+00  0.00000000E+00
  0.00000000E+00  0.00000000E+00  0.00000000E+00  0.00000000E+00  0.00000000E+00
  0.00000000E+00  0.00000000E+00  0.00000000E+00  0.00000000E+00  0.00000000E+00
  0.00000000E+00  0.00000000E+00  0.00000000E+00  0.00000000E+00  0.00000000E+00
  0.00000000E+00  0.00000000E+00  0.00000000E+00  0.00000000E+00  0.00000000E+00
  0.00000000E+00  0.00000000E+00  0.00000000E+00  0.00000000E+00  0.00000000E+00
  0.00000000E+00  0.00000000E+00  0.00000000E+00  0.00000000E+00  0.00000000E+00
  0.00000000E+00  0.00000000E+00  0.00000000E+00  0.00000000E+00  0.00000000E+00
  0.00000000E+00  0.00000000E+00  0.00000000E+00  0.00000000E+00  0.00000000E+00
  0.00000000E+00  0.00000000E+00  0.00000000E+00  0.00000000E+00  0.00000000E+00
  0.00000000E+00  0.00000000E+00  0.00000000E+00  0.00000000E+00  0.00000000E+00
  0.00000000E+00  0.00000000E+00  0.00000000E+00  0.00000000E+00  0.00000000E+00
  0.00000000E+00  0.00000000E+00  0.00000000E+00  0.00000000E+00  0.00000000E+00
  0.00000000E+00  0.00000000E+00  0.00000000E+00  0.00000000E+00  0.00000000E+00
  0.00000000E+00  0.00000000E+00  0.00000000E+00  0.00000000E+00  0.00000000E+00
  0.00000000E+00  0.00000000E+00  0.00000000E+00  0.00000000E+00  0.00000000E+00
  0.00000000E+00  0.00000000E+00  0.00000000E+00  0.00000000E+00  0.00000000E+00
  0.00000000E+00  0.00000000E+00  0.00000000E+00  0.00000000E+00  0.00000000E+00
  0.00000000E+00  0.00000000E+00  0.00000000E+00  0.00000000E+00  0.00000000E+00
  0.00000000E+00  0.00000000E+00  0.00000000E+00  0.00000000E+00  0.00000000E+00
  0.00000000E+00  0.00000000E+00  0.00000000E+00  0.00000000E+00  0.00000000E+00
  0.00000000E+00  0.00000000E+00  0.00000000E+00  0.00000000E+00  0.00000000E+00
  0.00000000E+00  0.00000000E+00  0.00000000E+00  0.00000000E+00  0.00000000E+00
  0.00000000E+00  0.00000000E+00  0.00000000E+00  0.00000000E+00  0.00000000E+00
  0.00000000E+00  0.00000000E+00  0.00000000E+00  0.00000000E+00  0.00000000E+00
  0.00000000E+00  0.00000000E+00  0.00000000E+00  0.00000000E+00  0.00000000E+00
  0.00000000E+00  0.00000000E+00  0.00000000E+00  0.00000000E+00  0.00000000E+00
  0.00000000E+00  0.00000000E+00  0.00000000E+00  0.00000000E+00  0.00000000E+00
  0.00000000E+00  0.00000000E+00  0.00000000E+00  0.00000000E+00  0.00000000E+00
  0.00000000E+00  0.00000000E+00  0.00000000E+00  0.00000000E+00  0.00000000E+00
  0.00000000E+00  0.00000000E+00  0.00000000E+00  0.00000000E+00  0.00000000E+00
  0.00000000E+00  0.00000000E+00  0.00000000E+00  0.00000000E+00  0.00000000E+00
  0.00000000E+00  0.00000000E+00  0.00000000E+00  0.00000000E+00  0.00000000E+00
  0.00000000E+00  0.00000000E+00  0.00000000E+00  0.00000000E+00  0.00000000E+00
  0.00000000E+00  0.00000000E+00  0.00000000E+00  0.00000000E+00  0.00000000E+00
  0.00000000E+00  0.00000000E+00  0.00000000E+00  0.00000000E+00  0.00000000E+00
  0.00000000E+00  0.00000000E+00  0.00000000E+00  0.00000000E+00  0.00000000E+00
  0.00000000E+00  0.00000000E+00  0.00000000E+00  0.00000000E+00  0.00000000E+00
  0.00000000E+00  0.00000000E+00  0.00000000E+00  0.00000000E+00  0.00000000E+00
  0.00000000E+00  0.00000000E+00  0.00000000E+00  0.00000000E+00  0.00000000E+00
  0.00000000E+00  0.00000000E+00  0.00000000E+00  0.00000000E+00  0.00000000E+00
  0.00000000E+00  0.00000000E+00  0.00000000E+00  0.00000000E+00  0.00000000E+00
  0.00000000E+00  0.00000000E+00  0.00000000E+00  0.00000000E+00  0.00000000E+00
  0.00000000E+00  0.00000000E+00  0.00000000E+00  0.00000000E+00  0.00000000E+00
  0.00000000E+00  0.00000000E+00  0.00000000E+00  0.00000000E+00  0.00000000E+00
  0.00000000E+00  0.00000000E+00  0.00000000E+00  0.00000000E+00  0.00000000E+00
  0.00000000E+00  0.00000000E+00  0.00000000E+00  0.00000000E+00  0.00000000E+00
  0.00000000E+00  0.00000000E+00  0.00000000E+00  0.00000000E+00  0.00000000E+00
  0.00000000E+00  0.00000000E+00  0.00000000E+00  0.00000000E+00  0.00000000E+00
  0.00000000E+00  0.00000000E+00  0.00000000E+00  0.00000000E+00  0.00000000E+00
  0.00000000E+00  0.00000000E+00  0.00000000E+00  0.00000000E+00  0.00000000E+00
  0.00000000E+00  0.00000000E+00  0.00000000E+00  0.00000000E+00  0.00000000E+00
  0.00000000E+00  0.00000000E+00  0.00000000E+00  0.00000000E+00  0.00000000E+00
  0.00000000E+00  0.00000000E+00  0.00000000E+00  0.00000000E+00  0.00000000E+00
  0.00000000E+00  0.00000000E+00  0.00000000E+00  0.00000000E+00  0.00000000E+00
  0.00000000E+00  0.00000000E+00  0.00000000E+00  0.00000000E+00  0.00000000E+00
  0.00000000E+00  0.00000000E+00  0.00000000E+00  0.00000000E+00  0.00000000E+00
  0.00000000E+00  0.00000000E+00  0.00000000E+00  0.00000000E+00  0.00000000E+00
  0.00000000E+00  0.00000000E+00  0.00000000E+00  0.00000000E+00  0.00000000E+00
  0.00000000E+00  0.00000000E+00  0.00000000E+00  0.00000000E+00  0.00000000E+00
  0.00000000E+00  0.00000000E+00  0.00000000E+00  0.00000000E+00  0.00000000E+00
  0.00000000E+00  0.00000000E+00  0.00000000E+00  0.00000000E+00  0.00000000E+00
  0.00000000E+00  0.00000000E+00  0.00000000E+00  0.00000000E+00  0.00000000E+00
  0.00000000E+00  0.00000000E+00  0.00000000E+00  0.00000000E+00  0.00000000E+00
  0.00000000E+00  0.00000000E+00  0.00000000E+00  0.00000000E+00  0.00000000E+00
  0.00000000E+00  0.00000000E+00  0.00000000E+00  0.00000000E+00  0.00000000E+00
  0.00000000E+00  0.00000000E+00  0.00000000E+00  0.00000000E+00  0.00000000E+00
  0.00000000E+00  0.00000000E+00  0.00000000E+00  0.00000000E+00  0.00000000E+00
  0.00000000E+00  0.00000000E+00  0.00000000E+00  0.00000000E+00  0.00000000E+00
  0.00000000E+00  0.00000000E+00  0.00000000E+00  0.00000000E+00  0.00000000E+00
  0.00000000E+00  0.00000000E+00  0.00000000E+00  0.00000000E+00  0.00000000E+00
  0.00000000E+00  0.00000000E+00  0.00000000E+00  0.00000000E+00  0.00000000E+00
  0.00000000E+00  0.00000000E+00  0.00000000E+00  0.00000000E+00  0.00000000E+00
  0.00000000E+00  0.00000000E+00  0.00000000E+00  0.00000000E+00  0.00000000E+00
  0.00000000E+00  0.00000000E+00  0.00000000E+00  0.00000000E+00  0.00000000E+00
  0.00000000E+00  0.00000000E+00  0.00000000E+00  0.00000000E+00  0.00000000E+00
  0.00000000E+00  0.00000000E+00  0.00000000E+00  0.00000000E+00  0.00000000E+00
  0.00000000E+00  0.00000000E+00  0.00000000E+00  0.00000000E+00  0.00000000E+00
  0.00000000E+00  0.00000000E+00  0.00000000E+00  0.00000000E+00  0.00000000E+00
  0.00000000E+00  0.00000000E+00  0.00000000E+00  0.00000000E+00  0.00000000E+00
  0.00000000E+00  0.00000000E+00  0.00000000E+00  0.00000000E+00  0.00000000E+00
  0.00000000E+00  0.00000000E+00  0.00000000E+00  0.00000000E+00  0.00000000E+00
  0.00000000E+00  0.00000000E+00  0.00000000E+00  0.00000000E+00  0.00000000E+00
  0.00000000E+00  0.00000000E+00  0.00000000E+00  0.00000000E+00  0.00000000E+00
  0.00000000E+00  0.00000000E+00  0.00000000E+00  0.00000000E+00  0.00000000E+00
  0.00000000E+00  0.00000000E+00  0.00000000E+00  0.00000000E+00  0.00000000E+00
  0.00000000E+00  0.00000000E+00  0.00000000E+00  0.00000000E+00  0.00000000E+00
  0.00000000E+00  0.00000000E+00  0.00000000E+00  0.00000000E+00  0.00000000E+00
  0.00000000E+00  0.00000000E+00  0.00000000E+00  0.00000000E+00  0.00000000E+00
  0.00000000E+00  0.00000000E+00  0.00000000E+00  0.00000000E+00  0.00000000E+00
  0.00000000E+00  0.00000000E+00  0.00000000E+00  0.00000000E+00  0.00000000E+00
  0.00000000E+00  0.00000000E+00  0.00000000E+00  0.00000000E+00  0.00000000E+00
  0.00000000E+00  0.00000000E+00  0.00000000E+00  0.00000000E+00  0.00000000E+00
  0.00000000E+00  0.00000000E+00  0.00000000E+00  0.00000000E+00  0.00000000E+00
  0.00000000E+00  0.00000000E+00  0.00000000E+00  0.00000000E+00  0.00000000E+00
  0.00000000E+00  0.00000000E+00  0.00000000E+00  0.00000000E+00  0.00000000E+00
  0.00000000E+00  0.00000000E+00  0.00000000E+00  0.00000000E+00  0.00000000E+00
  0.00000000E+00  0.00000000E+00  0.00000000E+00  0.00000000E+00  0.00000000E+00
  0.00000000E+00  0.00000000E+00  0.00000000E+00  0.00000000E+00  0.00000000E+00
  0.00000000E+00  0.00000000E+00  0.00000000E+00  0.00000000E+00  0.00000000E+00
  0.00000000E+00  0.00000000E+00  0.00000000E+00  0.00000000E+00  0.00000000E+00
  0.00000000E+00  0.00000000E+00  0.00000000E+00  0.00000000E+00  0.00000000E+00
  0.00000000E+00  0.00000000E+00  0.00000000E+00  0.00000000E+00  0.00000000E+00
  0.00000000E+00  0.00000000E+00  0.00000000E+00  0.00000000E+00  0.00000000E+00
  0.00000000E+00  0.00000000E+00  0.00000000E+00  0.00000000E+00  0.00000000E+00
  0.00000000E+00  0.00000000E+00  0.00000000E+00  0.00000000E+00  0.00000000E+00
  0.00000000E+00  0.00000000E+00  0.00000000E+00  0.00000000E+00  0.00000000E+00
  0.00000000E+00  0.00000000E+00  0.00000000E+00  0.00000000E+00  0.00000000E+00
  0.00000000E+00  0.00000000E+00  0.00000000E+00  0.00000000E+00  0.00000000E+00
  0.00000000E+00  0.00000000E+00  0.00000000E+00  0.00000000E+00  0.00000000E+00
  0.00000000E+00  0.00000000E+00  0.00000000E+00  0.00000000E+00  0.00000000E+00
  0.00000000E+00  0.00000000E+00  0.00000000E+00  0.00000000E+00  0.00000000E+00
  0.00000000E+00  0.00000000E+00  0.00000000E+00  0.00000000E+00  0.00000000E+00
  0.00000000E+00  0.00000000E+00  0.00000000E+00  0.00000000E+00  0.00000000E+00
  0.00000000E+00  0.00000000E+00  0.00000000E+00  0.00000000E+00  0.00000000E+00
  0.00000000E+00  0.00000000E+00  0.00000000E+00  0.00000000E+00  0.00000000E+00
  0.00000000E+00  0.00000000E+00  0.00000000E+00  0.00000000E+00  0.00000000E+00
  0.00000000E+00  0.00000000E+00  0.00000000E+00  0.00000000E+00  0.00000000E+00
  0.00000000E+00  0.00000000E+00  0.00000000E+00  0.00000000E+00  0.00000000E+00
  0.00000000E+00  0.00000000E+00  0.00000000E+00  0.00000000E+00  0.00000000E+00
  0.00000000E+00  0.00000000E+00  0.00000000E+00  0.00000000E+00  0.00000000E+00
  0.00000000E+00  0.00000000E+00  0.00000000E+00  0.00000000E+00  0.00000000E+00
  0.00000000E+00  0.00000000E+00  0.00000000E+00  0.00000000E+00  0.00000000E+00
  0.00000000E+00  0.00000000E+00  0.00000000E+00  0.00000000E+00  0.00000000E+00
  0.00000000E+00  0.00000000E+00  0.00000000E+00  0.00000000E+00  0.00000000E+00
  0.00000000E+00  0.00000000E+00  0.00000000E+00  0.00000000E+00  0.00000000E+00
  0.00000000E+00  0.00000000E+00  0.00000000E+00  0.00000000E+00  0.00000000E+00
  0.00000000E+00  0.00000000E+00  0.00000000E+00  0.00000000E+00  0.00000000E+00
  0.00000000E+00  0.00000000E+00  0.00000000E+00  0.00000000E+00  0.00000000E+00
  0.00000000E+00  0.00000000E+00  0.00000000E+00  0.00000000E+00  0.00000000E+00
  0.00000000E+00  0.00000000E+00  0.00000000E+00  0.00000000E+00  0.00000000E+00
  0.00000000E+00  0.00000000E+00  0.00000000E+00  0.00000000E+00  0.00000000E+00
  0.00000000E+00  0.00000000E+00  0.00000000E+00  0.00000000E+00  0.00000000E+00
  0.00000000E+00  0.00000000E+00  0.00000000E+00  0.00000000E+00  0.00000000E+00
  0.00000000E+00  0.00000000E+00  0.00000000E+00  0.00000000E+00  0.00000000E+00
  0.00000000E+00  0.00000000E+00  0.00000000E+00  0.00000000E+00  0.00000000E+00
  0.00000000E+00  0.00000000E+00  0.00000000E+00  0.00000000E+00  0.00000000E+00
  0.00000000E+00  0.00000000E+00  0.00000000E+00  0.00000000E+00  0.00000000E+00
  0.00000000E+00  0.00000000E+00  0.00000000E+00  0.00000000E+00  0.00000000E+00
  0.00000000E+00  0.00000000E+00  0.00000000E+00  0.00000000E+00  0.00000000E+00
  0.00000000E+00  0.00000000E+00  0.00000000E+00  0.00000000E+00  0.00000000E+00
  0.00000000E+00  0.00000000E+00  0.00000000E+00  0.00000000E+00  0.00000000E+00
  0.00000000E+00  0.00000000E+00  0.00000000E+00  0.00000000E+00  0.00000000E+00
  0.00000000E+00  0.00000000E+00  0.00000000E+00  0.00000000E+00  0.00000000E+00
  0.00000000E+00  0.00000000E+00  0.00000000E+00  0.00000000E+00  0.00000000E+00
  0.00000000E+00  0.00000000E+00  0.00000000E+00  0.00000000E+00  0.00000000E+00
  0.00000000E+00  0.00000000E+00  0.00000000E+00  0.00000000E+00  0.00000000E+00
  0.00000000E+00  0.00000000E+00  0.00000000E+00  0.00000000E+00  0.00000000E+00
  0.00000000E+00  0.00000000E+00  0.00000000E+00  0.00000000E+00  0.00000000E+00
  0.00000000E+00  0.00000000E+00  0.00000000E+00  0.00000000E+00  0.00000000E+00
  0.00000000E+00  0.00000000E+00  0.00000000E+00  0.00000000E+00  0.00000000E+00
  0.00000000E+00  0.00000000E+00  0.00000000E+00  0.00000000E+00  0.00000000E+00
  0.00000000E+00  0.00000000E+00  0.00000000E+00  0.00000000E+00  0.00000000E+00
  0.00000000E+00  0.00000000E+00  0.00000000E+00  0.00000000E+00  0.00000000E+00
  0.00000000E+00  0.00000000E+00  0.00000000E+00  0.00000000E+00  0.00000000E+00
  0.00000000E+00  0.00000000E+00  0.00000000E+00  0.00000000E+00  0.00000000E+00
  0.00000000E+00  0.00000000E+00  0.00000000E+00  0.00000000E+00  0.00000000E+00
  0.00000000E+00  0.00000000E+00  0.00000000E+00  0.00000000E+00  0.00000000E+00
  0.00000000E+00  0.00000000E+00  0.00000000E+00  0.00000000E+00  0.00000000E+00
  0.00000000E+00  0.00000000E+00  0.00000000E+00  0.00000000E+00  0.00000000E+00
  0.00000000E+00  0.00000000E+00  0.00000000E+00  0.00000000E+00  0.00000000E+00
  0.00000000E+00  0.00000000E+00  0.00000000E+00  0.00000000E+00  0.00000000E+00
  0.00000000E+00  0.00000000E+00  0.00000000E+00  0.00000000E+00  0.00000000E+00
  0.00000000E+00  0.00000000E+00  0.00000000E+00  0.00000000E+00  0.00000000E+00
  0.00000000E+00  0.00000000E+00  0.00000000E+00  0.00000000E+00  0.00000000E+00
  0.00000000E+00  0.00000000E+00  0.00000000E+00  0.00000000E+00  0.00000000E+00
  0.00000000E+00  0.00000000E+00  0.00000000E+00  0.00000000E+00  0.00000000E+00
  0.00000000E+00  0.00000000E+00  0.00000000E+00  0.00000000E+00  0.00000000E+00
  0.00000000E+00  0.00000000E+00  0.00000000E+00  0.00000000E+00  0.00000000E+00
  0.00000000E+00  0.00000000E+00  0.00000000E+00  0.00000000E+00  0.00000000E+00
  0.00000000E+00  0.00000000E+00  0.00000000E+00  0.00000000E+00  0.00000000E+00
  0.00000000E+00  0.00000000E+00  0.00000000E+00  0.00000000E+00  0.00000000E+00
  0.00000000E+00  0.00000000E+00  0.00000000E+00  0.00000000E+00  0.00000000E+00
  0.00000000E+00  0.00000000E+00  0.00000000E+00  0.00000000E+00  0.00000000E+00
  0.00000000E+00  0.00000000E+00  0.00000000E+00  0.00000000E+00  0.00000000E+00
  0.00000000E+00  0.00000000E+00  0.00000000E+00  0.00000000E+00  0.00000000E+00
  0.00000000E+00  0.00000000E+00  0.00000000E+00  0.00000000E+00  0.00000000E+00
  0.00000000E+00  0.00000000E+00  0.00000000E+00  0.00000000E+00  0.00000000E+00
  0.00000000E+00  0.00000000E+00  0.00000000E+00  0.00000000E+00  0.00000000E+00
  0.00000000E+00  0.00000000E+00  0.00000000E+00  0.00000000E+00  0.00000000E+00
  0.00000000E+00  0.00000000E+00  0.00000000E+00  0.00000000E+00  0.00000000E+00
  0.00000000E+00  0.00000000E+00  0.00000000E+00  0.00000000E+00  0.00000000E+00
  0.00000000E+00  0.00000000E+00  0.00000000E+00  0.00000000E+00  0.00000000E+00
  0.00000000E+00  0.00000000E+00  0.00000000E+00  0.00000000E+00  0.00000000E+00
  0.00000000E+00  0.00000000E+00  0.00000000E+00  0.00000000E+00  0.00000000E+00
  0.00000000E+00  0.00000000E+00  0.00000000E+00  0.00000000E+00  0.00000000E+00
  0.00000000E+00  0.00000000E+00  0.00000000E+00  0.00000000E+00  0.00000000E+00
  0.00000000E+00  0.00000000E+00  0.00000000E+00  0.00000000E+00  0.00000000E+00
  0.00000000E+00  0.00000000E+00  0.00000000E+00  0.00000000E+00  0.00000000E+00
  0.00000000E+00  0.00000000E+00  0.00000000E+00  0.00000000E+00  0.00000000E+00
  0.00000000E+00  0.00000000E+00  0.00000000E+00  0.00000000E+00  0.00000000E+00
  0.00000000E+00  0.00000000E+00  0.00000000E+00  0.00000000E+00  0.00000000E+00
  0.00000000E+00  0.00000000E+00  0.00000000E+00  0.00000000E+00  0.00000000E+00
  0.00000000E+00  0.00000000E+00  0.00000000E+00  0.00000000E+00  0.00000000E+00
  0.00000000E+00  0.00000000E+00  0.00000000E+00  0.00000000E+00  0.00000000E+00
  0.00000000E+00  0.00000000E+00  0.00000000E+00  0.00000000E+00  0.00000000E+00
  0.00000000E+00  0.00000000E+00  0.00000000E+00  0.00000000E+00  0.00000000E+00
  0.00000000E+00  0.00000000E+00  0.00000000E+00  0.00000000E+00  0.00000000E+00
  0.00000000E+00  0.00000000E+00  0.00000000E+00  0.00000000E+00  0.00000000E+00
  0.00000000E+00  0.00000000E+00  0.00000000E+00  0.00000000E+00  0.00000000E+00
  0.00000000E+00  0.00000000E+00  0.00000000E+00  0.00000000E+00  0.00000000E+00
  0.00000000E+00  0.00000000E+00  0.00000000E+00  0.00000000E+00  0.00000000E+00
  0.00000000E+00  0.00000000E+00  0.00000000E+00  0.00000000E+00  0.00000000E+00
  0.00000000E+00  0.00000000E+00  0.00000000E+00  0.00000000E+00  0.00000000E+00
  0.00000000E+00  0.00000000E+00  0.00000000E+00  0.00000000E+00  0.00000000E+00
  0.00000000E+00  0.00000000E+00  0.00000000E+00  0.00000000E+00  0.00000000E+00
  0.00000000E+00  0.00000000E+00  0.00000000E+00  0.00000000E+00  0.00000000E+00
  0.00000000E+00  0.00000000E+00  0.00000000E+00  0.00000000E+00  0.00000000E+00
  0.00000000E+00  0.00000000E+00  0.00000000E+00  0.00000000E+00  0.00000000E+00
  0.00000000E+00  0.00000000E+00  0.00000000E+00  0.00000000E+00  0.00000000E+00
  0.00000000E+00  0.00000000E+00  0.00000000E+00  0.00000000E+00  0.00000000E+00
  0.00000000E+00  0.00000000E+00  0.00000000E+00  0.00000000E+00  0.00000000E+00
  0.00000000E+00  0.00000000E+00  0.00000000E+00  0.00000000E+00  0.00000000E+00
  0.00000000E+00  0.00000000E+00  0.00000000E+00  0.00000000E+00  0.00000000E+00
  0.00000000E+00  0.00000000E+00  0.00000000E+00  0.00000000E+00  0.00000000E+00
  0.00000000E+00  0.00000000E+00  0.00000000E+00  0.00000000E+00  0.00000000E+00
  0.00000000E+00  0.00000000E+00  0.00000000E+00  0.00000000E+00  0.00000000E+00
  0.00000000E+00  0.00000000E+00  0.00000000E+00  0.00000000E+00  0.00000000E+00
  0.00000000E+00  0.00000000E+00  0.00000000E+00  0.00000000E+00  0.00000000E+00
  0.00000000E+00  0.00000000E+00  0.00000000E+00  0.00000000E+00  0.00000000E+00
  0.00000000E+00  0.00000000E+00  0.00000000E+00  0.00000000E+00  0.00000000E+00
  0.00000000E+00  0.00000000E+00  0.00000000E+00  0.00000000E+00  0.00000000E+00
  0.00000000E+00  0.00000000E+00  0.00000000E+00  0.00000000E+00  0.00000000E+00
  0.00000000E+00  0.00000000E+00  0.00000000E+00  0.00000000E+00  0.00000000E+00
  0.00000000E+00  0.00000000E+00  0.00000000E+00  0.00000000E+00  0.00000000E+00
  0.00000000E+00  0.00000000E+00  0.00000000E+00  0.00000000E+00  0.00000000E+00
  0.00000000E+00  0.00000000E+00  0.00000000E+00  0.00000000E+00  0.00000000E+00
  0.00000000E+00  0.00000000E+00  0.00000000E+00  0.00000000E+00  0.00000000E+00
  0.00000000E+00  0.00000000E+00  0.00000000E+00  0.00000000E+00  0.00000000E+00
  0.00000000E+00  0.00000000E+00  0.00000000E+00  0.00000000E+00  0.00000000E+00
  0.00000000E+00  0.00000000E+00  0.00000000E+00  0.00000000E+00  0.00000000E+00
  0.00000000E+00  0.00000000E+00  0.00000000E+00  0.00000000E+00  0.00000000E+00
  0.00000000E+00  0.00000000E+00  0.00000000E+00  0.00000000E+00  0.00000000E+00
  0.00000000E+00  0.00000000E+00  0.00000000E+00  0.00000000E+00  0.00000000E+00
  0.00000000E+00  0.00000000E+00  0.00000000E+00  0.00000000E+00  0.00000000E+00
  0.00000000E+00  0.00000000E+00  0.00000000E+00  0.00000000E+00  0.00000000E+00
  0.00000000E+00  0.00000000E+00  0.00000000E+00  0.00000000E+00  0.00000000E+00
  0.00000000E+00  0.00000000E+00  0.00000000E+00  0.00000000E+00  0.00000000E+00
  0.00000000E+00  0.00000000E+00  0.00000000E+00  0.00000000E+00  0.00000000E+00
  0.00000000E+00  0.00000000E+00  0.00000000E+00  0.00000000E+00  0.00000000E+00
  0.00000000E+00  0.00000000E+00  0.00000000E+00  0.00000000E+00  0.00000000E+00
  0.00000000E+00  0.00000000E+00  0.00000000E+00  0.00000000E+00  0.00000000E+00
  0.00000000E+00  0.00000000E+00  0.00000000E+00  0.00000000E+00  0.00000000E+00
  0.00000000E+00  0.00000000E+00  0.00000000E+00  0.00000000E+00  0.00000000E+00
  0.00000000E+00  0.00000000E+00  0.00000000E+00  0.00000000E+00  0.00000000E+00
  0.00000000E+00  0.00000000E+00  0.00000000E+00  0.00000000E+00  0.00000000E+00
  0.00000000E+00  0.00000000E+00  0.00000000E+00  0.00000000E+00  0.00000000E+00
  0.00000000E+00  0.00000000E+00  0.00000000E+00  0.00000000E+00  0.00000000E+00
  0.00000000E+00  0.00000000E+00  0.00000000E+00  0.00000000E+00  0.00000000E+00
  0.00000000E+00  0.00000000E+00  0.00000000E+00  0.00000000E+00  0.00000000E+00
  0.00000000E+00  0.00000000E+00  0.00000000E+00  0.00000000E+00  0.00000000E+00
  0.00000000E+00  0.00000000E+00  0.00000000E+00  0.00000000E+00  0.00000000E+00
  0.00000000E+00  0.00000000E+00  0.00000000E+00  0.00000000E+00  0.00000000E+00
  0.00000000E+00  0.00000000E+00  0.00000000E+00  0.00000000E+00  0.00000000E+00
  0.00000000E+00  0.00000000E+00  0.00000000E+00  0.00000000E+00  0.00000000E+00
  0.00000000E+00  0.00000000E+00  0.00000000E+00  0.00000000E+00  0.00000000E+00
  0.00000000E+00  0.00000000E+00  0.00000000E+00  0.00000000E+00  0.00000000E+00
  0.00000000E+00  0.00000000E+00  0.00000000E+00  0.00000000E+00  0.00000000E+00
  0.00000000E+00  0.00000000E+00  0.00000000E+00  0.00000000E+00  0.00000000E+00
  0.00000000E+00  0.00000000E+00  0.00000000E+00  0.00000000E+00  0.00000000E+00
  0.00000000E+00  0.00000000E+00  0.00000000E+00  0.00000000E+00  0.00000000E+00
  0.00000000E+00  0.00000000E+00  0.00000000E+00  0.00000000E+00  0.00000000E+00
  0.00000000E+00  0.00000000E+00  0.00000000E+00  0.00000000E+00  0.00000000E+00
  0.00000000E+00  0.00000000E+00  0.00000000E+00  0.00000000E+00  0.00000000E+00
  0.00000000E+00  0.00000000E+00  0.00000000E+00  0.00000000E+00  0.00000000E+00
  0.00000000E+00  0.00000000E+00  0.00000000E+00  0.00000000E+00  0.00000000E+00
  0.00000000E+00  0.00000000E+00  0.00000000E+00  0.00000000E+00  0.00000000E+00
  0.00000000E+00  0.00000000E+00  0.00000000E+00  0.00000000E+00  0.00000000E+00
  0.00000000E+00  0.00000000E+00  0.00000000E+00  0.00000000E+00  0.00000000E+00
  0.00000000E+00  0.00000000E+00  0.00000000E+00  0.00000000E+00  0.00000000E+00
  0.00000000E+00  0.00000000E+00  0.00000000E+00  0.00000000E+00  0.00000000E+00
  0.00000000E+00  0.00000000E+00  0.00000000E+00  0.00000000E+00  0.00000000E+00
  0.00000000E+00  0.00000000E+00  0.00000000E+00  0.00000000E+00  0.00000000E+00
  0.00000000E+00  0.00000000E+00  0.00000000E+00  0.00000000E+00  0.00000000E+00
  0.00000000E+00  0.00000000E+00  0.00000000E+00  0.00000000E+00  0.00000000E+00
  0.00000000E+00  0.00000000E+00  0.00000000E+00  0.00000000E+00  0.00000000E+00
  0.00000000E+00  0.00000000E+00  0.00000000E+00  0.00000000E+00  0.00000000E+00
  0.00000000E+00  0.00000000E+00  0.00000000E+00  0.00000000E+00  0.00000000E+00
  0.00000000E+00  0.00000000E+00  0.00000000E+00  0.00000000E+00  0.00000000E+00
  0.00000000E+00  0.00000000E+00  0.00000000E+00  0.00000000E+00  0.00000000E+00
  0.00000000E+00  0.00000000E+00  0.00000000E+00  0.00000000E+00  0.00000000E+00
  0.00000000E+00  0.00000000E+00  0.00000000E+00  0.00000000E+00  0.00000000E+00
  0.00000000E+00  0.00000000E+00  0.00000000E+00  0.00000000E+00  0.00000000E+00
  0.00000000E+00  0.00000000E+00  0.00000000E+00  0.00000000E+00  0.00000000E+00
  0.00000000E+00  0.00000000E+00  0.00000000E+00  0.00000000E+00  0.00000000E+00
  0.00000000E+00  0.00000000E+00  0.00000000E+00  0.00000000E+00  0.00000000E+00
  0.00000000E+00  0.00000000E+00  0.00000000E+00  0.00000000E+00  0.00000000E+00
  0.00000000E+00  0.00000000E+00  0.00000000E+00  0.00000000E+00  0.00000000E+00
  0.00000000E+00  0.00000000E+00  0.00000000E+00  0.00000000E+00  0.00000000E+00
  0.00000000E+00  0.00000000E+00  0.00000000E+00  0.00000000E+00  0.00000000E+00
  0.00000000E+00  0.00000000E+00  0.00000000E+00  0.00000000E+00  0.00000000E+00
  0.00000000E+00  0.00000000E+00  0.00000000E+00  0.00000000E+00  0.00000000E+00
  0.00000000E+00  0.00000000E+00  0.00000000E+00  0.00000000E+00  0.00000000E+00
  0.00000000E+00  0.00000000E+00  0.00000000E+00  0.00000000E+00  0.00000000E+00
  0.00000000E+00  0.00000000E+00  0.00000000E+00  0.00000000E+00  0.00000000E+00
  0.00000000E+00  0.00000000E+00  0.00000000E+00  0.00000000E+00  0.00000000E+00
  0.00000000E+00  0.00000000E+00  0.00000000E+00  0.00000000E+00  0.00000000E+00
  0.00000000E+00  0.00000000E+00  0.00000000E+00  0.00000000E+00  0.00000000E+00
  0.00000000E+00  0.00000000E+00  0.00000000E+00  0.00000000E+00  0.00000000E+00
  0.00000000E+00  0.00000000E+00  0.00000000E+00  0.00000000E+00  0.00000000E+00
  0.00000000E+00  0.00000000E+00  0.00000000E+00  0.00000000E+00  0.00000000E+00
  0.00000000E+00  0.00000000E+00  0.00000000E+00  0.00000000E+00  0.00000000E+00
  0.00000000E+00  0.00000000E+00  0.00000000E+00  0.00000000E+00  0.00000000E+00
  0.00000000E+00  0.00000000E+00  0.00000000E+00  0.00000000E+00  0.00000000E+00
  0.00000000E+00  0.00000000E+00  0.00000000E+00  0.00000000E+00  0.00000000E+00
  0.00000000E+00  0.00000000E+00  0.00000000E+00  0.00000000E+00  0.00000000E+00
  0.00000000E+00  0.00000000E+00  0.00000000E+00  0.00000000E+00  0.00000000E+00
  0.00000000E+00  0.00000000E+00  0.00000000E+00  0.00000000E+00  0.00000000E+00
  0.00000000E+00  0.00000000E+00  0.00000000E+00  0.00000000E+00  0.00000000E+00
  0.00000000E+00  0.00000000E+00  0.00000000E+00  0.00000000E+00  0.00000000E+00
  0.00000000E+00  0.00000000E+00  0.00000000E+00  0.00000000E+00  0.00000000E+00
  0.00000000E+00  0.00000000E+00  0.00000000E+00  0.00000000E+00  0.00000000E+00
  0.00000000E+00  0.00000000E+00  0.00000000E+00  0.00000000E+00  0.00000000E+00
  0.00000000E+00  0.00000000E+00  0.00000000E+00  0.00000000E+00  0.00000000E+00
  0.00000000E+00  0.00000000E+00  0.00000000E+00  0.00000000E+00  0.00000000E+00
  0.00000000E+00  0.00000000E+00  0.00000000E+00  0.00000000E+00  0.00000000E+00
  0.00000000E+00  0.00000000E+00  0.00000000E+00  0.00000000E+00  0.00000000E+00
  0.00000000E+00  0.00000000E+00  0.00000000E+00  0.00000000E+00  0.00000000E+00
  0.00000000E+00  0.00000000E+00  0.00000000E+00  0.00000000E+00  0.00000000E+00
  0.00000000E+00  0.00000000E+00  0.00000000E+00  0.00000000E+00  0.00000000E+00
  0.00000000E+00  0.00000000E+00  0.00000000E+00  0.00000000E+00  0.00000000E+00
  0.00000000E+00  0.00000000E+00  0.00000000E+00  0.00000000E+00  0.00000000E+00
  0.00000000E+00  0.00000000E+00  0.00000000E+00  0.00000000E+00  0.00000000E+00
  0.00000000E+00  0.00000000E+00  0.00000000E+00  0.00000000E+00  0.00000000E+00
  0.00000000E+00  0.00000000E+00  0.00000000E+00  0.00000000E+00  0.00000000E+00
  0.00000000E+00  0.00000000E+00  0.00000000E+00  0.00000000E+00  0.00000000E+00
  0.00000000E+00  0.00000000E+00  0.00000000E+00  0.00000000E+00  0.00000000E+00
  0.00000000E+00  0.00000000E+00  0.00000000E+00  0.00000000E+00  0.00000000E+00
  0.00000000E+00  0.00000000E+00  0.00000000E+00  0.00000000E+00  0.00000000E+00
  0.00000000E+00  0.00000000E+00  0.00000000E+00  0.00000000E+00  0.00000000E+00
  0.00000000E+00  0.00000000E+00  0.00000000E+00  0.00000000E+00  0.00000000E+00
  0.00000000E+00  0.00000000E+00  0.00000000E+00  0.00000000E+00  0.00000000E+00
  0.00000000E+00  0.00000000E+00  0.00000000E+00  0.00000000E+00  0.00000000E+00
  0.00000000E+00  0.00000000E+00  0.00000000E+00  0.00000000E+00  0.00000000E+00
  0.00000000E+00  0.00000000E+00  0.00000000E+00  0.00000000E+00  0.00000000E+00
  0.00000000E+00  0.00000000E+00  0.00000000E+00  0.00000000E+00  0.00000000E+00
  0.00000000E+00  0.00000000E+00  0.00000000E+00  0.00000000E+00  0.00000000E+00
  0.00000000E+00  0.00000000E+00  0.00000000E+00  0.00000000E+00  0.00000000E+00
  0.00000000E+00  0.00000000E+00  0.00000000E+00  0.00000000E+00  0.00000000E+00
  0.00000000E+00  0.00000000E+00  0.00000000E+00  0.00000000E+00  0.00000000E+00
  0.00000000E+00  0.00000000E+00  0.00000000E+00  0.00000000E+00  0.00000000E+00
  0.00000000E+00  0.00000000E+00  0.00000000E+00  0.00000000E+00  0.00000000E+00
  0.00000000E+00  0.00000000E+00  0.00000000E+00  0.00000000E+00  0.00000000E+00
  0.00000000E+00  0.00000000E+00  0.00000000E+00  0.00000000E+00  0.00000000E+00
  0.00000000E+00  0.00000000E+00  0.00000000E+00  0.00000000E+00  0.00000000E+00
  0.00000000E+00  0.00000000E+00  0.00000000E+00  0.00000000E+00  0.00000000E+00
  0.00000000E+00  0.00000000E+00  0.00000000E+00  0.00000000E+00  0.00000000E+00
  0.00000000E+00  0.00000000E+00  0.00000000E+00  0.00000000E+00  0.00000000E+00
  0.00000000E+00  0.00000000E+00  0.00000000E+00  0.00000000E+00  0.00000000E+00
  0.00000000E+00  0.00000000E+00  0.00000000E+00  0.00000000E+00  0.00000000E+00
  0.00000000E+00  0.00000000E+00  0.00000000E+00  0.00000000E+00  0.00000000E+00
  0.00000000E+00  0.00000000E+00  0.00000000E+00  0.00000000E+00  0.00000000E+00
  0.00000000E+00  0.00000000E+00  0.00000000E+00  0.00000000E+00  0.00000000E+00
  0.00000000E+00  0.00000000E+00  0.00000000E+00  0.00000000E+00  0.00000000E+00
  0.00000000E+00  0.00000000E+00  0.00000000E+00  0.00000000E+00  0.00000000E+00
  0.00000000E+00  0.00000000E+00  0.00000000E+00  0.00000000E+00  0.00000000E+00
  0.00000000E+00  0.00000000E+00  0.00000000E+00  0.00000000E+00  0.00000000E+00
  0.00000000E+00  0.00000000E+00  0.00000000E+00  0.00000000E+00  0.00000000E+00
  0.00000000E+00  0.00000000E+00  0.00000000E+00  0.00000000E+00  0.00000000E+00
  0.00000000E+00  0.00000000E+00  0.00000000E+00  0.00000000E+00  0.00000000E+00
  0.00000000E+00  0.00000000E+00  0.00000000E+00  0.00000000E+00  0.00000000E+00
  0.00000000E+00  0.00000000E+00  0.00000000E+00  0.00000000E+00  0.00000000E+00
  0.00000000E+00  0.00000000E+00  0.00000000E+00  0.00000000E+00  0.00000000E+00
  0.00000000E+00  0.00000000E+00  0.00000000E+00  0.00000000E+00  0.00000000E+00
  0.00000000E+00  0.00000000E+00  0.00000000E+00  0.00000000E+00  0.00000000E+00
  0.00000000E+00  0.00000000E+00  0.00000000E+00  0.00000000E+00  0.00000000E+00
  0.00000000E+00  0.00000000E+00  0.00000000E+00  0.00000000E+00  0.00000000E+00
  0.00000000E+00  0.00000000E+00  0.00000000E+00  0.00000000E+00  0.00000000E+00
  0.00000000E+00  0.00000000E+00  0.00000000E+00  0.00000000E+00  0.00000000E+00
  0.00000000E+00  0.00000000E+00  0.00000000E+00  0.00000000E+00  0.00000000E+00
  0.00000000E+00  0.00000000E+00  0.00000000E+00  0.00000000E+00  0.00000000E+00
  0.00000000E+00  0.00000000E+00  0.00000000E+00  0.00000000E+00  0.00000000E+00
  0.00000000E+00  0.00000000E+00  0.00000000E+00  0.00000000E+00  0.00000000E+00
  0.00000000E+00  0.00000000E+00  0.00000000E+00  0.00000000E+00  0.00000000E+00
  0.00000000E+00  0.00000000E+00  0.00000000E+00  0.00000000E+00  0.00000000E+00
  0.00000000E+00  0.00000000E+00  0.00000000E+00  0.00000000E+00  0.00000000E+00
  0.00000000E+00  0.00000000E+00  0.00000000E+00  0.00000000E+00  0.00000000E+00
Gaussian Version                           C   N=           2
AppleM1-GDVRevJ.32+     
